c Mundo dos Blocos de tamanho variavel -> CNF
c INITIAL = {'c': (0, 0), 'd': (3, 0), 'a': (0, 1), 'b': (1, 1)}
c GOAL    = {'d': (3, 0), 'c': (4, 1), 'a': (4, 2), 'b': (5, 2)}
c HORIZON = 5
c        8 clausulas  3.1 estado inicial
c        8 clausulas  3.2 meta
c      300 clausulas  3.3 (A) unicidade de posicao
c      168 clausulas  3.3 (B) unicidade de nivel
c     1968 clausulas  3.3 (Z) definicao de cov
c      864 clausulas  3.3 (C) exclusao horizontal
c      522 clausulas  3.3 (D) estabilidade
c     2016 clausulas  3.3 (Y) definicao de esp
c      702 clausulas  3.3 (E) clear
c    15480 clausulas  3.4 (G) pre-condicoes de move
c     1785 clausulas  3.4 (F) efeitos de move
c      370 clausulas  3.5 frame axioms
c    17435 clausulas  3.6 acao unica por passo
c       24 clausulas  3.7 ordem parcial
p cnf 1392 41650
13 0
135 0
21 0
139 0
1 0
128 0
8 0
132 0
126 0
219 0
122 0
216 0
110 0
209 0
117 0
213 0
1 2 3 4 5 6 0
-1 -2 0
-1 -3 0
-1 -4 0
-1 -5 0
-1 -6 0
-2 -3 0
-2 -4 0
-2 -5 0
-2 -6 0
-3 -4 0
-3 -5 0
-3 -6 0
-4 -5 0
-4 -6 0
-5 -6 0
7 8 9 10 11 12 0
-7 -8 0
-7 -9 0
-7 -10 0
-7 -11 0
-7 -12 0
-8 -9 0
-8 -10 0
-8 -11 0
-8 -12 0
-9 -10 0
-9 -11 0
-9 -12 0
-10 -11 0
-10 -12 0
-11 -12 0
13 14 15 16 17 0
-13 -14 0
-13 -15 0
-13 -16 0
-13 -17 0
-14 -15 0
-14 -16 0
-14 -17 0
-15 -16 0
-15 -17 0
-16 -17 0
18 19 20 21 0
-18 -19 0
-18 -20 0
-18 -21 0
-19 -20 0
-19 -21 0
-20 -21 0
127 128 129 130 0
-127 -128 0
-127 -129 0
-127 -130 0
-128 -129 0
-128 -130 0
-129 -130 0
131 132 133 134 0
-131 -132 0
-131 -133 0
-131 -134 0
-132 -133 0
-132 -134 0
-133 -134 0
135 136 137 138 0
-135 -136 0
-135 -137 0
-135 -138 0
-136 -137 0
-136 -138 0
-137 -138 0
139 140 141 142 0
-139 -140 0
-139 -141 0
-139 -142 0
-140 -141 0
-140 -142 0
-141 -142 0
-247 127 0
-247 1 0
-1 -127 247 0
-248 127 0
-248 2 0
-2 -127 248 0
-249 127 0
-249 3 0
-3 -127 249 0
-250 127 0
-250 4 0
-4 -127 250 0
-251 127 0
-251 5 0
-5 -127 251 0
-252 127 0
-252 6 0
-6 -127 252 0
-253 128 0
-253 1 0
-1 -128 253 0
-254 128 0
-254 2 0
-2 -128 254 0
-255 128 0
-255 3 0
-3 -128 255 0
-256 128 0
-256 4 0
-4 -128 256 0
-257 128 0
-257 5 0
-5 -128 257 0
-258 128 0
-258 6 0
-6 -128 258 0
-259 129 0
-259 1 0
-1 -129 259 0
-260 129 0
-260 2 0
-2 -129 260 0
-261 129 0
-261 3 0
-3 -129 261 0
-262 129 0
-262 4 0
-4 -129 262 0
-263 129 0
-263 5 0
-5 -129 263 0
-264 129 0
-264 6 0
-6 -129 264 0
-265 130 0
-265 1 0
-1 -130 265 0
-266 130 0
-266 2 0
-2 -130 266 0
-267 130 0
-267 3 0
-3 -130 267 0
-268 130 0
-268 4 0
-4 -130 268 0
-269 130 0
-269 5 0
-5 -130 269 0
-270 130 0
-270 6 0
-6 -130 270 0
-271 131 0
-271 7 0
-7 -131 271 0
-272 131 0
-272 8 0
-8 -131 272 0
-273 131 0
-273 9 0
-9 -131 273 0
-274 131 0
-274 10 0
-10 -131 274 0
-275 131 0
-275 11 0
-11 -131 275 0
-276 131 0
-276 12 0
-12 -131 276 0
-277 132 0
-277 7 0
-7 -132 277 0
-278 132 0
-278 8 0
-8 -132 278 0
-279 132 0
-279 9 0
-9 -132 279 0
-280 132 0
-280 10 0
-10 -132 280 0
-281 132 0
-281 11 0
-11 -132 281 0
-282 132 0
-282 12 0
-12 -132 282 0
-283 133 0
-283 7 0
-7 -133 283 0
-284 133 0
-284 8 0
-8 -133 284 0
-285 133 0
-285 9 0
-9 -133 285 0
-286 133 0
-286 10 0
-10 -133 286 0
-287 133 0
-287 11 0
-11 -133 287 0
-288 133 0
-288 12 0
-12 -133 288 0
-289 134 0
-289 7 0
-7 -134 289 0
-290 134 0
-290 8 0
-8 -134 290 0
-291 134 0
-291 9 0
-9 -134 291 0
-292 134 0
-292 10 0
-10 -134 292 0
-293 134 0
-293 11 0
-11 -134 293 0
-294 134 0
-294 12 0
-12 -134 294 0
-295 135 0
-295 13 0
-13 -135 295 0
-296 135 0
-296 13 14 0
-13 -135 296 0
-14 -135 296 0
-297 135 0
-297 14 15 0
-14 -135 297 0
-15 -135 297 0
-298 135 0
-298 15 16 0
-15 -135 298 0
-16 -135 298 0
-299 135 0
-299 16 17 0
-16 -135 299 0
-17 -135 299 0
-300 135 0
-300 17 0
-17 -135 300 0
-301 136 0
-301 13 0
-13 -136 301 0
-302 136 0
-302 13 14 0
-13 -136 302 0
-14 -136 302 0
-303 136 0
-303 14 15 0
-14 -136 303 0
-15 -136 303 0
-304 136 0
-304 15 16 0
-15 -136 304 0
-16 -136 304 0
-305 136 0
-305 16 17 0
-16 -136 305 0
-17 -136 305 0
-306 136 0
-306 17 0
-17 -136 306 0
-307 137 0
-307 13 0
-13 -137 307 0
-308 137 0
-308 13 14 0
-13 -137 308 0
-14 -137 308 0
-309 137 0
-309 14 15 0
-14 -137 309 0
-15 -137 309 0
-310 137 0
-310 15 16 0
-15 -137 310 0
-16 -137 310 0
-311 137 0
-311 16 17 0
-16 -137 311 0
-17 -137 311 0
-312 137 0
-312 17 0
-17 -137 312 0
-313 138 0
-313 13 0
-13 -138 313 0
-314 138 0
-314 13 14 0
-13 -138 314 0
-14 -138 314 0
-315 138 0
-315 14 15 0
-14 -138 315 0
-15 -138 315 0
-316 138 0
-316 15 16 0
-15 -138 316 0
-16 -138 316 0
-317 138 0
-317 16 17 0
-16 -138 317 0
-17 -138 317 0
-318 138 0
-318 17 0
-17 -138 318 0
-319 139 0
-319 18 0
-18 -139 319 0
-320 139 0
-320 18 19 0
-18 -139 320 0
-19 -139 320 0
-321 139 0
-321 18 19 20 0
-18 -139 321 0
-19 -139 321 0
-20 -139 321 0
-322 139 0
-322 19 20 21 0
-19 -139 322 0
-20 -139 322 0
-21 -139 322 0
-323 139 0
-323 20 21 0
-20 -139 323 0
-21 -139 323 0
-324 139 0
-324 21 0
-21 -139 324 0
-325 140 0
-325 18 0
-18 -140 325 0
-326 140 0
-326 18 19 0
-18 -140 326 0
-19 -140 326 0
-327 140 0
-327 18 19 20 0
-18 -140 327 0
-19 -140 327 0
-20 -140 327 0
-328 140 0
-328 19 20 21 0
-19 -140 328 0
-20 -140 328 0
-21 -140 328 0
-329 140 0
-329 20 21 0
-20 -140 329 0
-21 -140 329 0
-330 140 0
-330 21 0
-21 -140 330 0
-331 141 0
-331 18 0
-18 -141 331 0
-332 141 0
-332 18 19 0
-18 -141 332 0
-19 -141 332 0
-333 141 0
-333 18 19 20 0
-18 -141 333 0
-19 -141 333 0
-20 -141 333 0
-334 141 0
-334 19 20 21 0
-19 -141 334 0
-20 -141 334 0
-21 -141 334 0
-335 141 0
-335 20 21 0
-20 -141 335 0
-21 -141 335 0
-336 141 0
-336 21 0
-21 -141 336 0
-337 142 0
-337 18 0
-18 -142 337 0
-338 142 0
-338 18 19 0
-18 -142 338 0
-19 -142 338 0
-339 142 0
-339 18 19 20 0
-18 -142 339 0
-19 -142 339 0
-20 -142 339 0
-340 142 0
-340 19 20 21 0
-19 -142 340 0
-20 -142 340 0
-21 -142 340 0
-341 142 0
-341 20 21 0
-20 -142 341 0
-21 -142 341 0
-342 142 0
-342 21 0
-21 -142 342 0
-247 -271 0
-247 -295 0
-247 -319 0
-271 -295 0
-271 -319 0
-295 -319 0
-248 -272 0
-248 -296 0
-248 -320 0
-272 -296 0
-272 -320 0
-296 -320 0
-249 -273 0
-249 -297 0
-249 -321 0
-273 -297 0
-273 -321 0
-297 -321 0
-250 -274 0
-250 -298 0
-250 -322 0
-274 -298 0
-274 -322 0
-298 -322 0
-251 -275 0
-251 -299 0
-251 -323 0
-275 -299 0
-275 -323 0
-299 -323 0
-252 -276 0
-252 -300 0
-252 -324 0
-276 -300 0
-276 -324 0
-300 -324 0
-253 -277 0
-253 -301 0
-253 -325 0
-277 -301 0
-277 -325 0
-301 -325 0
-254 -278 0
-254 -302 0
-254 -326 0
-278 -302 0
-278 -326 0
-302 -326 0
-255 -279 0
-255 -303 0
-255 -327 0
-279 -303 0
-279 -327 0
-303 -327 0
-256 -280 0
-256 -304 0
-256 -328 0
-280 -304 0
-280 -328 0
-304 -328 0
-257 -281 0
-257 -305 0
-257 -329 0
-281 -305 0
-281 -329 0
-305 -329 0
-258 -282 0
-258 -306 0
-258 -330 0
-282 -306 0
-282 -330 0
-306 -330 0
-259 -283 0
-259 -307 0
-259 -331 0
-283 -307 0
-283 -331 0
-307 -331 0
-260 -284 0
-260 -308 0
-260 -332 0
-284 -308 0
-284 -332 0
-308 -332 0
-261 -285 0
-261 -309 0
-261 -333 0
-285 -309 0
-285 -333 0
-309 -333 0
-262 -286 0
-262 -310 0
-262 -334 0
-286 -310 0
-286 -334 0
-310 -334 0
-263 -287 0
-263 -311 0
-263 -335 0
-287 -311 0
-287 -335 0
-311 -335 0
-264 -288 0
-264 -312 0
-264 -336 0
-288 -312 0
-288 -336 0
-312 -336 0
-265 -289 0
-265 -313 0
-265 -337 0
-289 -313 0
-289 -337 0
-313 -337 0
-266 -290 0
-266 -314 0
-266 -338 0
-290 -314 0
-290 -338 0
-314 -338 0
-267 -291 0
-267 -315 0
-267 -339 0
-291 -315 0
-291 -339 0
-315 -339 0
-268 -292 0
-268 -316 0
-268 -340 0
-292 -316 0
-292 -340 0
-316 -340 0
-269 -293 0
-269 -317 0
-269 -341 0
-293 -317 0
-293 -341 0
-317 -341 0
-270 -294 0
-270 -318 0
-270 -342 0
-294 -318 0
-294 -342 0
-318 -342 0
-1 -128 271 295 319 0
-1 -129 277 301 325 0
-1 -130 283 307 331 0
-2 -128 272 296 320 0
-2 -129 278 302 326 0
-2 -130 284 308 332 0
-3 -128 273 297 321 0
-3 -129 279 303 327 0
-3 -130 285 309 333 0
-4 -128 274 298 322 0
-4 -129 280 304 328 0
-4 -130 286 310 334 0
-5 -128 275 299 323 0
-5 -129 281 305 329 0
-5 -130 287 311 335 0
-6 -128 276 300 324 0
-6 -129 282 306 330 0
-6 -130 288 312 336 0
-7 -132 247 295 319 0
-7 -133 253 301 325 0
-7 -134 259 307 331 0
-8 -132 248 296 320 0
-8 -133 254 302 326 0
-8 -134 260 308 332 0
-9 -132 249 297 321 0
-9 -133 255 303 327 0
-9 -134 261 309 333 0
-10 -132 250 298 322 0
-10 -133 256 304 328 0
-10 -134 262 310 334 0
-11 -132 251 299 323 0
-11 -133 257 305 329 0
-11 -134 263 311 335 0
-12 -132 252 300 324 0
-12 -133 258 306 330 0
-12 -134 264 312 336 0
-13 -136 247 271 319 248 272 320 0
-13 -137 253 277 325 254 278 326 0
-13 -138 259 283 331 260 284 332 0
-14 -136 248 272 320 249 273 321 0
-14 -137 254 278 326 255 279 327 0
-14 -138 260 284 332 261 285 333 0
-15 -136 249 273 321 250 274 322 0
-15 -137 255 279 327 256 280 328 0
-15 -138 261 285 333 262 286 334 0
-16 -136 250 274 322 251 275 323 0
-16 -137 256 280 328 257 281 329 0
-16 -138 262 286 334 263 287 335 0
-17 -136 251 275 323 252 276 324 0
-17 -137 257 281 329 258 282 330 0
-17 -138 263 287 335 264 288 336 0
-18 -140 247 271 295 248 272 296 0
-18 -140 247 271 295 249 273 297 0
-18 -140 248 272 296 249 273 297 0
-18 -141 253 277 301 254 278 302 0
-18 -141 253 277 301 255 279 303 0
-18 -141 254 278 302 255 279 303 0
-18 -142 259 283 307 260 284 308 0
-18 -142 259 283 307 261 285 309 0
-18 -142 260 284 308 261 285 309 0
-19 -140 248 272 296 249 273 297 0
-19 -140 248 272 296 250 274 298 0
-19 -140 249 273 297 250 274 298 0
-19 -141 254 278 302 255 279 303 0
-19 -141 254 278 302 256 280 304 0
-19 -141 255 279 303 256 280 304 0
-19 -142 260 284 308 261 285 309 0
-19 -142 260 284 308 262 286 310 0
-19 -142 261 285 309 262 286 310 0
-20 -140 249 273 297 250 274 298 0
-20 -140 249 273 297 251 275 299 0
-20 -140 250 274 298 251 275 299 0
-20 -141 255 279 303 256 280 304 0
-20 -141 255 279 303 257 281 305 0
-20 -141 256 280 304 257 281 305 0
-20 -142 261 285 309 262 286 310 0
-20 -142 261 285 309 263 287 311 0
-20 -142 262 286 310 263 287 311 0
-21 -140 250 274 298 251 275 299 0
-21 -140 250 274 298 252 276 300 0
-21 -140 251 275 299 252 276 300 0
-21 -141 256 280 304 257 281 305 0
-21 -141 256 280 304 258 282 306 0
-21 -141 257 281 305 258 282 306 0
-21 -142 262 286 310 263 287 311 0
-21 -142 262 286 310 264 288 312 0
-21 -142 263 287 311 264 288 312 0
-1249 247 253 259 265 0
-1249 -247 -277 0
-1249 -247 -301 0
-1249 -247 -325 0
-247 1249 277 301 325 0
-1249 -253 -283 0
-1249 -253 -307 0
-1249 -253 -331 0
-253 1249 283 307 331 0
-1249 -259 -289 0
-1249 -259 -313 0
-1249 -259 -337 0
-259 1249 289 313 337 0
-265 1249 0
-1250 248 254 260 266 0
-1250 -248 -278 0
-1250 -248 -302 0
-1250 -248 -326 0
-248 1250 278 302 326 0
-1250 -254 -284 0
-1250 -254 -308 0
-1250 -254 -332 0
-254 1250 284 308 332 0
-1250 -260 -290 0
-1250 -260 -314 0
-1250 -260 -338 0
-260 1250 290 314 338 0
-266 1250 0
-1251 249 255 261 267 0
-1251 -249 -279 0
-1251 -249 -303 0
-1251 -249 -327 0
-249 1251 279 303 327 0
-1251 -255 -285 0
-1251 -255 -309 0
-1251 -255 -333 0
-255 1251 285 309 333 0
-1251 -261 -291 0
-1251 -261 -315 0
-1251 -261 -339 0
-261 1251 291 315 339 0
-267 1251 0
-1252 250 256 262 268 0
-1252 -250 -280 0
-1252 -250 -304 0
-1252 -250 -328 0
-250 1252 280 304 328 0
-1252 -256 -286 0
-1252 -256 -310 0
-1252 -256 -334 0
-256 1252 286 310 334 0
-1252 -262 -292 0
-1252 -262 -316 0
-1252 -262 -340 0
-262 1252 292 316 340 0
-268 1252 0
-1253 251 257 263 269 0
-1253 -251 -281 0
-1253 -251 -305 0
-1253 -251 -329 0
-251 1253 281 305 329 0
-1253 -257 -287 0
-1253 -257 -311 0
-1253 -257 -335 0
-257 1253 287 311 335 0
-1253 -263 -293 0
-1253 -263 -317 0
-1253 -263 -341 0
-263 1253 293 317 341 0
-269 1253 0
-1254 252 258 264 270 0
-1254 -252 -282 0
-1254 -252 -306 0
-1254 -252 -330 0
-252 1254 282 306 330 0
-1254 -258 -288 0
-1254 -258 -312 0
-1254 -258 -336 0
-258 1254 288 312 336 0
-1254 -264 -294 0
-1254 -264 -318 0
-1254 -264 -342 0
-264 1254 294 318 342 0
-270 1254 0
-1255 271 277 283 289 0
-1255 -271 -253 0
-1255 -271 -301 0
-1255 -271 -325 0
-271 1255 253 301 325 0
-1255 -277 -259 0
-1255 -277 -307 0
-1255 -277 -331 0
-277 1255 259 307 331 0
-1255 -283 -265 0
-1255 -283 -313 0
-1255 -283 -337 0
-283 1255 265 313 337 0
-289 1255 0
-1256 272 278 284 290 0
-1256 -272 -254 0
-1256 -272 -302 0
-1256 -272 -326 0
-272 1256 254 302 326 0
-1256 -278 -260 0
-1256 -278 -308 0
-1256 -278 -332 0
-278 1256 260 308 332 0
-1256 -284 -266 0
-1256 -284 -314 0
-1256 -284 -338 0
-284 1256 266 314 338 0
-290 1256 0
-1257 273 279 285 291 0
-1257 -273 -255 0
-1257 -273 -303 0
-1257 -273 -327 0
-273 1257 255 303 327 0
-1257 -279 -261 0
-1257 -279 -309 0
-1257 -279 -333 0
-279 1257 261 309 333 0
-1257 -285 -267 0
-1257 -285 -315 0
-1257 -285 -339 0
-285 1257 267 315 339 0
-291 1257 0
-1258 274 280 286 292 0
-1258 -274 -256 0
-1258 -274 -304 0
-1258 -274 -328 0
-274 1258 256 304 328 0
-1258 -280 -262 0
-1258 -280 -310 0
-1258 -280 -334 0
-280 1258 262 310 334 0
-1258 -286 -268 0
-1258 -286 -316 0
-1258 -286 -340 0
-286 1258 268 316 340 0
-292 1258 0
-1259 275 281 287 293 0
-1259 -275 -257 0
-1259 -275 -305 0
-1259 -275 -329 0
-275 1259 257 305 329 0
-1259 -281 -263 0
-1259 -281 -311 0
-1259 -281 -335 0
-281 1259 263 311 335 0
-1259 -287 -269 0
-1259 -287 -317 0
-1259 -287 -341 0
-287 1259 269 317 341 0
-293 1259 0
-1260 276 282 288 294 0
-1260 -276 -258 0
-1260 -276 -306 0
-1260 -276 -330 0
-276 1260 258 306 330 0
-1260 -282 -264 0
-1260 -282 -312 0
-1260 -282 -336 0
-282 1260 264 312 336 0
-1260 -288 -270 0
-1260 -288 -318 0
-1260 -288 -342 0
-288 1260 270 318 342 0
-294 1260 0
-1261 295 301 307 313 0
-1261 -295 -253 0
-1261 -295 -277 0
-1261 -295 -325 0
-295 1261 253 277 325 0
-1261 -301 -259 0
-1261 -301 -283 0
-1261 -301 -331 0
-301 1261 259 283 331 0
-1261 -307 -265 0
-1261 -307 -289 0
-1261 -307 -337 0
-307 1261 265 289 337 0
-313 1261 0
-1262 296 302 308 314 0
-1262 -296 -254 0
-1262 -296 -278 0
-1262 -296 -326 0
-296 1262 254 278 326 0
-1262 -302 -260 0
-1262 -302 -284 0
-1262 -302 -332 0
-302 1262 260 284 332 0
-1262 -308 -266 0
-1262 -308 -290 0
-1262 -308 -338 0
-308 1262 266 290 338 0
-314 1262 0
-1263 297 303 309 315 0
-1263 -297 -255 0
-1263 -297 -279 0
-1263 -297 -327 0
-297 1263 255 279 327 0
-1263 -303 -261 0
-1263 -303 -285 0
-1263 -303 -333 0
-303 1263 261 285 333 0
-1263 -309 -267 0
-1263 -309 -291 0
-1263 -309 -339 0
-309 1263 267 291 339 0
-315 1263 0
-1264 298 304 310 316 0
-1264 -298 -256 0
-1264 -298 -280 0
-1264 -298 -328 0
-298 1264 256 280 328 0
-1264 -304 -262 0
-1264 -304 -286 0
-1264 -304 -334 0
-304 1264 262 286 334 0
-1264 -310 -268 0
-1264 -310 -292 0
-1264 -310 -340 0
-310 1264 268 292 340 0
-316 1264 0
-1265 299 305 311 317 0
-1265 -299 -257 0
-1265 -299 -281 0
-1265 -299 -329 0
-299 1265 257 281 329 0
-1265 -305 -263 0
-1265 -305 -287 0
-1265 -305 -335 0
-305 1265 263 287 335 0
-1265 -311 -269 0
-1265 -311 -293 0
-1265 -311 -341 0
-311 1265 269 293 341 0
-317 1265 0
-1266 300 306 312 318 0
-1266 -300 -258 0
-1266 -300 -282 0
-1266 -300 -330 0
-300 1266 258 282 330 0
-1266 -306 -264 0
-1266 -306 -288 0
-1266 -306 -336 0
-306 1266 264 288 336 0
-1266 -312 -270 0
-1266 -312 -294 0
-1266 -312 -342 0
-312 1266 270 294 342 0
-318 1266 0
-1267 319 325 331 337 0
-1267 -319 -253 0
-1267 -319 -277 0
-1267 -319 -301 0
-319 1267 253 277 301 0
-1267 -325 -259 0
-1267 -325 -283 0
-1267 -325 -307 0
-325 1267 259 283 307 0
-1267 -331 -265 0
-1267 -331 -289 0
-1267 -331 -313 0
-331 1267 265 289 313 0
-337 1267 0
-1268 320 326 332 338 0
-1268 -320 -254 0
-1268 -320 -278 0
-1268 -320 -302 0
-320 1268 254 278 302 0
-1268 -326 -260 0
-1268 -326 -284 0
-1268 -326 -308 0
-326 1268 260 284 308 0
-1268 -332 -266 0
-1268 -332 -290 0
-1268 -332 -314 0
-332 1268 266 290 314 0
-338 1268 0
-1269 321 327 333 339 0
-1269 -321 -255 0
-1269 -321 -279 0
-1269 -321 -303 0
-321 1269 255 279 303 0
-1269 -327 -261 0
-1269 -327 -285 0
-1269 -327 -309 0
-327 1269 261 285 309 0
-1269 -333 -267 0
-1269 -333 -291 0
-1269 -333 -315 0
-333 1269 267 291 315 0
-339 1269 0
-1270 322 328 334 340 0
-1270 -322 -256 0
-1270 -322 -280 0
-1270 -322 -304 0
-322 1270 256 280 304 0
-1270 -328 -262 0
-1270 -328 -286 0
-1270 -328 -310 0
-328 1270 262 286 310 0
-1270 -334 -268 0
-1270 -334 -292 0
-1270 -334 -316 0
-334 1270 268 292 316 0
-340 1270 0
-1271 323 329 335 341 0
-1271 -323 -257 0
-1271 -323 -281 0
-1271 -323 -305 0
-323 1271 257 281 305 0
-1271 -329 -263 0
-1271 -329 -287 0
-1271 -329 -311 0
-329 1271 263 287 311 0
-1271 -335 -269 0
-1271 -335 -293 0
-1271 -335 -317 0
-335 1271 269 293 317 0
-341 1271 0
-1272 324 330 336 342 0
-1272 -324 -258 0
-1272 -324 -282 0
-1272 -324 -306 0
-324 1272 258 282 306 0
-1272 -330 -264 0
-1272 -330 -288 0
-1272 -330 -312 0
-330 1272 264 288 312 0
-1272 -336 -270 0
-1272 -336 -294 0
-1272 -336 -318 0
-336 1272 270 294 318 0
-342 1272 0
-223 -247 1249 0
-223 -253 1249 0
-223 -259 1249 0
-223 -265 1249 0
-223 -248 1250 0
-223 -254 1250 0
-223 -260 1250 0
-223 -266 1250 0
-223 -249 1251 0
-223 -255 1251 0
-223 -261 1251 0
-223 -267 1251 0
-223 -250 1252 0
-223 -256 1252 0
-223 -262 1252 0
-223 -268 1252 0
-223 -251 1253 0
-223 -257 1253 0
-223 -263 1253 0
-223 -269 1253 0
-223 -252 1254 0
-223 -258 1254 0
-223 -264 1254 0
-223 -270 1254 0
-1 223 -1249 0
-2 223 -1250 0
-3 223 -1251 0
-4 223 -1252 0
-5 223 -1253 0
-6 223 -1254 0
-224 -271 1255 0
-224 -277 1255 0
-224 -283 1255 0
-224 -289 1255 0
-224 -272 1256 0
-224 -278 1256 0
-224 -284 1256 0
-224 -290 1256 0
-224 -273 1257 0
-224 -279 1257 0
-224 -285 1257 0
-224 -291 1257 0
-224 -274 1258 0
-224 -280 1258 0
-224 -286 1258 0
-224 -292 1258 0
-224 -275 1259 0
-224 -281 1259 0
-224 -287 1259 0
-224 -293 1259 0
-224 -276 1260 0
-224 -282 1260 0
-224 -288 1260 0
-224 -294 1260 0
-7 224 -1255 0
-8 224 -1256 0
-9 224 -1257 0
-10 224 -1258 0
-11 224 -1259 0
-12 224 -1260 0
-225 -295 1261 0
-225 -301 1261 0
-225 -307 1261 0
-225 -313 1261 0
-225 -296 1262 0
-225 -302 1262 0
-225 -308 1262 0
-225 -314 1262 0
-225 -297 1263 0
-225 -303 1263 0
-225 -309 1263 0
-225 -315 1263 0
-225 -298 1264 0
-225 -304 1264 0
-225 -310 1264 0
-225 -316 1264 0
-225 -299 1265 0
-225 -305 1265 0
-225 -311 1265 0
-225 -317 1265 0
-225 -300 1266 0
-225 -306 1266 0
-225 -312 1266 0
-225 -318 1266 0
-13 225 -1261 -1262 0
-14 225 -1262 -1263 0
-15 225 -1263 -1264 0
-16 225 -1264 -1265 0
-17 225 -1265 -1266 0
-226 -319 1267 0
-226 -325 1267 0
-226 -331 1267 0
-226 -337 1267 0
-226 -320 1268 0
-226 -326 1268 0
-226 -332 1268 0
-226 -338 1268 0
-226 -321 1269 0
-226 -327 1269 0
-226 -333 1269 0
-226 -339 1269 0
-226 -322 1270 0
-226 -328 1270 0
-226 -334 1270 0
-226 -340 1270 0
-226 -323 1271 0
-226 -329 1271 0
-226 -335 1271 0
-226 -341 1271 0
-226 -324 1272 0
-226 -330 1272 0
-226 -336 1272 0
-226 -342 1272 0
-18 226 -1267 -1268 -1269 0
-19 226 -1268 -1269 -1270 0
-20 226 -1269 -1270 -1271 0
-21 226 -1270 -1271 -1272 0
22 23 24 25 26 27 0
-22 -23 0
-22 -24 0
-22 -25 0
-22 -26 0
-22 -27 0
-23 -24 0
-23 -25 0
-23 -26 0
-23 -27 0
-24 -25 0
-24 -26 0
-24 -27 0
-25 -26 0
-25 -27 0
-26 -27 0
28 29 30 31 32 33 0
-28 -29 0
-28 -30 0
-28 -31 0
-28 -32 0
-28 -33 0
-29 -30 0
-29 -31 0
-29 -32 0
-29 -33 0
-30 -31 0
-30 -32 0
-30 -33 0
-31 -32 0
-31 -33 0
-32 -33 0
34 35 36 37 38 0
-34 -35 0
-34 -36 0
-34 -37 0
-34 -38 0
-35 -36 0
-35 -37 0
-35 -38 0
-36 -37 0
-36 -38 0
-37 -38 0
39 40 41 42 0
-39 -40 0
-39 -41 0
-39 -42 0
-40 -41 0
-40 -42 0
-41 -42 0
143 144 145 146 0
-143 -144 0
-143 -145 0
-143 -146 0
-144 -145 0
-144 -146 0
-145 -146 0
147 148 149 150 0
-147 -148 0
-147 -149 0
-147 -150 0
-148 -149 0
-148 -150 0
-149 -150 0
151 152 153 154 0
-151 -152 0
-151 -153 0
-151 -154 0
-152 -153 0
-152 -154 0
-153 -154 0
155 156 157 158 0
-155 -156 0
-155 -157 0
-155 -158 0
-156 -157 0
-156 -158 0
-157 -158 0
-343 143 0
-343 22 0
-22 -143 343 0
-344 143 0
-344 23 0
-23 -143 344 0
-345 143 0
-345 24 0
-24 -143 345 0
-346 143 0
-346 25 0
-25 -143 346 0
-347 143 0
-347 26 0
-26 -143 347 0
-348 143 0
-348 27 0
-27 -143 348 0
-349 144 0
-349 22 0
-22 -144 349 0
-350 144 0
-350 23 0
-23 -144 350 0
-351 144 0
-351 24 0
-24 -144 351 0
-352 144 0
-352 25 0
-25 -144 352 0
-353 144 0
-353 26 0
-26 -144 353 0
-354 144 0
-354 27 0
-27 -144 354 0
-355 145 0
-355 22 0
-22 -145 355 0
-356 145 0
-356 23 0
-23 -145 356 0
-357 145 0
-357 24 0
-24 -145 357 0
-358 145 0
-358 25 0
-25 -145 358 0
-359 145 0
-359 26 0
-26 -145 359 0
-360 145 0
-360 27 0
-27 -145 360 0
-361 146 0
-361 22 0
-22 -146 361 0
-362 146 0
-362 23 0
-23 -146 362 0
-363 146 0
-363 24 0
-24 -146 363 0
-364 146 0
-364 25 0
-25 -146 364 0
-365 146 0
-365 26 0
-26 -146 365 0
-366 146 0
-366 27 0
-27 -146 366 0
-367 147 0
-367 28 0
-28 -147 367 0
-368 147 0
-368 29 0
-29 -147 368 0
-369 147 0
-369 30 0
-30 -147 369 0
-370 147 0
-370 31 0
-31 -147 370 0
-371 147 0
-371 32 0
-32 -147 371 0
-372 147 0
-372 33 0
-33 -147 372 0
-373 148 0
-373 28 0
-28 -148 373 0
-374 148 0
-374 29 0
-29 -148 374 0
-375 148 0
-375 30 0
-30 -148 375 0
-376 148 0
-376 31 0
-31 -148 376 0
-377 148 0
-377 32 0
-32 -148 377 0
-378 148 0
-378 33 0
-33 -148 378 0
-379 149 0
-379 28 0
-28 -149 379 0
-380 149 0
-380 29 0
-29 -149 380 0
-381 149 0
-381 30 0
-30 -149 381 0
-382 149 0
-382 31 0
-31 -149 382 0
-383 149 0
-383 32 0
-32 -149 383 0
-384 149 0
-384 33 0
-33 -149 384 0
-385 150 0
-385 28 0
-28 -150 385 0
-386 150 0
-386 29 0
-29 -150 386 0
-387 150 0
-387 30 0
-30 -150 387 0
-388 150 0
-388 31 0
-31 -150 388 0
-389 150 0
-389 32 0
-32 -150 389 0
-390 150 0
-390 33 0
-33 -150 390 0
-391 151 0
-391 34 0
-34 -151 391 0
-392 151 0
-392 34 35 0
-34 -151 392 0
-35 -151 392 0
-393 151 0
-393 35 36 0
-35 -151 393 0
-36 -151 393 0
-394 151 0
-394 36 37 0
-36 -151 394 0
-37 -151 394 0
-395 151 0
-395 37 38 0
-37 -151 395 0
-38 -151 395 0
-396 151 0
-396 38 0
-38 -151 396 0
-397 152 0
-397 34 0
-34 -152 397 0
-398 152 0
-398 34 35 0
-34 -152 398 0
-35 -152 398 0
-399 152 0
-399 35 36 0
-35 -152 399 0
-36 -152 399 0
-400 152 0
-400 36 37 0
-36 -152 400 0
-37 -152 400 0
-401 152 0
-401 37 38 0
-37 -152 401 0
-38 -152 401 0
-402 152 0
-402 38 0
-38 -152 402 0
-403 153 0
-403 34 0
-34 -153 403 0
-404 153 0
-404 34 35 0
-34 -153 404 0
-35 -153 404 0
-405 153 0
-405 35 36 0
-35 -153 405 0
-36 -153 405 0
-406 153 0
-406 36 37 0
-36 -153 406 0
-37 -153 406 0
-407 153 0
-407 37 38 0
-37 -153 407 0
-38 -153 407 0
-408 153 0
-408 38 0
-38 -153 408 0
-409 154 0
-409 34 0
-34 -154 409 0
-410 154 0
-410 34 35 0
-34 -154 410 0
-35 -154 410 0
-411 154 0
-411 35 36 0
-35 -154 411 0
-36 -154 411 0
-412 154 0
-412 36 37 0
-36 -154 412 0
-37 -154 412 0
-413 154 0
-413 37 38 0
-37 -154 413 0
-38 -154 413 0
-414 154 0
-414 38 0
-38 -154 414 0
-415 155 0
-415 39 0
-39 -155 415 0
-416 155 0
-416 39 40 0
-39 -155 416 0
-40 -155 416 0
-417 155 0
-417 39 40 41 0
-39 -155 417 0
-40 -155 417 0
-41 -155 417 0
-418 155 0
-418 40 41 42 0
-40 -155 418 0
-41 -155 418 0
-42 -155 418 0
-419 155 0
-419 41 42 0
-41 -155 419 0
-42 -155 419 0
-420 155 0
-420 42 0
-42 -155 420 0
-421 156 0
-421 39 0
-39 -156 421 0
-422 156 0
-422 39 40 0
-39 -156 422 0
-40 -156 422 0
-423 156 0
-423 39 40 41 0
-39 -156 423 0
-40 -156 423 0
-41 -156 423 0
-424 156 0
-424 40 41 42 0
-40 -156 424 0
-41 -156 424 0
-42 -156 424 0
-425 156 0
-425 41 42 0
-41 -156 425 0
-42 -156 425 0
-426 156 0
-426 42 0
-42 -156 426 0
-427 157 0
-427 39 0
-39 -157 427 0
-428 157 0
-428 39 40 0
-39 -157 428 0
-40 -157 428 0
-429 157 0
-429 39 40 41 0
-39 -157 429 0
-40 -157 429 0
-41 -157 429 0
-430 157 0
-430 40 41 42 0
-40 -157 430 0
-41 -157 430 0
-42 -157 430 0
-431 157 0
-431 41 42 0
-41 -157 431 0
-42 -157 431 0
-432 157 0
-432 42 0
-42 -157 432 0
-433 158 0
-433 39 0
-39 -158 433 0
-434 158 0
-434 39 40 0
-39 -158 434 0
-40 -158 434 0
-435 158 0
-435 39 40 41 0
-39 -158 435 0
-40 -158 435 0
-41 -158 435 0
-436 158 0
-436 40 41 42 0
-40 -158 436 0
-41 -158 436 0
-42 -158 436 0
-437 158 0
-437 41 42 0
-41 -158 437 0
-42 -158 437 0
-438 158 0
-438 42 0
-42 -158 438 0
-343 -367 0
-343 -391 0
-343 -415 0
-367 -391 0
-367 -415 0
-391 -415 0
-344 -368 0
-344 -392 0
-344 -416 0
-368 -392 0
-368 -416 0
-392 -416 0
-345 -369 0
-345 -393 0
-345 -417 0
-369 -393 0
-369 -417 0
-393 -417 0
-346 -370 0
-346 -394 0
-346 -418 0
-370 -394 0
-370 -418 0
-394 -418 0
-347 -371 0
-347 -395 0
-347 -419 0
-371 -395 0
-371 -419 0
-395 -419 0
-348 -372 0
-348 -396 0
-348 -420 0
-372 -396 0
-372 -420 0
-396 -420 0
-349 -373 0
-349 -397 0
-349 -421 0
-373 -397 0
-373 -421 0
-397 -421 0
-350 -374 0
-350 -398 0
-350 -422 0
-374 -398 0
-374 -422 0
-398 -422 0
-351 -375 0
-351 -399 0
-351 -423 0
-375 -399 0
-375 -423 0
-399 -423 0
-352 -376 0
-352 -400 0
-352 -424 0
-376 -400 0
-376 -424 0
-400 -424 0
-353 -377 0
-353 -401 0
-353 -425 0
-377 -401 0
-377 -425 0
-401 -425 0
-354 -378 0
-354 -402 0
-354 -426 0
-378 -402 0
-378 -426 0
-402 -426 0
-355 -379 0
-355 -403 0
-355 -427 0
-379 -403 0
-379 -427 0
-403 -427 0
-356 -380 0
-356 -404 0
-356 -428 0
-380 -404 0
-380 -428 0
-404 -428 0
-357 -381 0
-357 -405 0
-357 -429 0
-381 -405 0
-381 -429 0
-405 -429 0
-358 -382 0
-358 -406 0
-358 -430 0
-382 -406 0
-382 -430 0
-406 -430 0
-359 -383 0
-359 -407 0
-359 -431 0
-383 -407 0
-383 -431 0
-407 -431 0
-360 -384 0
-360 -408 0
-360 -432 0
-384 -408 0
-384 -432 0
-408 -432 0
-361 -385 0
-361 -409 0
-361 -433 0
-385 -409 0
-385 -433 0
-409 -433 0
-362 -386 0
-362 -410 0
-362 -434 0
-386 -410 0
-386 -434 0
-410 -434 0
-363 -387 0
-363 -411 0
-363 -435 0
-387 -411 0
-387 -435 0
-411 -435 0
-364 -388 0
-364 -412 0
-364 -436 0
-388 -412 0
-388 -436 0
-412 -436 0
-365 -389 0
-365 -413 0
-365 -437 0
-389 -413 0
-389 -437 0
-413 -437 0
-366 -390 0
-366 -414 0
-366 -438 0
-390 -414 0
-390 -438 0
-414 -438 0
-22 -144 367 391 415 0
-22 -145 373 397 421 0
-22 -146 379 403 427 0
-23 -144 368 392 416 0
-23 -145 374 398 422 0
-23 -146 380 404 428 0
-24 -144 369 393 417 0
-24 -145 375 399 423 0
-24 -146 381 405 429 0
-25 -144 370 394 418 0
-25 -145 376 400 424 0
-25 -146 382 406 430 0
-26 -144 371 395 419 0
-26 -145 377 401 425 0
-26 -146 383 407 431 0
-27 -144 372 396 420 0
-27 -145 378 402 426 0
-27 -146 384 408 432 0
-28 -148 343 391 415 0
-28 -149 349 397 421 0
-28 -150 355 403 427 0
-29 -148 344 392 416 0
-29 -149 350 398 422 0
-29 -150 356 404 428 0
-30 -148 345 393 417 0
-30 -149 351 399 423 0
-30 -150 357 405 429 0
-31 -148 346 394 418 0
-31 -149 352 400 424 0
-31 -150 358 406 430 0
-32 -148 347 395 419 0
-32 -149 353 401 425 0
-32 -150 359 407 431 0
-33 -148 348 396 420 0
-33 -149 354 402 426 0
-33 -150 360 408 432 0
-34 -152 343 367 415 344 368 416 0
-34 -153 349 373 421 350 374 422 0
-34 -154 355 379 427 356 380 428 0
-35 -152 344 368 416 345 369 417 0
-35 -153 350 374 422 351 375 423 0
-35 -154 356 380 428 357 381 429 0
-36 -152 345 369 417 346 370 418 0
-36 -153 351 375 423 352 376 424 0
-36 -154 357 381 429 358 382 430 0
-37 -152 346 370 418 347 371 419 0
-37 -153 352 376 424 353 377 425 0
-37 -154 358 382 430 359 383 431 0
-38 -152 347 371 419 348 372 420 0
-38 -153 353 377 425 354 378 426 0
-38 -154 359 383 431 360 384 432 0
-39 -156 343 367 391 344 368 392 0
-39 -156 343 367 391 345 369 393 0
-39 -156 344 368 392 345 369 393 0
-39 -157 349 373 397 350 374 398 0
-39 -157 349 373 397 351 375 399 0
-39 -157 350 374 398 351 375 399 0
-39 -158 355 379 403 356 380 404 0
-39 -158 355 379 403 357 381 405 0
-39 -158 356 380 404 357 381 405 0
-40 -156 344 368 392 345 369 393 0
-40 -156 344 368 392 346 370 394 0
-40 -156 345 369 393 346 370 394 0
-40 -157 350 374 398 351 375 399 0
-40 -157 350 374 398 352 376 400 0
-40 -157 351 375 399 352 376 400 0
-40 -158 356 380 404 357 381 405 0
-40 -158 356 380 404 358 382 406 0
-40 -158 357 381 405 358 382 406 0
-41 -156 345 369 393 346 370 394 0
-41 -156 345 369 393 347 371 395 0
-41 -156 346 370 394 347 371 395 0
-41 -157 351 375 399 352 376 400 0
-41 -157 351 375 399 353 377 401 0
-41 -157 352 376 400 353 377 401 0
-41 -158 357 381 405 358 382 406 0
-41 -158 357 381 405 359 383 407 0
-41 -158 358 382 406 359 383 407 0
-42 -156 346 370 394 347 371 395 0
-42 -156 346 370 394 348 372 396 0
-42 -156 347 371 395 348 372 396 0
-42 -157 352 376 400 353 377 401 0
-42 -157 352 376 400 354 378 402 0
-42 -157 353 377 401 354 378 402 0
-42 -158 358 382 406 359 383 407 0
-42 -158 358 382 406 360 384 408 0
-42 -158 359 383 407 360 384 408 0
-1273 343 349 355 361 0
-1273 -343 -373 0
-1273 -343 -397 0
-1273 -343 -421 0
-343 1273 373 397 421 0
-1273 -349 -379 0
-1273 -349 -403 0
-1273 -349 -427 0
-349 1273 379 403 427 0
-1273 -355 -385 0
-1273 -355 -409 0
-1273 -355 -433 0
-355 1273 385 409 433 0
-361 1273 0
-1274 344 350 356 362 0
-1274 -344 -374 0
-1274 -344 -398 0
-1274 -344 -422 0
-344 1274 374 398 422 0
-1274 -350 -380 0
-1274 -350 -404 0
-1274 -350 -428 0
-350 1274 380 404 428 0
-1274 -356 -386 0
-1274 -356 -410 0
-1274 -356 -434 0
-356 1274 386 410 434 0
-362 1274 0
-1275 345 351 357 363 0
-1275 -345 -375 0
-1275 -345 -399 0
-1275 -345 -423 0
-345 1275 375 399 423 0
-1275 -351 -381 0
-1275 -351 -405 0
-1275 -351 -429 0
-351 1275 381 405 429 0
-1275 -357 -387 0
-1275 -357 -411 0
-1275 -357 -435 0
-357 1275 387 411 435 0
-363 1275 0
-1276 346 352 358 364 0
-1276 -346 -376 0
-1276 -346 -400 0
-1276 -346 -424 0
-346 1276 376 400 424 0
-1276 -352 -382 0
-1276 -352 -406 0
-1276 -352 -430 0
-352 1276 382 406 430 0
-1276 -358 -388 0
-1276 -358 -412 0
-1276 -358 -436 0
-358 1276 388 412 436 0
-364 1276 0
-1277 347 353 359 365 0
-1277 -347 -377 0
-1277 -347 -401 0
-1277 -347 -425 0
-347 1277 377 401 425 0
-1277 -353 -383 0
-1277 -353 -407 0
-1277 -353 -431 0
-353 1277 383 407 431 0
-1277 -359 -389 0
-1277 -359 -413 0
-1277 -359 -437 0
-359 1277 389 413 437 0
-365 1277 0
-1278 348 354 360 366 0
-1278 -348 -378 0
-1278 -348 -402 0
-1278 -348 -426 0
-348 1278 378 402 426 0
-1278 -354 -384 0
-1278 -354 -408 0
-1278 -354 -432 0
-354 1278 384 408 432 0
-1278 -360 -390 0
-1278 -360 -414 0
-1278 -360 -438 0
-360 1278 390 414 438 0
-366 1278 0
-1279 367 373 379 385 0
-1279 -367 -349 0
-1279 -367 -397 0
-1279 -367 -421 0
-367 1279 349 397 421 0
-1279 -373 -355 0
-1279 -373 -403 0
-1279 -373 -427 0
-373 1279 355 403 427 0
-1279 -379 -361 0
-1279 -379 -409 0
-1279 -379 -433 0
-379 1279 361 409 433 0
-385 1279 0
-1280 368 374 380 386 0
-1280 -368 -350 0
-1280 -368 -398 0
-1280 -368 -422 0
-368 1280 350 398 422 0
-1280 -374 -356 0
-1280 -374 -404 0
-1280 -374 -428 0
-374 1280 356 404 428 0
-1280 -380 -362 0
-1280 -380 -410 0
-1280 -380 -434 0
-380 1280 362 410 434 0
-386 1280 0
-1281 369 375 381 387 0
-1281 -369 -351 0
-1281 -369 -399 0
-1281 -369 -423 0
-369 1281 351 399 423 0
-1281 -375 -357 0
-1281 -375 -405 0
-1281 -375 -429 0
-375 1281 357 405 429 0
-1281 -381 -363 0
-1281 -381 -411 0
-1281 -381 -435 0
-381 1281 363 411 435 0
-387 1281 0
-1282 370 376 382 388 0
-1282 -370 -352 0
-1282 -370 -400 0
-1282 -370 -424 0
-370 1282 352 400 424 0
-1282 -376 -358 0
-1282 -376 -406 0
-1282 -376 -430 0
-376 1282 358 406 430 0
-1282 -382 -364 0
-1282 -382 -412 0
-1282 -382 -436 0
-382 1282 364 412 436 0
-388 1282 0
-1283 371 377 383 389 0
-1283 -371 -353 0
-1283 -371 -401 0
-1283 -371 -425 0
-371 1283 353 401 425 0
-1283 -377 -359 0
-1283 -377 -407 0
-1283 -377 -431 0
-377 1283 359 407 431 0
-1283 -383 -365 0
-1283 -383 -413 0
-1283 -383 -437 0
-383 1283 365 413 437 0
-389 1283 0
-1284 372 378 384 390 0
-1284 -372 -354 0
-1284 -372 -402 0
-1284 -372 -426 0
-372 1284 354 402 426 0
-1284 -378 -360 0
-1284 -378 -408 0
-1284 -378 -432 0
-378 1284 360 408 432 0
-1284 -384 -366 0
-1284 -384 -414 0
-1284 -384 -438 0
-384 1284 366 414 438 0
-390 1284 0
-1285 391 397 403 409 0
-1285 -391 -349 0
-1285 -391 -373 0
-1285 -391 -421 0
-391 1285 349 373 421 0
-1285 -397 -355 0
-1285 -397 -379 0
-1285 -397 -427 0
-397 1285 355 379 427 0
-1285 -403 -361 0
-1285 -403 -385 0
-1285 -403 -433 0
-403 1285 361 385 433 0
-409 1285 0
-1286 392 398 404 410 0
-1286 -392 -350 0
-1286 -392 -374 0
-1286 -392 -422 0
-392 1286 350 374 422 0
-1286 -398 -356 0
-1286 -398 -380 0
-1286 -398 -428 0
-398 1286 356 380 428 0
-1286 -404 -362 0
-1286 -404 -386 0
-1286 -404 -434 0
-404 1286 362 386 434 0
-410 1286 0
-1287 393 399 405 411 0
-1287 -393 -351 0
-1287 -393 -375 0
-1287 -393 -423 0
-393 1287 351 375 423 0
-1287 -399 -357 0
-1287 -399 -381 0
-1287 -399 -429 0
-399 1287 357 381 429 0
-1287 -405 -363 0
-1287 -405 -387 0
-1287 -405 -435 0
-405 1287 363 387 435 0
-411 1287 0
-1288 394 400 406 412 0
-1288 -394 -352 0
-1288 -394 -376 0
-1288 -394 -424 0
-394 1288 352 376 424 0
-1288 -400 -358 0
-1288 -400 -382 0
-1288 -400 -430 0
-400 1288 358 382 430 0
-1288 -406 -364 0
-1288 -406 -388 0
-1288 -406 -436 0
-406 1288 364 388 436 0
-412 1288 0
-1289 395 401 407 413 0
-1289 -395 -353 0
-1289 -395 -377 0
-1289 -395 -425 0
-395 1289 353 377 425 0
-1289 -401 -359 0
-1289 -401 -383 0
-1289 -401 -431 0
-401 1289 359 383 431 0
-1289 -407 -365 0
-1289 -407 -389 0
-1289 -407 -437 0
-407 1289 365 389 437 0
-413 1289 0
-1290 396 402 408 414 0
-1290 -396 -354 0
-1290 -396 -378 0
-1290 -396 -426 0
-396 1290 354 378 426 0
-1290 -402 -360 0
-1290 -402 -384 0
-1290 -402 -432 0
-402 1290 360 384 432 0
-1290 -408 -366 0
-1290 -408 -390 0
-1290 -408 -438 0
-408 1290 366 390 438 0
-414 1290 0
-1291 415 421 427 433 0
-1291 -415 -349 0
-1291 -415 -373 0
-1291 -415 -397 0
-415 1291 349 373 397 0
-1291 -421 -355 0
-1291 -421 -379 0
-1291 -421 -403 0
-421 1291 355 379 403 0
-1291 -427 -361 0
-1291 -427 -385 0
-1291 -427 -409 0
-427 1291 361 385 409 0
-433 1291 0
-1292 416 422 428 434 0
-1292 -416 -350 0
-1292 -416 -374 0
-1292 -416 -398 0
-416 1292 350 374 398 0
-1292 -422 -356 0
-1292 -422 -380 0
-1292 -422 -404 0
-422 1292 356 380 404 0
-1292 -428 -362 0
-1292 -428 -386 0
-1292 -428 -410 0
-428 1292 362 386 410 0
-434 1292 0
-1293 417 423 429 435 0
-1293 -417 -351 0
-1293 -417 -375 0
-1293 -417 -399 0
-417 1293 351 375 399 0
-1293 -423 -357 0
-1293 -423 -381 0
-1293 -423 -405 0
-423 1293 357 381 405 0
-1293 -429 -363 0
-1293 -429 -387 0
-1293 -429 -411 0
-429 1293 363 387 411 0
-435 1293 0
-1294 418 424 430 436 0
-1294 -418 -352 0
-1294 -418 -376 0
-1294 -418 -400 0
-418 1294 352 376 400 0
-1294 -424 -358 0
-1294 -424 -382 0
-1294 -424 -406 0
-424 1294 358 382 406 0
-1294 -430 -364 0
-1294 -430 -388 0
-1294 -430 -412 0
-430 1294 364 388 412 0
-436 1294 0
-1295 419 425 431 437 0
-1295 -419 -353 0
-1295 -419 -377 0
-1295 -419 -401 0
-419 1295 353 377 401 0
-1295 -425 -359 0
-1295 -425 -383 0
-1295 -425 -407 0
-425 1295 359 383 407 0
-1295 -431 -365 0
-1295 -431 -389 0
-1295 -431 -413 0
-431 1295 365 389 413 0
-437 1295 0
-1296 420 426 432 438 0
-1296 -420 -354 0
-1296 -420 -378 0
-1296 -420 -402 0
-420 1296 354 378 402 0
-1296 -426 -360 0
-1296 -426 -384 0
-1296 -426 -408 0
-426 1296 360 384 408 0
-1296 -432 -366 0
-1296 -432 -390 0
-1296 -432 -414 0
-432 1296 366 390 414 0
-438 1296 0
-227 -343 1273 0
-227 -349 1273 0
-227 -355 1273 0
-227 -361 1273 0
-227 -344 1274 0
-227 -350 1274 0
-227 -356 1274 0
-227 -362 1274 0
-227 -345 1275 0
-227 -351 1275 0
-227 -357 1275 0
-227 -363 1275 0
-227 -346 1276 0
-227 -352 1276 0
-227 -358 1276 0
-227 -364 1276 0
-227 -347 1277 0
-227 -353 1277 0
-227 -359 1277 0
-227 -365 1277 0
-227 -348 1278 0
-227 -354 1278 0
-227 -360 1278 0
-227 -366 1278 0
-22 227 -1273 0
-23 227 -1274 0
-24 227 -1275 0
-25 227 -1276 0
-26 227 -1277 0
-27 227 -1278 0
-228 -367 1279 0
-228 -373 1279 0
-228 -379 1279 0
-228 -385 1279 0
-228 -368 1280 0
-228 -374 1280 0
-228 -380 1280 0
-228 -386 1280 0
-228 -369 1281 0
-228 -375 1281 0
-228 -381 1281 0
-228 -387 1281 0
-228 -370 1282 0
-228 -376 1282 0
-228 -382 1282 0
-228 -388 1282 0
-228 -371 1283 0
-228 -377 1283 0
-228 -383 1283 0
-228 -389 1283 0
-228 -372 1284 0
-228 -378 1284 0
-228 -384 1284 0
-228 -390 1284 0
-28 228 -1279 0
-29 228 -1280 0
-30 228 -1281 0
-31 228 -1282 0
-32 228 -1283 0
-33 228 -1284 0
-229 -391 1285 0
-229 -397 1285 0
-229 -403 1285 0
-229 -409 1285 0
-229 -392 1286 0
-229 -398 1286 0
-229 -404 1286 0
-229 -410 1286 0
-229 -393 1287 0
-229 -399 1287 0
-229 -405 1287 0
-229 -411 1287 0
-229 -394 1288 0
-229 -400 1288 0
-229 -406 1288 0
-229 -412 1288 0
-229 -395 1289 0
-229 -401 1289 0
-229 -407 1289 0
-229 -413 1289 0
-229 -396 1290 0
-229 -402 1290 0
-229 -408 1290 0
-229 -414 1290 0
-34 229 -1285 -1286 0
-35 229 -1286 -1287 0
-36 229 -1287 -1288 0
-37 229 -1288 -1289 0
-38 229 -1289 -1290 0
-230 -415 1291 0
-230 -421 1291 0
-230 -427 1291 0
-230 -433 1291 0
-230 -416 1292 0
-230 -422 1292 0
-230 -428 1292 0
-230 -434 1292 0
-230 -417 1293 0
-230 -423 1293 0
-230 -429 1293 0
-230 -435 1293 0
-230 -418 1294 0
-230 -424 1294 0
-230 -430 1294 0
-230 -436 1294 0
-230 -419 1295 0
-230 -425 1295 0
-230 -431 1295 0
-230 -437 1295 0
-230 -420 1296 0
-230 -426 1296 0
-230 -432 1296 0
-230 -438 1296 0
-39 230 -1291 -1292 -1293 0
-40 230 -1292 -1293 -1294 0
-41 230 -1293 -1294 -1295 0
-42 230 -1294 -1295 -1296 0
43 44 45 46 47 48 0
-43 -44 0
-43 -45 0
-43 -46 0
-43 -47 0
-43 -48 0
-44 -45 0
-44 -46 0
-44 -47 0
-44 -48 0
-45 -46 0
-45 -47 0
-45 -48 0
-46 -47 0
-46 -48 0
-47 -48 0
49 50 51 52 53 54 0
-49 -50 0
-49 -51 0
-49 -52 0
-49 -53 0
-49 -54 0
-50 -51 0
-50 -52 0
-50 -53 0
-50 -54 0
-51 -52 0
-51 -53 0
-51 -54 0
-52 -53 0
-52 -54 0
-53 -54 0
55 56 57 58 59 0
-55 -56 0
-55 -57 0
-55 -58 0
-55 -59 0
-56 -57 0
-56 -58 0
-56 -59 0
-57 -58 0
-57 -59 0
-58 -59 0
60 61 62 63 0
-60 -61 0
-60 -62 0
-60 -63 0
-61 -62 0
-61 -63 0
-62 -63 0
159 160 161 162 0
-159 -160 0
-159 -161 0
-159 -162 0
-160 -161 0
-160 -162 0
-161 -162 0
163 164 165 166 0
-163 -164 0
-163 -165 0
-163 -166 0
-164 -165 0
-164 -166 0
-165 -166 0
167 168 169 170 0
-167 -168 0
-167 -169 0
-167 -170 0
-168 -169 0
-168 -170 0
-169 -170 0
171 172 173 174 0
-171 -172 0
-171 -173 0
-171 -174 0
-172 -173 0
-172 -174 0
-173 -174 0
-439 159 0
-439 43 0
-43 -159 439 0
-440 159 0
-440 44 0
-44 -159 440 0
-441 159 0
-441 45 0
-45 -159 441 0
-442 159 0
-442 46 0
-46 -159 442 0
-443 159 0
-443 47 0
-47 -159 443 0
-444 159 0
-444 48 0
-48 -159 444 0
-445 160 0
-445 43 0
-43 -160 445 0
-446 160 0
-446 44 0
-44 -160 446 0
-447 160 0
-447 45 0
-45 -160 447 0
-448 160 0
-448 46 0
-46 -160 448 0
-449 160 0
-449 47 0
-47 -160 449 0
-450 160 0
-450 48 0
-48 -160 450 0
-451 161 0
-451 43 0
-43 -161 451 0
-452 161 0
-452 44 0
-44 -161 452 0
-453 161 0
-453 45 0
-45 -161 453 0
-454 161 0
-454 46 0
-46 -161 454 0
-455 161 0
-455 47 0
-47 -161 455 0
-456 161 0
-456 48 0
-48 -161 456 0
-457 162 0
-457 43 0
-43 -162 457 0
-458 162 0
-458 44 0
-44 -162 458 0
-459 162 0
-459 45 0
-45 -162 459 0
-460 162 0
-460 46 0
-46 -162 460 0
-461 162 0
-461 47 0
-47 -162 461 0
-462 162 0
-462 48 0
-48 -162 462 0
-463 163 0
-463 49 0
-49 -163 463 0
-464 163 0
-464 50 0
-50 -163 464 0
-465 163 0
-465 51 0
-51 -163 465 0
-466 163 0
-466 52 0
-52 -163 466 0
-467 163 0
-467 53 0
-53 -163 467 0
-468 163 0
-468 54 0
-54 -163 468 0
-469 164 0
-469 49 0
-49 -164 469 0
-470 164 0
-470 50 0
-50 -164 470 0
-471 164 0
-471 51 0
-51 -164 471 0
-472 164 0
-472 52 0
-52 -164 472 0
-473 164 0
-473 53 0
-53 -164 473 0
-474 164 0
-474 54 0
-54 -164 474 0
-475 165 0
-475 49 0
-49 -165 475 0
-476 165 0
-476 50 0
-50 -165 476 0
-477 165 0
-477 51 0
-51 -165 477 0
-478 165 0
-478 52 0
-52 -165 478 0
-479 165 0
-479 53 0
-53 -165 479 0
-480 165 0
-480 54 0
-54 -165 480 0
-481 166 0
-481 49 0
-49 -166 481 0
-482 166 0
-482 50 0
-50 -166 482 0
-483 166 0
-483 51 0
-51 -166 483 0
-484 166 0
-484 52 0
-52 -166 484 0
-485 166 0
-485 53 0
-53 -166 485 0
-486 166 0
-486 54 0
-54 -166 486 0
-487 167 0
-487 55 0
-55 -167 487 0
-488 167 0
-488 55 56 0
-55 -167 488 0
-56 -167 488 0
-489 167 0
-489 56 57 0
-56 -167 489 0
-57 -167 489 0
-490 167 0
-490 57 58 0
-57 -167 490 0
-58 -167 490 0
-491 167 0
-491 58 59 0
-58 -167 491 0
-59 -167 491 0
-492 167 0
-492 59 0
-59 -167 492 0
-493 168 0
-493 55 0
-55 -168 493 0
-494 168 0
-494 55 56 0
-55 -168 494 0
-56 -168 494 0
-495 168 0
-495 56 57 0
-56 -168 495 0
-57 -168 495 0
-496 168 0
-496 57 58 0
-57 -168 496 0
-58 -168 496 0
-497 168 0
-497 58 59 0
-58 -168 497 0
-59 -168 497 0
-498 168 0
-498 59 0
-59 -168 498 0
-499 169 0
-499 55 0
-55 -169 499 0
-500 169 0
-500 55 56 0
-55 -169 500 0
-56 -169 500 0
-501 169 0
-501 56 57 0
-56 -169 501 0
-57 -169 501 0
-502 169 0
-502 57 58 0
-57 -169 502 0
-58 -169 502 0
-503 169 0
-503 58 59 0
-58 -169 503 0
-59 -169 503 0
-504 169 0
-504 59 0
-59 -169 504 0
-505 170 0
-505 55 0
-55 -170 505 0
-506 170 0
-506 55 56 0
-55 -170 506 0
-56 -170 506 0
-507 170 0
-507 56 57 0
-56 -170 507 0
-57 -170 507 0
-508 170 0
-508 57 58 0
-57 -170 508 0
-58 -170 508 0
-509 170 0
-509 58 59 0
-58 -170 509 0
-59 -170 509 0
-510 170 0
-510 59 0
-59 -170 510 0
-511 171 0
-511 60 0
-60 -171 511 0
-512 171 0
-512 60 61 0
-60 -171 512 0
-61 -171 512 0
-513 171 0
-513 60 61 62 0
-60 -171 513 0
-61 -171 513 0
-62 -171 513 0
-514 171 0
-514 61 62 63 0
-61 -171 514 0
-62 -171 514 0
-63 -171 514 0
-515 171 0
-515 62 63 0
-62 -171 515 0
-63 -171 515 0
-516 171 0
-516 63 0
-63 -171 516 0
-517 172 0
-517 60 0
-60 -172 517 0
-518 172 0
-518 60 61 0
-60 -172 518 0
-61 -172 518 0
-519 172 0
-519 60 61 62 0
-60 -172 519 0
-61 -172 519 0
-62 -172 519 0
-520 172 0
-520 61 62 63 0
-61 -172 520 0
-62 -172 520 0
-63 -172 520 0
-521 172 0
-521 62 63 0
-62 -172 521 0
-63 -172 521 0
-522 172 0
-522 63 0
-63 -172 522 0
-523 173 0
-523 60 0
-60 -173 523 0
-524 173 0
-524 60 61 0
-60 -173 524 0
-61 -173 524 0
-525 173 0
-525 60 61 62 0
-60 -173 525 0
-61 -173 525 0
-62 -173 525 0
-526 173 0
-526 61 62 63 0
-61 -173 526 0
-62 -173 526 0
-63 -173 526 0
-527 173 0
-527 62 63 0
-62 -173 527 0
-63 -173 527 0
-528 173 0
-528 63 0
-63 -173 528 0
-529 174 0
-529 60 0
-60 -174 529 0
-530 174 0
-530 60 61 0
-60 -174 530 0
-61 -174 530 0
-531 174 0
-531 60 61 62 0
-60 -174 531 0
-61 -174 531 0
-62 -174 531 0
-532 174 0
-532 61 62 63 0
-61 -174 532 0
-62 -174 532 0
-63 -174 532 0
-533 174 0
-533 62 63 0
-62 -174 533 0
-63 -174 533 0
-534 174 0
-534 63 0
-63 -174 534 0
-439 -463 0
-439 -487 0
-439 -511 0
-463 -487 0
-463 -511 0
-487 -511 0
-440 -464 0
-440 -488 0
-440 -512 0
-464 -488 0
-464 -512 0
-488 -512 0
-441 -465 0
-441 -489 0
-441 -513 0
-465 -489 0
-465 -513 0
-489 -513 0
-442 -466 0
-442 -490 0
-442 -514 0
-466 -490 0
-466 -514 0
-490 -514 0
-443 -467 0
-443 -491 0
-443 -515 0
-467 -491 0
-467 -515 0
-491 -515 0
-444 -468 0
-444 -492 0
-444 -516 0
-468 -492 0
-468 -516 0
-492 -516 0
-445 -469 0
-445 -493 0
-445 -517 0
-469 -493 0
-469 -517 0
-493 -517 0
-446 -470 0
-446 -494 0
-446 -518 0
-470 -494 0
-470 -518 0
-494 -518 0
-447 -471 0
-447 -495 0
-447 -519 0
-471 -495 0
-471 -519 0
-495 -519 0
-448 -472 0
-448 -496 0
-448 -520 0
-472 -496 0
-472 -520 0
-496 -520 0
-449 -473 0
-449 -497 0
-449 -521 0
-473 -497 0
-473 -521 0
-497 -521 0
-450 -474 0
-450 -498 0
-450 -522 0
-474 -498 0
-474 -522 0
-498 -522 0
-451 -475 0
-451 -499 0
-451 -523 0
-475 -499 0
-475 -523 0
-499 -523 0
-452 -476 0
-452 -500 0
-452 -524 0
-476 -500 0
-476 -524 0
-500 -524 0
-453 -477 0
-453 -501 0
-453 -525 0
-477 -501 0
-477 -525 0
-501 -525 0
-454 -478 0
-454 -502 0
-454 -526 0
-478 -502 0
-478 -526 0
-502 -526 0
-455 -479 0
-455 -503 0
-455 -527 0
-479 -503 0
-479 -527 0
-503 -527 0
-456 -480 0
-456 -504 0
-456 -528 0
-480 -504 0
-480 -528 0
-504 -528 0
-457 -481 0
-457 -505 0
-457 -529 0
-481 -505 0
-481 -529 0
-505 -529 0
-458 -482 0
-458 -506 0
-458 -530 0
-482 -506 0
-482 -530 0
-506 -530 0
-459 -483 0
-459 -507 0
-459 -531 0
-483 -507 0
-483 -531 0
-507 -531 0
-460 -484 0
-460 -508 0
-460 -532 0
-484 -508 0
-484 -532 0
-508 -532 0
-461 -485 0
-461 -509 0
-461 -533 0
-485 -509 0
-485 -533 0
-509 -533 0
-462 -486 0
-462 -510 0
-462 -534 0
-486 -510 0
-486 -534 0
-510 -534 0
-43 -160 463 487 511 0
-43 -161 469 493 517 0
-43 -162 475 499 523 0
-44 -160 464 488 512 0
-44 -161 470 494 518 0
-44 -162 476 500 524 0
-45 -160 465 489 513 0
-45 -161 471 495 519 0
-45 -162 477 501 525 0
-46 -160 466 490 514 0
-46 -161 472 496 520 0
-46 -162 478 502 526 0
-47 -160 467 491 515 0
-47 -161 473 497 521 0
-47 -162 479 503 527 0
-48 -160 468 492 516 0
-48 -161 474 498 522 0
-48 -162 480 504 528 0
-49 -164 439 487 511 0
-49 -165 445 493 517 0
-49 -166 451 499 523 0
-50 -164 440 488 512 0
-50 -165 446 494 518 0
-50 -166 452 500 524 0
-51 -164 441 489 513 0
-51 -165 447 495 519 0
-51 -166 453 501 525 0
-52 -164 442 490 514 0
-52 -165 448 496 520 0
-52 -166 454 502 526 0
-53 -164 443 491 515 0
-53 -165 449 497 521 0
-53 -166 455 503 527 0
-54 -164 444 492 516 0
-54 -165 450 498 522 0
-54 -166 456 504 528 0
-55 -168 439 463 511 440 464 512 0
-55 -169 445 469 517 446 470 518 0
-55 -170 451 475 523 452 476 524 0
-56 -168 440 464 512 441 465 513 0
-56 -169 446 470 518 447 471 519 0
-56 -170 452 476 524 453 477 525 0
-57 -168 441 465 513 442 466 514 0
-57 -169 447 471 519 448 472 520 0
-57 -170 453 477 525 454 478 526 0
-58 -168 442 466 514 443 467 515 0
-58 -169 448 472 520 449 473 521 0
-58 -170 454 478 526 455 479 527 0
-59 -168 443 467 515 444 468 516 0
-59 -169 449 473 521 450 474 522 0
-59 -170 455 479 527 456 480 528 0
-60 -172 439 463 487 440 464 488 0
-60 -172 439 463 487 441 465 489 0
-60 -172 440 464 488 441 465 489 0
-60 -173 445 469 493 446 470 494 0
-60 -173 445 469 493 447 471 495 0
-60 -173 446 470 494 447 471 495 0
-60 -174 451 475 499 452 476 500 0
-60 -174 451 475 499 453 477 501 0
-60 -174 452 476 500 453 477 501 0
-61 -172 440 464 488 441 465 489 0
-61 -172 440 464 488 442 466 490 0
-61 -172 441 465 489 442 466 490 0
-61 -173 446 470 494 447 471 495 0
-61 -173 446 470 494 448 472 496 0
-61 -173 447 471 495 448 472 496 0
-61 -174 452 476 500 453 477 501 0
-61 -174 452 476 500 454 478 502 0
-61 -174 453 477 501 454 478 502 0
-62 -172 441 465 489 442 466 490 0
-62 -172 441 465 489 443 467 491 0
-62 -172 442 466 490 443 467 491 0
-62 -173 447 471 495 448 472 496 0
-62 -173 447 471 495 449 473 497 0
-62 -173 448 472 496 449 473 497 0
-62 -174 453 477 501 454 478 502 0
-62 -174 453 477 501 455 479 503 0
-62 -174 454 478 502 455 479 503 0
-63 -172 442 466 490 443 467 491 0
-63 -172 442 466 490 444 468 492 0
-63 -172 443 467 491 444 468 492 0
-63 -173 448 472 496 449 473 497 0
-63 -173 448 472 496 450 474 498 0
-63 -173 449 473 497 450 474 498 0
-63 -174 454 478 502 455 479 503 0
-63 -174 454 478 502 456 480 504 0
-63 -174 455 479 503 456 480 504 0
-1297 439 445 451 457 0
-1297 -439 -469 0
-1297 -439 -493 0
-1297 -439 -517 0
-439 1297 469 493 517 0
-1297 -445 -475 0
-1297 -445 -499 0
-1297 -445 -523 0
-445 1297 475 499 523 0
-1297 -451 -481 0
-1297 -451 -505 0
-1297 -451 -529 0
-451 1297 481 505 529 0
-457 1297 0
-1298 440 446 452 458 0
-1298 -440 -470 0
-1298 -440 -494 0
-1298 -440 -518 0
-440 1298 470 494 518 0
-1298 -446 -476 0
-1298 -446 -500 0
-1298 -446 -524 0
-446 1298 476 500 524 0
-1298 -452 -482 0
-1298 -452 -506 0
-1298 -452 -530 0
-452 1298 482 506 530 0
-458 1298 0
-1299 441 447 453 459 0
-1299 -441 -471 0
-1299 -441 -495 0
-1299 -441 -519 0
-441 1299 471 495 519 0
-1299 -447 -477 0
-1299 -447 -501 0
-1299 -447 -525 0
-447 1299 477 501 525 0
-1299 -453 -483 0
-1299 -453 -507 0
-1299 -453 -531 0
-453 1299 483 507 531 0
-459 1299 0
-1300 442 448 454 460 0
-1300 -442 -472 0
-1300 -442 -496 0
-1300 -442 -520 0
-442 1300 472 496 520 0
-1300 -448 -478 0
-1300 -448 -502 0
-1300 -448 -526 0
-448 1300 478 502 526 0
-1300 -454 -484 0
-1300 -454 -508 0
-1300 -454 -532 0
-454 1300 484 508 532 0
-460 1300 0
-1301 443 449 455 461 0
-1301 -443 -473 0
-1301 -443 -497 0
-1301 -443 -521 0
-443 1301 473 497 521 0
-1301 -449 -479 0
-1301 -449 -503 0
-1301 -449 -527 0
-449 1301 479 503 527 0
-1301 -455 -485 0
-1301 -455 -509 0
-1301 -455 -533 0
-455 1301 485 509 533 0
-461 1301 0
-1302 444 450 456 462 0
-1302 -444 -474 0
-1302 -444 -498 0
-1302 -444 -522 0
-444 1302 474 498 522 0
-1302 -450 -480 0
-1302 -450 -504 0
-1302 -450 -528 0
-450 1302 480 504 528 0
-1302 -456 -486 0
-1302 -456 -510 0
-1302 -456 -534 0
-456 1302 486 510 534 0
-462 1302 0
-1303 463 469 475 481 0
-1303 -463 -445 0
-1303 -463 -493 0
-1303 -463 -517 0
-463 1303 445 493 517 0
-1303 -469 -451 0
-1303 -469 -499 0
-1303 -469 -523 0
-469 1303 451 499 523 0
-1303 -475 -457 0
-1303 -475 -505 0
-1303 -475 -529 0
-475 1303 457 505 529 0
-481 1303 0
-1304 464 470 476 482 0
-1304 -464 -446 0
-1304 -464 -494 0
-1304 -464 -518 0
-464 1304 446 494 518 0
-1304 -470 -452 0
-1304 -470 -500 0
-1304 -470 -524 0
-470 1304 452 500 524 0
-1304 -476 -458 0
-1304 -476 -506 0
-1304 -476 -530 0
-476 1304 458 506 530 0
-482 1304 0
-1305 465 471 477 483 0
-1305 -465 -447 0
-1305 -465 -495 0
-1305 -465 -519 0
-465 1305 447 495 519 0
-1305 -471 -453 0
-1305 -471 -501 0
-1305 -471 -525 0
-471 1305 453 501 525 0
-1305 -477 -459 0
-1305 -477 -507 0
-1305 -477 -531 0
-477 1305 459 507 531 0
-483 1305 0
-1306 466 472 478 484 0
-1306 -466 -448 0
-1306 -466 -496 0
-1306 -466 -520 0
-466 1306 448 496 520 0
-1306 -472 -454 0
-1306 -472 -502 0
-1306 -472 -526 0
-472 1306 454 502 526 0
-1306 -478 -460 0
-1306 -478 -508 0
-1306 -478 -532 0
-478 1306 460 508 532 0
-484 1306 0
-1307 467 473 479 485 0
-1307 -467 -449 0
-1307 -467 -497 0
-1307 -467 -521 0
-467 1307 449 497 521 0
-1307 -473 -455 0
-1307 -473 -503 0
-1307 -473 -527 0
-473 1307 455 503 527 0
-1307 -479 -461 0
-1307 -479 -509 0
-1307 -479 -533 0
-479 1307 461 509 533 0
-485 1307 0
-1308 468 474 480 486 0
-1308 -468 -450 0
-1308 -468 -498 0
-1308 -468 -522 0
-468 1308 450 498 522 0
-1308 -474 -456 0
-1308 -474 -504 0
-1308 -474 -528 0
-474 1308 456 504 528 0
-1308 -480 -462 0
-1308 -480 -510 0
-1308 -480 -534 0
-480 1308 462 510 534 0
-486 1308 0
-1309 487 493 499 505 0
-1309 -487 -445 0
-1309 -487 -469 0
-1309 -487 -517 0
-487 1309 445 469 517 0
-1309 -493 -451 0
-1309 -493 -475 0
-1309 -493 -523 0
-493 1309 451 475 523 0
-1309 -499 -457 0
-1309 -499 -481 0
-1309 -499 -529 0
-499 1309 457 481 529 0
-505 1309 0
-1310 488 494 500 506 0
-1310 -488 -446 0
-1310 -488 -470 0
-1310 -488 -518 0
-488 1310 446 470 518 0
-1310 -494 -452 0
-1310 -494 -476 0
-1310 -494 -524 0
-494 1310 452 476 524 0
-1310 -500 -458 0
-1310 -500 -482 0
-1310 -500 -530 0
-500 1310 458 482 530 0
-506 1310 0
-1311 489 495 501 507 0
-1311 -489 -447 0
-1311 -489 -471 0
-1311 -489 -519 0
-489 1311 447 471 519 0
-1311 -495 -453 0
-1311 -495 -477 0
-1311 -495 -525 0
-495 1311 453 477 525 0
-1311 -501 -459 0
-1311 -501 -483 0
-1311 -501 -531 0
-501 1311 459 483 531 0
-507 1311 0
-1312 490 496 502 508 0
-1312 -490 -448 0
-1312 -490 -472 0
-1312 -490 -520 0
-490 1312 448 472 520 0
-1312 -496 -454 0
-1312 -496 -478 0
-1312 -496 -526 0
-496 1312 454 478 526 0
-1312 -502 -460 0
-1312 -502 -484 0
-1312 -502 -532 0
-502 1312 460 484 532 0
-508 1312 0
-1313 491 497 503 509 0
-1313 -491 -449 0
-1313 -491 -473 0
-1313 -491 -521 0
-491 1313 449 473 521 0
-1313 -497 -455 0
-1313 -497 -479 0
-1313 -497 -527 0
-497 1313 455 479 527 0
-1313 -503 -461 0
-1313 -503 -485 0
-1313 -503 -533 0
-503 1313 461 485 533 0
-509 1313 0
-1314 492 498 504 510 0
-1314 -492 -450 0
-1314 -492 -474 0
-1314 -492 -522 0
-492 1314 450 474 522 0
-1314 -498 -456 0
-1314 -498 -480 0
-1314 -498 -528 0
-498 1314 456 480 528 0
-1314 -504 -462 0
-1314 -504 -486 0
-1314 -504 -534 0
-504 1314 462 486 534 0
-510 1314 0
-1315 511 517 523 529 0
-1315 -511 -445 0
-1315 -511 -469 0
-1315 -511 -493 0
-511 1315 445 469 493 0
-1315 -517 -451 0
-1315 -517 -475 0
-1315 -517 -499 0
-517 1315 451 475 499 0
-1315 -523 -457 0
-1315 -523 -481 0
-1315 -523 -505 0
-523 1315 457 481 505 0
-529 1315 0
-1316 512 518 524 530 0
-1316 -512 -446 0
-1316 -512 -470 0
-1316 -512 -494 0
-512 1316 446 470 494 0
-1316 -518 -452 0
-1316 -518 -476 0
-1316 -518 -500 0
-518 1316 452 476 500 0
-1316 -524 -458 0
-1316 -524 -482 0
-1316 -524 -506 0
-524 1316 458 482 506 0
-530 1316 0
-1317 513 519 525 531 0
-1317 -513 -447 0
-1317 -513 -471 0
-1317 -513 -495 0
-513 1317 447 471 495 0
-1317 -519 -453 0
-1317 -519 -477 0
-1317 -519 -501 0
-519 1317 453 477 501 0
-1317 -525 -459 0
-1317 -525 -483 0
-1317 -525 -507 0
-525 1317 459 483 507 0
-531 1317 0
-1318 514 520 526 532 0
-1318 -514 -448 0
-1318 -514 -472 0
-1318 -514 -496 0
-514 1318 448 472 496 0
-1318 -520 -454 0
-1318 -520 -478 0
-1318 -520 -502 0
-520 1318 454 478 502 0
-1318 -526 -460 0
-1318 -526 -484 0
-1318 -526 -508 0
-526 1318 460 484 508 0
-532 1318 0
-1319 515 521 527 533 0
-1319 -515 -449 0
-1319 -515 -473 0
-1319 -515 -497 0
-515 1319 449 473 497 0
-1319 -521 -455 0
-1319 -521 -479 0
-1319 -521 -503 0
-521 1319 455 479 503 0
-1319 -527 -461 0
-1319 -527 -485 0
-1319 -527 -509 0
-527 1319 461 485 509 0
-533 1319 0
-1320 516 522 528 534 0
-1320 -516 -450 0
-1320 -516 -474 0
-1320 -516 -498 0
-516 1320 450 474 498 0
-1320 -522 -456 0
-1320 -522 -480 0
-1320 -522 -504 0
-522 1320 456 480 504 0
-1320 -528 -462 0
-1320 -528 -486 0
-1320 -528 -510 0
-528 1320 462 486 510 0
-534 1320 0
-231 -439 1297 0
-231 -445 1297 0
-231 -451 1297 0
-231 -457 1297 0
-231 -440 1298 0
-231 -446 1298 0
-231 -452 1298 0
-231 -458 1298 0
-231 -441 1299 0
-231 -447 1299 0
-231 -453 1299 0
-231 -459 1299 0
-231 -442 1300 0
-231 -448 1300 0
-231 -454 1300 0
-231 -460 1300 0
-231 -443 1301 0
-231 -449 1301 0
-231 -455 1301 0
-231 -461 1301 0
-231 -444 1302 0
-231 -450 1302 0
-231 -456 1302 0
-231 -462 1302 0
-43 231 -1297 0
-44 231 -1298 0
-45 231 -1299 0
-46 231 -1300 0
-47 231 -1301 0
-48 231 -1302 0
-232 -463 1303 0
-232 -469 1303 0
-232 -475 1303 0
-232 -481 1303 0
-232 -464 1304 0
-232 -470 1304 0
-232 -476 1304 0
-232 -482 1304 0
-232 -465 1305 0
-232 -471 1305 0
-232 -477 1305 0
-232 -483 1305 0
-232 -466 1306 0
-232 -472 1306 0
-232 -478 1306 0
-232 -484 1306 0
-232 -467 1307 0
-232 -473 1307 0
-232 -479 1307 0
-232 -485 1307 0
-232 -468 1308 0
-232 -474 1308 0
-232 -480 1308 0
-232 -486 1308 0
-49 232 -1303 0
-50 232 -1304 0
-51 232 -1305 0
-52 232 -1306 0
-53 232 -1307 0
-54 232 -1308 0
-233 -487 1309 0
-233 -493 1309 0
-233 -499 1309 0
-233 -505 1309 0
-233 -488 1310 0
-233 -494 1310 0
-233 -500 1310 0
-233 -506 1310 0
-233 -489 1311 0
-233 -495 1311 0
-233 -501 1311 0
-233 -507 1311 0
-233 -490 1312 0
-233 -496 1312 0
-233 -502 1312 0
-233 -508 1312 0
-233 -491 1313 0
-233 -497 1313 0
-233 -503 1313 0
-233 -509 1313 0
-233 -492 1314 0
-233 -498 1314 0
-233 -504 1314 0
-233 -510 1314 0
-55 233 -1309 -1310 0
-56 233 -1310 -1311 0
-57 233 -1311 -1312 0
-58 233 -1312 -1313 0
-59 233 -1313 -1314 0
-234 -511 1315 0
-234 -517 1315 0
-234 -523 1315 0
-234 -529 1315 0
-234 -512 1316 0
-234 -518 1316 0
-234 -524 1316 0
-234 -530 1316 0
-234 -513 1317 0
-234 -519 1317 0
-234 -525 1317 0
-234 -531 1317 0
-234 -514 1318 0
-234 -520 1318 0
-234 -526 1318 0
-234 -532 1318 0
-234 -515 1319 0
-234 -521 1319 0
-234 -527 1319 0
-234 -533 1319 0
-234 -516 1320 0
-234 -522 1320 0
-234 -528 1320 0
-234 -534 1320 0
-60 234 -1315 -1316 -1317 0
-61 234 -1316 -1317 -1318 0
-62 234 -1317 -1318 -1319 0
-63 234 -1318 -1319 -1320 0
64 65 66 67 68 69 0
-64 -65 0
-64 -66 0
-64 -67 0
-64 -68 0
-64 -69 0
-65 -66 0
-65 -67 0
-65 -68 0
-65 -69 0
-66 -67 0
-66 -68 0
-66 -69 0
-67 -68 0
-67 -69 0
-68 -69 0
70 71 72 73 74 75 0
-70 -71 0
-70 -72 0
-70 -73 0
-70 -74 0
-70 -75 0
-71 -72 0
-71 -73 0
-71 -74 0
-71 -75 0
-72 -73 0
-72 -74 0
-72 -75 0
-73 -74 0
-73 -75 0
-74 -75 0
76 77 78 79 80 0
-76 -77 0
-76 -78 0
-76 -79 0
-76 -80 0
-77 -78 0
-77 -79 0
-77 -80 0
-78 -79 0
-78 -80 0
-79 -80 0
81 82 83 84 0
-81 -82 0
-81 -83 0
-81 -84 0
-82 -83 0
-82 -84 0
-83 -84 0
175 176 177 178 0
-175 -176 0
-175 -177 0
-175 -178 0
-176 -177 0
-176 -178 0
-177 -178 0
179 180 181 182 0
-179 -180 0
-179 -181 0
-179 -182 0
-180 -181 0
-180 -182 0
-181 -182 0
183 184 185 186 0
-183 -184 0
-183 -185 0
-183 -186 0
-184 -185 0
-184 -186 0
-185 -186 0
187 188 189 190 0
-187 -188 0
-187 -189 0
-187 -190 0
-188 -189 0
-188 -190 0
-189 -190 0
-535 175 0
-535 64 0
-64 -175 535 0
-536 175 0
-536 65 0
-65 -175 536 0
-537 175 0
-537 66 0
-66 -175 537 0
-538 175 0
-538 67 0
-67 -175 538 0
-539 175 0
-539 68 0
-68 -175 539 0
-540 175 0
-540 69 0
-69 -175 540 0
-541 176 0
-541 64 0
-64 -176 541 0
-542 176 0
-542 65 0
-65 -176 542 0
-543 176 0
-543 66 0
-66 -176 543 0
-544 176 0
-544 67 0
-67 -176 544 0
-545 176 0
-545 68 0
-68 -176 545 0
-546 176 0
-546 69 0
-69 -176 546 0
-547 177 0
-547 64 0
-64 -177 547 0
-548 177 0
-548 65 0
-65 -177 548 0
-549 177 0
-549 66 0
-66 -177 549 0
-550 177 0
-550 67 0
-67 -177 550 0
-551 177 0
-551 68 0
-68 -177 551 0
-552 177 0
-552 69 0
-69 -177 552 0
-553 178 0
-553 64 0
-64 -178 553 0
-554 178 0
-554 65 0
-65 -178 554 0
-555 178 0
-555 66 0
-66 -178 555 0
-556 178 0
-556 67 0
-67 -178 556 0
-557 178 0
-557 68 0
-68 -178 557 0
-558 178 0
-558 69 0
-69 -178 558 0
-559 179 0
-559 70 0
-70 -179 559 0
-560 179 0
-560 71 0
-71 -179 560 0
-561 179 0
-561 72 0
-72 -179 561 0
-562 179 0
-562 73 0
-73 -179 562 0
-563 179 0
-563 74 0
-74 -179 563 0
-564 179 0
-564 75 0
-75 -179 564 0
-565 180 0
-565 70 0
-70 -180 565 0
-566 180 0
-566 71 0
-71 -180 566 0
-567 180 0
-567 72 0
-72 -180 567 0
-568 180 0
-568 73 0
-73 -180 568 0
-569 180 0
-569 74 0
-74 -180 569 0
-570 180 0
-570 75 0
-75 -180 570 0
-571 181 0
-571 70 0
-70 -181 571 0
-572 181 0
-572 71 0
-71 -181 572 0
-573 181 0
-573 72 0
-72 -181 573 0
-574 181 0
-574 73 0
-73 -181 574 0
-575 181 0
-575 74 0
-74 -181 575 0
-576 181 0
-576 75 0
-75 -181 576 0
-577 182 0
-577 70 0
-70 -182 577 0
-578 182 0
-578 71 0
-71 -182 578 0
-579 182 0
-579 72 0
-72 -182 579 0
-580 182 0
-580 73 0
-73 -182 580 0
-581 182 0
-581 74 0
-74 -182 581 0
-582 182 0
-582 75 0
-75 -182 582 0
-583 183 0
-583 76 0
-76 -183 583 0
-584 183 0
-584 76 77 0
-76 -183 584 0
-77 -183 584 0
-585 183 0
-585 77 78 0
-77 -183 585 0
-78 -183 585 0
-586 183 0
-586 78 79 0
-78 -183 586 0
-79 -183 586 0
-587 183 0
-587 79 80 0
-79 -183 587 0
-80 -183 587 0
-588 183 0
-588 80 0
-80 -183 588 0
-589 184 0
-589 76 0
-76 -184 589 0
-590 184 0
-590 76 77 0
-76 -184 590 0
-77 -184 590 0
-591 184 0
-591 77 78 0
-77 -184 591 0
-78 -184 591 0
-592 184 0
-592 78 79 0
-78 -184 592 0
-79 -184 592 0
-593 184 0
-593 79 80 0
-79 -184 593 0
-80 -184 593 0
-594 184 0
-594 80 0
-80 -184 594 0
-595 185 0
-595 76 0
-76 -185 595 0
-596 185 0
-596 76 77 0
-76 -185 596 0
-77 -185 596 0
-597 185 0
-597 77 78 0
-77 -185 597 0
-78 -185 597 0
-598 185 0
-598 78 79 0
-78 -185 598 0
-79 -185 598 0
-599 185 0
-599 79 80 0
-79 -185 599 0
-80 -185 599 0
-600 185 0
-600 80 0
-80 -185 600 0
-601 186 0
-601 76 0
-76 -186 601 0
-602 186 0
-602 76 77 0
-76 -186 602 0
-77 -186 602 0
-603 186 0
-603 77 78 0
-77 -186 603 0
-78 -186 603 0
-604 186 0
-604 78 79 0
-78 -186 604 0
-79 -186 604 0
-605 186 0
-605 79 80 0
-79 -186 605 0
-80 -186 605 0
-606 186 0
-606 80 0
-80 -186 606 0
-607 187 0
-607 81 0
-81 -187 607 0
-608 187 0
-608 81 82 0
-81 -187 608 0
-82 -187 608 0
-609 187 0
-609 81 82 83 0
-81 -187 609 0
-82 -187 609 0
-83 -187 609 0
-610 187 0
-610 82 83 84 0
-82 -187 610 0
-83 -187 610 0
-84 -187 610 0
-611 187 0
-611 83 84 0
-83 -187 611 0
-84 -187 611 0
-612 187 0
-612 84 0
-84 -187 612 0
-613 188 0
-613 81 0
-81 -188 613 0
-614 188 0
-614 81 82 0
-81 -188 614 0
-82 -188 614 0
-615 188 0
-615 81 82 83 0
-81 -188 615 0
-82 -188 615 0
-83 -188 615 0
-616 188 0
-616 82 83 84 0
-82 -188 616 0
-83 -188 616 0
-84 -188 616 0
-617 188 0
-617 83 84 0
-83 -188 617 0
-84 -188 617 0
-618 188 0
-618 84 0
-84 -188 618 0
-619 189 0
-619 81 0
-81 -189 619 0
-620 189 0
-620 81 82 0
-81 -189 620 0
-82 -189 620 0
-621 189 0
-621 81 82 83 0
-81 -189 621 0
-82 -189 621 0
-83 -189 621 0
-622 189 0
-622 82 83 84 0
-82 -189 622 0
-83 -189 622 0
-84 -189 622 0
-623 189 0
-623 83 84 0
-83 -189 623 0
-84 -189 623 0
-624 189 0
-624 84 0
-84 -189 624 0
-625 190 0
-625 81 0
-81 -190 625 0
-626 190 0
-626 81 82 0
-81 -190 626 0
-82 -190 626 0
-627 190 0
-627 81 82 83 0
-81 -190 627 0
-82 -190 627 0
-83 -190 627 0
-628 190 0
-628 82 83 84 0
-82 -190 628 0
-83 -190 628 0
-84 -190 628 0
-629 190 0
-629 83 84 0
-83 -190 629 0
-84 -190 629 0
-630 190 0
-630 84 0
-84 -190 630 0
-535 -559 0
-535 -583 0
-535 -607 0
-559 -583 0
-559 -607 0
-583 -607 0
-536 -560 0
-536 -584 0
-536 -608 0
-560 -584 0
-560 -608 0
-584 -608 0
-537 -561 0
-537 -585 0
-537 -609 0
-561 -585 0
-561 -609 0
-585 -609 0
-538 -562 0
-538 -586 0
-538 -610 0
-562 -586 0
-562 -610 0
-586 -610 0
-539 -563 0
-539 -587 0
-539 -611 0
-563 -587 0
-563 -611 0
-587 -611 0
-540 -564 0
-540 -588 0
-540 -612 0
-564 -588 0
-564 -612 0
-588 -612 0
-541 -565 0
-541 -589 0
-541 -613 0
-565 -589 0
-565 -613 0
-589 -613 0
-542 -566 0
-542 -590 0
-542 -614 0
-566 -590 0
-566 -614 0
-590 -614 0
-543 -567 0
-543 -591 0
-543 -615 0
-567 -591 0
-567 -615 0
-591 -615 0
-544 -568 0
-544 -592 0
-544 -616 0
-568 -592 0
-568 -616 0
-592 -616 0
-545 -569 0
-545 -593 0
-545 -617 0
-569 -593 0
-569 -617 0
-593 -617 0
-546 -570 0
-546 -594 0
-546 -618 0
-570 -594 0
-570 -618 0
-594 -618 0
-547 -571 0
-547 -595 0
-547 -619 0
-571 -595 0
-571 -619 0
-595 -619 0
-548 -572 0
-548 -596 0
-548 -620 0
-572 -596 0
-572 -620 0
-596 -620 0
-549 -573 0
-549 -597 0
-549 -621 0
-573 -597 0
-573 -621 0
-597 -621 0
-550 -574 0
-550 -598 0
-550 -622 0
-574 -598 0
-574 -622 0
-598 -622 0
-551 -575 0
-551 -599 0
-551 -623 0
-575 -599 0
-575 -623 0
-599 -623 0
-552 -576 0
-552 -600 0
-552 -624 0
-576 -600 0
-576 -624 0
-600 -624 0
-553 -577 0
-553 -601 0
-553 -625 0
-577 -601 0
-577 -625 0
-601 -625 0
-554 -578 0
-554 -602 0
-554 -626 0
-578 -602 0
-578 -626 0
-602 -626 0
-555 -579 0
-555 -603 0
-555 -627 0
-579 -603 0
-579 -627 0
-603 -627 0
-556 -580 0
-556 -604 0
-556 -628 0
-580 -604 0
-580 -628 0
-604 -628 0
-557 -581 0
-557 -605 0
-557 -629 0
-581 -605 0
-581 -629 0
-605 -629 0
-558 -582 0
-558 -606 0
-558 -630 0
-582 -606 0
-582 -630 0
-606 -630 0
-64 -176 559 583 607 0
-64 -177 565 589 613 0
-64 -178 571 595 619 0
-65 -176 560 584 608 0
-65 -177 566 590 614 0
-65 -178 572 596 620 0
-66 -176 561 585 609 0
-66 -177 567 591 615 0
-66 -178 573 597 621 0
-67 -176 562 586 610 0
-67 -177 568 592 616 0
-67 -178 574 598 622 0
-68 -176 563 587 611 0
-68 -177 569 593 617 0
-68 -178 575 599 623 0
-69 -176 564 588 612 0
-69 -177 570 594 618 0
-69 -178 576 600 624 0
-70 -180 535 583 607 0
-70 -181 541 589 613 0
-70 -182 547 595 619 0
-71 -180 536 584 608 0
-71 -181 542 590 614 0
-71 -182 548 596 620 0
-72 -180 537 585 609 0
-72 -181 543 591 615 0
-72 -182 549 597 621 0
-73 -180 538 586 610 0
-73 -181 544 592 616 0
-73 -182 550 598 622 0
-74 -180 539 587 611 0
-74 -181 545 593 617 0
-74 -182 551 599 623 0
-75 -180 540 588 612 0
-75 -181 546 594 618 0
-75 -182 552 600 624 0
-76 -184 535 559 607 536 560 608 0
-76 -185 541 565 613 542 566 614 0
-76 -186 547 571 619 548 572 620 0
-77 -184 536 560 608 537 561 609 0
-77 -185 542 566 614 543 567 615 0
-77 -186 548 572 620 549 573 621 0
-78 -184 537 561 609 538 562 610 0
-78 -185 543 567 615 544 568 616 0
-78 -186 549 573 621 550 574 622 0
-79 -184 538 562 610 539 563 611 0
-79 -185 544 568 616 545 569 617 0
-79 -186 550 574 622 551 575 623 0
-80 -184 539 563 611 540 564 612 0
-80 -185 545 569 617 546 570 618 0
-80 -186 551 575 623 552 576 624 0
-81 -188 535 559 583 536 560 584 0
-81 -188 535 559 583 537 561 585 0
-81 -188 536 560 584 537 561 585 0
-81 -189 541 565 589 542 566 590 0
-81 -189 541 565 589 543 567 591 0
-81 -189 542 566 590 543 567 591 0
-81 -190 547 571 595 548 572 596 0
-81 -190 547 571 595 549 573 597 0
-81 -190 548 572 596 549 573 597 0
-82 -188 536 560 584 537 561 585 0
-82 -188 536 560 584 538 562 586 0
-82 -188 537 561 585 538 562 586 0
-82 -189 542 566 590 543 567 591 0
-82 -189 542 566 590 544 568 592 0
-82 -189 543 567 591 544 568 592 0
-82 -190 548 572 596 549 573 597 0
-82 -190 548 572 596 550 574 598 0
-82 -190 549 573 597 550 574 598 0
-83 -188 537 561 585 538 562 586 0
-83 -188 537 561 585 539 563 587 0
-83 -188 538 562 586 539 563 587 0
-83 -189 543 567 591 544 568 592 0
-83 -189 543 567 591 545 569 593 0
-83 -189 544 568 592 545 569 593 0
-83 -190 549 573 597 550 574 598 0
-83 -190 549 573 597 551 575 599 0
-83 -190 550 574 598 551 575 599 0
-84 -188 538 562 586 539 563 587 0
-84 -188 538 562 586 540 564 588 0
-84 -188 539 563 587 540 564 588 0
-84 -189 544 568 592 545 569 593 0
-84 -189 544 568 592 546 570 594 0
-84 -189 545 569 593 546 570 594 0
-84 -190 550 574 598 551 575 599 0
-84 -190 550 574 598 552 576 600 0
-84 -190 551 575 599 552 576 600 0
-1321 535 541 547 553 0
-1321 -535 -565 0
-1321 -535 -589 0
-1321 -535 -613 0
-535 1321 565 589 613 0
-1321 -541 -571 0
-1321 -541 -595 0
-1321 -541 -619 0
-541 1321 571 595 619 0
-1321 -547 -577 0
-1321 -547 -601 0
-1321 -547 -625 0
-547 1321 577 601 625 0
-553 1321 0
-1322 536 542 548 554 0
-1322 -536 -566 0
-1322 -536 -590 0
-1322 -536 -614 0
-536 1322 566 590 614 0
-1322 -542 -572 0
-1322 -542 -596 0
-1322 -542 -620 0
-542 1322 572 596 620 0
-1322 -548 -578 0
-1322 -548 -602 0
-1322 -548 -626 0
-548 1322 578 602 626 0
-554 1322 0
-1323 537 543 549 555 0
-1323 -537 -567 0
-1323 -537 -591 0
-1323 -537 -615 0
-537 1323 567 591 615 0
-1323 -543 -573 0
-1323 -543 -597 0
-1323 -543 -621 0
-543 1323 573 597 621 0
-1323 -549 -579 0
-1323 -549 -603 0
-1323 -549 -627 0
-549 1323 579 603 627 0
-555 1323 0
-1324 538 544 550 556 0
-1324 -538 -568 0
-1324 -538 -592 0
-1324 -538 -616 0
-538 1324 568 592 616 0
-1324 -544 -574 0
-1324 -544 -598 0
-1324 -544 -622 0
-544 1324 574 598 622 0
-1324 -550 -580 0
-1324 -550 -604 0
-1324 -550 -628 0
-550 1324 580 604 628 0
-556 1324 0
-1325 539 545 551 557 0
-1325 -539 -569 0
-1325 -539 -593 0
-1325 -539 -617 0
-539 1325 569 593 617 0
-1325 -545 -575 0
-1325 -545 -599 0
-1325 -545 -623 0
-545 1325 575 599 623 0
-1325 -551 -581 0
-1325 -551 -605 0
-1325 -551 -629 0
-551 1325 581 605 629 0
-557 1325 0
-1326 540 546 552 558 0
-1326 -540 -570 0
-1326 -540 -594 0
-1326 -540 -618 0
-540 1326 570 594 618 0
-1326 -546 -576 0
-1326 -546 -600 0
-1326 -546 -624 0
-546 1326 576 600 624 0
-1326 -552 -582 0
-1326 -552 -606 0
-1326 -552 -630 0
-552 1326 582 606 630 0
-558 1326 0
-1327 559 565 571 577 0
-1327 -559 -541 0
-1327 -559 -589 0
-1327 -559 -613 0
-559 1327 541 589 613 0
-1327 -565 -547 0
-1327 -565 -595 0
-1327 -565 -619 0
-565 1327 547 595 619 0
-1327 -571 -553 0
-1327 -571 -601 0
-1327 -571 -625 0
-571 1327 553 601 625 0
-577 1327 0
-1328 560 566 572 578 0
-1328 -560 -542 0
-1328 -560 -590 0
-1328 -560 -614 0
-560 1328 542 590 614 0
-1328 -566 -548 0
-1328 -566 -596 0
-1328 -566 -620 0
-566 1328 548 596 620 0
-1328 -572 -554 0
-1328 -572 -602 0
-1328 -572 -626 0
-572 1328 554 602 626 0
-578 1328 0
-1329 561 567 573 579 0
-1329 -561 -543 0
-1329 -561 -591 0
-1329 -561 -615 0
-561 1329 543 591 615 0
-1329 -567 -549 0
-1329 -567 -597 0
-1329 -567 -621 0
-567 1329 549 597 621 0
-1329 -573 -555 0
-1329 -573 -603 0
-1329 -573 -627 0
-573 1329 555 603 627 0
-579 1329 0
-1330 562 568 574 580 0
-1330 -562 -544 0
-1330 -562 -592 0
-1330 -562 -616 0
-562 1330 544 592 616 0
-1330 -568 -550 0
-1330 -568 -598 0
-1330 -568 -622 0
-568 1330 550 598 622 0
-1330 -574 -556 0
-1330 -574 -604 0
-1330 -574 -628 0
-574 1330 556 604 628 0
-580 1330 0
-1331 563 569 575 581 0
-1331 -563 -545 0
-1331 -563 -593 0
-1331 -563 -617 0
-563 1331 545 593 617 0
-1331 -569 -551 0
-1331 -569 -599 0
-1331 -569 -623 0
-569 1331 551 599 623 0
-1331 -575 -557 0
-1331 -575 -605 0
-1331 -575 -629 0
-575 1331 557 605 629 0
-581 1331 0
-1332 564 570 576 582 0
-1332 -564 -546 0
-1332 -564 -594 0
-1332 -564 -618 0
-564 1332 546 594 618 0
-1332 -570 -552 0
-1332 -570 -600 0
-1332 -570 -624 0
-570 1332 552 600 624 0
-1332 -576 -558 0
-1332 -576 -606 0
-1332 -576 -630 0
-576 1332 558 606 630 0
-582 1332 0
-1333 583 589 595 601 0
-1333 -583 -541 0
-1333 -583 -565 0
-1333 -583 -613 0
-583 1333 541 565 613 0
-1333 -589 -547 0
-1333 -589 -571 0
-1333 -589 -619 0
-589 1333 547 571 619 0
-1333 -595 -553 0
-1333 -595 -577 0
-1333 -595 -625 0
-595 1333 553 577 625 0
-601 1333 0
-1334 584 590 596 602 0
-1334 -584 -542 0
-1334 -584 -566 0
-1334 -584 -614 0
-584 1334 542 566 614 0
-1334 -590 -548 0
-1334 -590 -572 0
-1334 -590 -620 0
-590 1334 548 572 620 0
-1334 -596 -554 0
-1334 -596 -578 0
-1334 -596 -626 0
-596 1334 554 578 626 0
-602 1334 0
-1335 585 591 597 603 0
-1335 -585 -543 0
-1335 -585 -567 0
-1335 -585 -615 0
-585 1335 543 567 615 0
-1335 -591 -549 0
-1335 -591 -573 0
-1335 -591 -621 0
-591 1335 549 573 621 0
-1335 -597 -555 0
-1335 -597 -579 0
-1335 -597 -627 0
-597 1335 555 579 627 0
-603 1335 0
-1336 586 592 598 604 0
-1336 -586 -544 0
-1336 -586 -568 0
-1336 -586 -616 0
-586 1336 544 568 616 0
-1336 -592 -550 0
-1336 -592 -574 0
-1336 -592 -622 0
-592 1336 550 574 622 0
-1336 -598 -556 0
-1336 -598 -580 0
-1336 -598 -628 0
-598 1336 556 580 628 0
-604 1336 0
-1337 587 593 599 605 0
-1337 -587 -545 0
-1337 -587 -569 0
-1337 -587 -617 0
-587 1337 545 569 617 0
-1337 -593 -551 0
-1337 -593 -575 0
-1337 -593 -623 0
-593 1337 551 575 623 0
-1337 -599 -557 0
-1337 -599 -581 0
-1337 -599 -629 0
-599 1337 557 581 629 0
-605 1337 0
-1338 588 594 600 606 0
-1338 -588 -546 0
-1338 -588 -570 0
-1338 -588 -618 0
-588 1338 546 570 618 0
-1338 -594 -552 0
-1338 -594 -576 0
-1338 -594 -624 0
-594 1338 552 576 624 0
-1338 -600 -558 0
-1338 -600 -582 0
-1338 -600 -630 0
-600 1338 558 582 630 0
-606 1338 0
-1339 607 613 619 625 0
-1339 -607 -541 0
-1339 -607 -565 0
-1339 -607 -589 0
-607 1339 541 565 589 0
-1339 -613 -547 0
-1339 -613 -571 0
-1339 -613 -595 0
-613 1339 547 571 595 0
-1339 -619 -553 0
-1339 -619 -577 0
-1339 -619 -601 0
-619 1339 553 577 601 0
-625 1339 0
-1340 608 614 620 626 0
-1340 -608 -542 0
-1340 -608 -566 0
-1340 -608 -590 0
-608 1340 542 566 590 0
-1340 -614 -548 0
-1340 -614 -572 0
-1340 -614 -596 0
-614 1340 548 572 596 0
-1340 -620 -554 0
-1340 -620 -578 0
-1340 -620 -602 0
-620 1340 554 578 602 0
-626 1340 0
-1341 609 615 621 627 0
-1341 -609 -543 0
-1341 -609 -567 0
-1341 -609 -591 0
-609 1341 543 567 591 0
-1341 -615 -549 0
-1341 -615 -573 0
-1341 -615 -597 0
-615 1341 549 573 597 0
-1341 -621 -555 0
-1341 -621 -579 0
-1341 -621 -603 0
-621 1341 555 579 603 0
-627 1341 0
-1342 610 616 622 628 0
-1342 -610 -544 0
-1342 -610 -568 0
-1342 -610 -592 0
-610 1342 544 568 592 0
-1342 -616 -550 0
-1342 -616 -574 0
-1342 -616 -598 0
-616 1342 550 574 598 0
-1342 -622 -556 0
-1342 -622 -580 0
-1342 -622 -604 0
-622 1342 556 580 604 0
-628 1342 0
-1343 611 617 623 629 0
-1343 -611 -545 0
-1343 -611 -569 0
-1343 -611 -593 0
-611 1343 545 569 593 0
-1343 -617 -551 0
-1343 -617 -575 0
-1343 -617 -599 0
-617 1343 551 575 599 0
-1343 -623 -557 0
-1343 -623 -581 0
-1343 -623 -605 0
-623 1343 557 581 605 0
-629 1343 0
-1344 612 618 624 630 0
-1344 -612 -546 0
-1344 -612 -570 0
-1344 -612 -594 0
-612 1344 546 570 594 0
-1344 -618 -552 0
-1344 -618 -576 0
-1344 -618 -600 0
-618 1344 552 576 600 0
-1344 -624 -558 0
-1344 -624 -582 0
-1344 -624 -606 0
-624 1344 558 582 606 0
-630 1344 0
-235 -535 1321 0
-235 -541 1321 0
-235 -547 1321 0
-235 -553 1321 0
-235 -536 1322 0
-235 -542 1322 0
-235 -548 1322 0
-235 -554 1322 0
-235 -537 1323 0
-235 -543 1323 0
-235 -549 1323 0
-235 -555 1323 0
-235 -538 1324 0
-235 -544 1324 0
-235 -550 1324 0
-235 -556 1324 0
-235 -539 1325 0
-235 -545 1325 0
-235 -551 1325 0
-235 -557 1325 0
-235 -540 1326 0
-235 -546 1326 0
-235 -552 1326 0
-235 -558 1326 0
-64 235 -1321 0
-65 235 -1322 0
-66 235 -1323 0
-67 235 -1324 0
-68 235 -1325 0
-69 235 -1326 0
-236 -559 1327 0
-236 -565 1327 0
-236 -571 1327 0
-236 -577 1327 0
-236 -560 1328 0
-236 -566 1328 0
-236 -572 1328 0
-236 -578 1328 0
-236 -561 1329 0
-236 -567 1329 0
-236 -573 1329 0
-236 -579 1329 0
-236 -562 1330 0
-236 -568 1330 0
-236 -574 1330 0
-236 -580 1330 0
-236 -563 1331 0
-236 -569 1331 0
-236 -575 1331 0
-236 -581 1331 0
-236 -564 1332 0
-236 -570 1332 0
-236 -576 1332 0
-236 -582 1332 0
-70 236 -1327 0
-71 236 -1328 0
-72 236 -1329 0
-73 236 -1330 0
-74 236 -1331 0
-75 236 -1332 0
-237 -583 1333 0
-237 -589 1333 0
-237 -595 1333 0
-237 -601 1333 0
-237 -584 1334 0
-237 -590 1334 0
-237 -596 1334 0
-237 -602 1334 0
-237 -585 1335 0
-237 -591 1335 0
-237 -597 1335 0
-237 -603 1335 0
-237 -586 1336 0
-237 -592 1336 0
-237 -598 1336 0
-237 -604 1336 0
-237 -587 1337 0
-237 -593 1337 0
-237 -599 1337 0
-237 -605 1337 0
-237 -588 1338 0
-237 -594 1338 0
-237 -600 1338 0
-237 -606 1338 0
-76 237 -1333 -1334 0
-77 237 -1334 -1335 0
-78 237 -1335 -1336 0
-79 237 -1336 -1337 0
-80 237 -1337 -1338 0
-238 -607 1339 0
-238 -613 1339 0
-238 -619 1339 0
-238 -625 1339 0
-238 -608 1340 0
-238 -614 1340 0
-238 -620 1340 0
-238 -626 1340 0
-238 -609 1341 0
-238 -615 1341 0
-238 -621 1341 0
-238 -627 1341 0
-238 -610 1342 0
-238 -616 1342 0
-238 -622 1342 0
-238 -628 1342 0
-238 -611 1343 0
-238 -617 1343 0
-238 -623 1343 0
-238 -629 1343 0
-238 -612 1344 0
-238 -618 1344 0
-238 -624 1344 0
-238 -630 1344 0
-81 238 -1339 -1340 -1341 0
-82 238 -1340 -1341 -1342 0
-83 238 -1341 -1342 -1343 0
-84 238 -1342 -1343 -1344 0
85 86 87 88 89 90 0
-85 -86 0
-85 -87 0
-85 -88 0
-85 -89 0
-85 -90 0
-86 -87 0
-86 -88 0
-86 -89 0
-86 -90 0
-87 -88 0
-87 -89 0
-87 -90 0
-88 -89 0
-88 -90 0
-89 -90 0
91 92 93 94 95 96 0
-91 -92 0
-91 -93 0
-91 -94 0
-91 -95 0
-91 -96 0
-92 -93 0
-92 -94 0
-92 -95 0
-92 -96 0
-93 -94 0
-93 -95 0
-93 -96 0
-94 -95 0
-94 -96 0
-95 -96 0
97 98 99 100 101 0
-97 -98 0
-97 -99 0
-97 -100 0
-97 -101 0
-98 -99 0
-98 -100 0
-98 -101 0
-99 -100 0
-99 -101 0
-100 -101 0
102 103 104 105 0
-102 -103 0
-102 -104 0
-102 -105 0
-103 -104 0
-103 -105 0
-104 -105 0
191 192 193 194 0
-191 -192 0
-191 -193 0
-191 -194 0
-192 -193 0
-192 -194 0
-193 -194 0
195 196 197 198 0
-195 -196 0
-195 -197 0
-195 -198 0
-196 -197 0
-196 -198 0
-197 -198 0
199 200 201 202 0
-199 -200 0
-199 -201 0
-199 -202 0
-200 -201 0
-200 -202 0
-201 -202 0
203 204 205 206 0
-203 -204 0
-203 -205 0
-203 -206 0
-204 -205 0
-204 -206 0
-205 -206 0
-631 191 0
-631 85 0
-85 -191 631 0
-632 191 0
-632 86 0
-86 -191 632 0
-633 191 0
-633 87 0
-87 -191 633 0
-634 191 0
-634 88 0
-88 -191 634 0
-635 191 0
-635 89 0
-89 -191 635 0
-636 191 0
-636 90 0
-90 -191 636 0
-637 192 0
-637 85 0
-85 -192 637 0
-638 192 0
-638 86 0
-86 -192 638 0
-639 192 0
-639 87 0
-87 -192 639 0
-640 192 0
-640 88 0
-88 -192 640 0
-641 192 0
-641 89 0
-89 -192 641 0
-642 192 0
-642 90 0
-90 -192 642 0
-643 193 0
-643 85 0
-85 -193 643 0
-644 193 0
-644 86 0
-86 -193 644 0
-645 193 0
-645 87 0
-87 -193 645 0
-646 193 0
-646 88 0
-88 -193 646 0
-647 193 0
-647 89 0
-89 -193 647 0
-648 193 0
-648 90 0
-90 -193 648 0
-649 194 0
-649 85 0
-85 -194 649 0
-650 194 0
-650 86 0
-86 -194 650 0
-651 194 0
-651 87 0
-87 -194 651 0
-652 194 0
-652 88 0
-88 -194 652 0
-653 194 0
-653 89 0
-89 -194 653 0
-654 194 0
-654 90 0
-90 -194 654 0
-655 195 0
-655 91 0
-91 -195 655 0
-656 195 0
-656 92 0
-92 -195 656 0
-657 195 0
-657 93 0
-93 -195 657 0
-658 195 0
-658 94 0
-94 -195 658 0
-659 195 0
-659 95 0
-95 -195 659 0
-660 195 0
-660 96 0
-96 -195 660 0
-661 196 0
-661 91 0
-91 -196 661 0
-662 196 0
-662 92 0
-92 -196 662 0
-663 196 0
-663 93 0
-93 -196 663 0
-664 196 0
-664 94 0
-94 -196 664 0
-665 196 0
-665 95 0
-95 -196 665 0
-666 196 0
-666 96 0
-96 -196 666 0
-667 197 0
-667 91 0
-91 -197 667 0
-668 197 0
-668 92 0
-92 -197 668 0
-669 197 0
-669 93 0
-93 -197 669 0
-670 197 0
-670 94 0
-94 -197 670 0
-671 197 0
-671 95 0
-95 -197 671 0
-672 197 0
-672 96 0
-96 -197 672 0
-673 198 0
-673 91 0
-91 -198 673 0
-674 198 0
-674 92 0
-92 -198 674 0
-675 198 0
-675 93 0
-93 -198 675 0
-676 198 0
-676 94 0
-94 -198 676 0
-677 198 0
-677 95 0
-95 -198 677 0
-678 198 0
-678 96 0
-96 -198 678 0
-679 199 0
-679 97 0
-97 -199 679 0
-680 199 0
-680 97 98 0
-97 -199 680 0
-98 -199 680 0
-681 199 0
-681 98 99 0
-98 -199 681 0
-99 -199 681 0
-682 199 0
-682 99 100 0
-99 -199 682 0
-100 -199 682 0
-683 199 0
-683 100 101 0
-100 -199 683 0
-101 -199 683 0
-684 199 0
-684 101 0
-101 -199 684 0
-685 200 0
-685 97 0
-97 -200 685 0
-686 200 0
-686 97 98 0
-97 -200 686 0
-98 -200 686 0
-687 200 0
-687 98 99 0
-98 -200 687 0
-99 -200 687 0
-688 200 0
-688 99 100 0
-99 -200 688 0
-100 -200 688 0
-689 200 0
-689 100 101 0
-100 -200 689 0
-101 -200 689 0
-690 200 0
-690 101 0
-101 -200 690 0
-691 201 0
-691 97 0
-97 -201 691 0
-692 201 0
-692 97 98 0
-97 -201 692 0
-98 -201 692 0
-693 201 0
-693 98 99 0
-98 -201 693 0
-99 -201 693 0
-694 201 0
-694 99 100 0
-99 -201 694 0
-100 -201 694 0
-695 201 0
-695 100 101 0
-100 -201 695 0
-101 -201 695 0
-696 201 0
-696 101 0
-101 -201 696 0
-697 202 0
-697 97 0
-97 -202 697 0
-698 202 0
-698 97 98 0
-97 -202 698 0
-98 -202 698 0
-699 202 0
-699 98 99 0
-98 -202 699 0
-99 -202 699 0
-700 202 0
-700 99 100 0
-99 -202 700 0
-100 -202 700 0
-701 202 0
-701 100 101 0
-100 -202 701 0
-101 -202 701 0
-702 202 0
-702 101 0
-101 -202 702 0
-703 203 0
-703 102 0
-102 -203 703 0
-704 203 0
-704 102 103 0
-102 -203 704 0
-103 -203 704 0
-705 203 0
-705 102 103 104 0
-102 -203 705 0
-103 -203 705 0
-104 -203 705 0
-706 203 0
-706 103 104 105 0
-103 -203 706 0
-104 -203 706 0
-105 -203 706 0
-707 203 0
-707 104 105 0
-104 -203 707 0
-105 -203 707 0
-708 203 0
-708 105 0
-105 -203 708 0
-709 204 0
-709 102 0
-102 -204 709 0
-710 204 0
-710 102 103 0
-102 -204 710 0
-103 -204 710 0
-711 204 0
-711 102 103 104 0
-102 -204 711 0
-103 -204 711 0
-104 -204 711 0
-712 204 0
-712 103 104 105 0
-103 -204 712 0
-104 -204 712 0
-105 -204 712 0
-713 204 0
-713 104 105 0
-104 -204 713 0
-105 -204 713 0
-714 204 0
-714 105 0
-105 -204 714 0
-715 205 0
-715 102 0
-102 -205 715 0
-716 205 0
-716 102 103 0
-102 -205 716 0
-103 -205 716 0
-717 205 0
-717 102 103 104 0
-102 -205 717 0
-103 -205 717 0
-104 -205 717 0
-718 205 0
-718 103 104 105 0
-103 -205 718 0
-104 -205 718 0
-105 -205 718 0
-719 205 0
-719 104 105 0
-104 -205 719 0
-105 -205 719 0
-720 205 0
-720 105 0
-105 -205 720 0
-721 206 0
-721 102 0
-102 -206 721 0
-722 206 0
-722 102 103 0
-102 -206 722 0
-103 -206 722 0
-723 206 0
-723 102 103 104 0
-102 -206 723 0
-103 -206 723 0
-104 -206 723 0
-724 206 0
-724 103 104 105 0
-103 -206 724 0
-104 -206 724 0
-105 -206 724 0
-725 206 0
-725 104 105 0
-104 -206 725 0
-105 -206 725 0
-726 206 0
-726 105 0
-105 -206 726 0
-631 -655 0
-631 -679 0
-631 -703 0
-655 -679 0
-655 -703 0
-679 -703 0
-632 -656 0
-632 -680 0
-632 -704 0
-656 -680 0
-656 -704 0
-680 -704 0
-633 -657 0
-633 -681 0
-633 -705 0
-657 -681 0
-657 -705 0
-681 -705 0
-634 -658 0
-634 -682 0
-634 -706 0
-658 -682 0
-658 -706 0
-682 -706 0
-635 -659 0
-635 -683 0
-635 -707 0
-659 -683 0
-659 -707 0
-683 -707 0
-636 -660 0
-636 -684 0
-636 -708 0
-660 -684 0
-660 -708 0
-684 -708 0
-637 -661 0
-637 -685 0
-637 -709 0
-661 -685 0
-661 -709 0
-685 -709 0
-638 -662 0
-638 -686 0
-638 -710 0
-662 -686 0
-662 -710 0
-686 -710 0
-639 -663 0
-639 -687 0
-639 -711 0
-663 -687 0
-663 -711 0
-687 -711 0
-640 -664 0
-640 -688 0
-640 -712 0
-664 -688 0
-664 -712 0
-688 -712 0
-641 -665 0
-641 -689 0
-641 -713 0
-665 -689 0
-665 -713 0
-689 -713 0
-642 -666 0
-642 -690 0
-642 -714 0
-666 -690 0
-666 -714 0
-690 -714 0
-643 -667 0
-643 -691 0
-643 -715 0
-667 -691 0
-667 -715 0
-691 -715 0
-644 -668 0
-644 -692 0
-644 -716 0
-668 -692 0
-668 -716 0
-692 -716 0
-645 -669 0
-645 -693 0
-645 -717 0
-669 -693 0
-669 -717 0
-693 -717 0
-646 -670 0
-646 -694 0
-646 -718 0
-670 -694 0
-670 -718 0
-694 -718 0
-647 -671 0
-647 -695 0
-647 -719 0
-671 -695 0
-671 -719 0
-695 -719 0
-648 -672 0
-648 -696 0
-648 -720 0
-672 -696 0
-672 -720 0
-696 -720 0
-649 -673 0
-649 -697 0
-649 -721 0
-673 -697 0
-673 -721 0
-697 -721 0
-650 -674 0
-650 -698 0
-650 -722 0
-674 -698 0
-674 -722 0
-698 -722 0
-651 -675 0
-651 -699 0
-651 -723 0
-675 -699 0
-675 -723 0
-699 -723 0
-652 -676 0
-652 -700 0
-652 -724 0
-676 -700 0
-676 -724 0
-700 -724 0
-653 -677 0
-653 -701 0
-653 -725 0
-677 -701 0
-677 -725 0
-701 -725 0
-654 -678 0
-654 -702 0
-654 -726 0
-678 -702 0
-678 -726 0
-702 -726 0
-85 -192 655 679 703 0
-85 -193 661 685 709 0
-85 -194 667 691 715 0
-86 -192 656 680 704 0
-86 -193 662 686 710 0
-86 -194 668 692 716 0
-87 -192 657 681 705 0
-87 -193 663 687 711 0
-87 -194 669 693 717 0
-88 -192 658 682 706 0
-88 -193 664 688 712 0
-88 -194 670 694 718 0
-89 -192 659 683 707 0
-89 -193 665 689 713 0
-89 -194 671 695 719 0
-90 -192 660 684 708 0
-90 -193 666 690 714 0
-90 -194 672 696 720 0
-91 -196 631 679 703 0
-91 -197 637 685 709 0
-91 -198 643 691 715 0
-92 -196 632 680 704 0
-92 -197 638 686 710 0
-92 -198 644 692 716 0
-93 -196 633 681 705 0
-93 -197 639 687 711 0
-93 -198 645 693 717 0
-94 -196 634 682 706 0
-94 -197 640 688 712 0
-94 -198 646 694 718 0
-95 -196 635 683 707 0
-95 -197 641 689 713 0
-95 -198 647 695 719 0
-96 -196 636 684 708 0
-96 -197 642 690 714 0
-96 -198 648 696 720 0
-97 -200 631 655 703 632 656 704 0
-97 -201 637 661 709 638 662 710 0
-97 -202 643 667 715 644 668 716 0
-98 -200 632 656 704 633 657 705 0
-98 -201 638 662 710 639 663 711 0
-98 -202 644 668 716 645 669 717 0
-99 -200 633 657 705 634 658 706 0
-99 -201 639 663 711 640 664 712 0
-99 -202 645 669 717 646 670 718 0
-100 -200 634 658 706 635 659 707 0
-100 -201 640 664 712 641 665 713 0
-100 -202 646 670 718 647 671 719 0
-101 -200 635 659 707 636 660 708 0
-101 -201 641 665 713 642 666 714 0
-101 -202 647 671 719 648 672 720 0
-102 -204 631 655 679 632 656 680 0
-102 -204 631 655 679 633 657 681 0
-102 -204 632 656 680 633 657 681 0
-102 -205 637 661 685 638 662 686 0
-102 -205 637 661 685 639 663 687 0
-102 -205 638 662 686 639 663 687 0
-102 -206 643 667 691 644 668 692 0
-102 -206 643 667 691 645 669 693 0
-102 -206 644 668 692 645 669 693 0
-103 -204 632 656 680 633 657 681 0
-103 -204 632 656 680 634 658 682 0
-103 -204 633 657 681 634 658 682 0
-103 -205 638 662 686 639 663 687 0
-103 -205 638 662 686 640 664 688 0
-103 -205 639 663 687 640 664 688 0
-103 -206 644 668 692 645 669 693 0
-103 -206 644 668 692 646 670 694 0
-103 -206 645 669 693 646 670 694 0
-104 -204 633 657 681 634 658 682 0
-104 -204 633 657 681 635 659 683 0
-104 -204 634 658 682 635 659 683 0
-104 -205 639 663 687 640 664 688 0
-104 -205 639 663 687 641 665 689 0
-104 -205 640 664 688 641 665 689 0
-104 -206 645 669 693 646 670 694 0
-104 -206 645 669 693 647 671 695 0
-104 -206 646 670 694 647 671 695 0
-105 -204 634 658 682 635 659 683 0
-105 -204 634 658 682 636 660 684 0
-105 -204 635 659 683 636 660 684 0
-105 -205 640 664 688 641 665 689 0
-105 -205 640 664 688 642 666 690 0
-105 -205 641 665 689 642 666 690 0
-105 -206 646 670 694 647 671 695 0
-105 -206 646 670 694 648 672 696 0
-105 -206 647 671 695 648 672 696 0
-1345 631 637 643 649 0
-1345 -631 -661 0
-1345 -631 -685 0
-1345 -631 -709 0
-631 1345 661 685 709 0
-1345 -637 -667 0
-1345 -637 -691 0
-1345 -637 -715 0
-637 1345 667 691 715 0
-1345 -643 -673 0
-1345 -643 -697 0
-1345 -643 -721 0
-643 1345 673 697 721 0
-649 1345 0
-1346 632 638 644 650 0
-1346 -632 -662 0
-1346 -632 -686 0
-1346 -632 -710 0
-632 1346 662 686 710 0
-1346 -638 -668 0
-1346 -638 -692 0
-1346 -638 -716 0
-638 1346 668 692 716 0
-1346 -644 -674 0
-1346 -644 -698 0
-1346 -644 -722 0
-644 1346 674 698 722 0
-650 1346 0
-1347 633 639 645 651 0
-1347 -633 -663 0
-1347 -633 -687 0
-1347 -633 -711 0
-633 1347 663 687 711 0
-1347 -639 -669 0
-1347 -639 -693 0
-1347 -639 -717 0
-639 1347 669 693 717 0
-1347 -645 -675 0
-1347 -645 -699 0
-1347 -645 -723 0
-645 1347 675 699 723 0
-651 1347 0
-1348 634 640 646 652 0
-1348 -634 -664 0
-1348 -634 -688 0
-1348 -634 -712 0
-634 1348 664 688 712 0
-1348 -640 -670 0
-1348 -640 -694 0
-1348 -640 -718 0
-640 1348 670 694 718 0
-1348 -646 -676 0
-1348 -646 -700 0
-1348 -646 -724 0
-646 1348 676 700 724 0
-652 1348 0
-1349 635 641 647 653 0
-1349 -635 -665 0
-1349 -635 -689 0
-1349 -635 -713 0
-635 1349 665 689 713 0
-1349 -641 -671 0
-1349 -641 -695 0
-1349 -641 -719 0
-641 1349 671 695 719 0
-1349 -647 -677 0
-1349 -647 -701 0
-1349 -647 -725 0
-647 1349 677 701 725 0
-653 1349 0
-1350 636 642 648 654 0
-1350 -636 -666 0
-1350 -636 -690 0
-1350 -636 -714 0
-636 1350 666 690 714 0
-1350 -642 -672 0
-1350 -642 -696 0
-1350 -642 -720 0
-642 1350 672 696 720 0
-1350 -648 -678 0
-1350 -648 -702 0
-1350 -648 -726 0
-648 1350 678 702 726 0
-654 1350 0
-1351 655 661 667 673 0
-1351 -655 -637 0
-1351 -655 -685 0
-1351 -655 -709 0
-655 1351 637 685 709 0
-1351 -661 -643 0
-1351 -661 -691 0
-1351 -661 -715 0
-661 1351 643 691 715 0
-1351 -667 -649 0
-1351 -667 -697 0
-1351 -667 -721 0
-667 1351 649 697 721 0
-673 1351 0
-1352 656 662 668 674 0
-1352 -656 -638 0
-1352 -656 -686 0
-1352 -656 -710 0
-656 1352 638 686 710 0
-1352 -662 -644 0
-1352 -662 -692 0
-1352 -662 -716 0
-662 1352 644 692 716 0
-1352 -668 -650 0
-1352 -668 -698 0
-1352 -668 -722 0
-668 1352 650 698 722 0
-674 1352 0
-1353 657 663 669 675 0
-1353 -657 -639 0
-1353 -657 -687 0
-1353 -657 -711 0
-657 1353 639 687 711 0
-1353 -663 -645 0
-1353 -663 -693 0
-1353 -663 -717 0
-663 1353 645 693 717 0
-1353 -669 -651 0
-1353 -669 -699 0
-1353 -669 -723 0
-669 1353 651 699 723 0
-675 1353 0
-1354 658 664 670 676 0
-1354 -658 -640 0
-1354 -658 -688 0
-1354 -658 -712 0
-658 1354 640 688 712 0
-1354 -664 -646 0
-1354 -664 -694 0
-1354 -664 -718 0
-664 1354 646 694 718 0
-1354 -670 -652 0
-1354 -670 -700 0
-1354 -670 -724 0
-670 1354 652 700 724 0
-676 1354 0
-1355 659 665 671 677 0
-1355 -659 -641 0
-1355 -659 -689 0
-1355 -659 -713 0
-659 1355 641 689 713 0
-1355 -665 -647 0
-1355 -665 -695 0
-1355 -665 -719 0
-665 1355 647 695 719 0
-1355 -671 -653 0
-1355 -671 -701 0
-1355 -671 -725 0
-671 1355 653 701 725 0
-677 1355 0
-1356 660 666 672 678 0
-1356 -660 -642 0
-1356 -660 -690 0
-1356 -660 -714 0
-660 1356 642 690 714 0
-1356 -666 -648 0
-1356 -666 -696 0
-1356 -666 -720 0
-666 1356 648 696 720 0
-1356 -672 -654 0
-1356 -672 -702 0
-1356 -672 -726 0
-672 1356 654 702 726 0
-678 1356 0
-1357 679 685 691 697 0
-1357 -679 -637 0
-1357 -679 -661 0
-1357 -679 -709 0
-679 1357 637 661 709 0
-1357 -685 -643 0
-1357 -685 -667 0
-1357 -685 -715 0
-685 1357 643 667 715 0
-1357 -691 -649 0
-1357 -691 -673 0
-1357 -691 -721 0
-691 1357 649 673 721 0
-697 1357 0
-1358 680 686 692 698 0
-1358 -680 -638 0
-1358 -680 -662 0
-1358 -680 -710 0
-680 1358 638 662 710 0
-1358 -686 -644 0
-1358 -686 -668 0
-1358 -686 -716 0
-686 1358 644 668 716 0
-1358 -692 -650 0
-1358 -692 -674 0
-1358 -692 -722 0
-692 1358 650 674 722 0
-698 1358 0
-1359 681 687 693 699 0
-1359 -681 -639 0
-1359 -681 -663 0
-1359 -681 -711 0
-681 1359 639 663 711 0
-1359 -687 -645 0
-1359 -687 -669 0
-1359 -687 -717 0
-687 1359 645 669 717 0
-1359 -693 -651 0
-1359 -693 -675 0
-1359 -693 -723 0
-693 1359 651 675 723 0
-699 1359 0
-1360 682 688 694 700 0
-1360 -682 -640 0
-1360 -682 -664 0
-1360 -682 -712 0
-682 1360 640 664 712 0
-1360 -688 -646 0
-1360 -688 -670 0
-1360 -688 -718 0
-688 1360 646 670 718 0
-1360 -694 -652 0
-1360 -694 -676 0
-1360 -694 -724 0
-694 1360 652 676 724 0
-700 1360 0
-1361 683 689 695 701 0
-1361 -683 -641 0
-1361 -683 -665 0
-1361 -683 -713 0
-683 1361 641 665 713 0
-1361 -689 -647 0
-1361 -689 -671 0
-1361 -689 -719 0
-689 1361 647 671 719 0
-1361 -695 -653 0
-1361 -695 -677 0
-1361 -695 -725 0
-695 1361 653 677 725 0
-701 1361 0
-1362 684 690 696 702 0
-1362 -684 -642 0
-1362 -684 -666 0
-1362 -684 -714 0
-684 1362 642 666 714 0
-1362 -690 -648 0
-1362 -690 -672 0
-1362 -690 -720 0
-690 1362 648 672 720 0
-1362 -696 -654 0
-1362 -696 -678 0
-1362 -696 -726 0
-696 1362 654 678 726 0
-702 1362 0
-1363 703 709 715 721 0
-1363 -703 -637 0
-1363 -703 -661 0
-1363 -703 -685 0
-703 1363 637 661 685 0
-1363 -709 -643 0
-1363 -709 -667 0
-1363 -709 -691 0
-709 1363 643 667 691 0
-1363 -715 -649 0
-1363 -715 -673 0
-1363 -715 -697 0
-715 1363 649 673 697 0
-721 1363 0
-1364 704 710 716 722 0
-1364 -704 -638 0
-1364 -704 -662 0
-1364 -704 -686 0
-704 1364 638 662 686 0
-1364 -710 -644 0
-1364 -710 -668 0
-1364 -710 -692 0
-710 1364 644 668 692 0
-1364 -716 -650 0
-1364 -716 -674 0
-1364 -716 -698 0
-716 1364 650 674 698 0
-722 1364 0
-1365 705 711 717 723 0
-1365 -705 -639 0
-1365 -705 -663 0
-1365 -705 -687 0
-705 1365 639 663 687 0
-1365 -711 -645 0
-1365 -711 -669 0
-1365 -711 -693 0
-711 1365 645 669 693 0
-1365 -717 -651 0
-1365 -717 -675 0
-1365 -717 -699 0
-717 1365 651 675 699 0
-723 1365 0
-1366 706 712 718 724 0
-1366 -706 -640 0
-1366 -706 -664 0
-1366 -706 -688 0
-706 1366 640 664 688 0
-1366 -712 -646 0
-1366 -712 -670 0
-1366 -712 -694 0
-712 1366 646 670 694 0
-1366 -718 -652 0
-1366 -718 -676 0
-1366 -718 -700 0
-718 1366 652 676 700 0
-724 1366 0
-1367 707 713 719 725 0
-1367 -707 -641 0
-1367 -707 -665 0
-1367 -707 -689 0
-707 1367 641 665 689 0
-1367 -713 -647 0
-1367 -713 -671 0
-1367 -713 -695 0
-713 1367 647 671 695 0
-1367 -719 -653 0
-1367 -719 -677 0
-1367 -719 -701 0
-719 1367 653 677 701 0
-725 1367 0
-1368 708 714 720 726 0
-1368 -708 -642 0
-1368 -708 -666 0
-1368 -708 -690 0
-708 1368 642 666 690 0
-1368 -714 -648 0
-1368 -714 -672 0
-1368 -714 -696 0
-714 1368 648 672 696 0
-1368 -720 -654 0
-1368 -720 -678 0
-1368 -720 -702 0
-720 1368 654 678 702 0
-726 1368 0
-239 -631 1345 0
-239 -637 1345 0
-239 -643 1345 0
-239 -649 1345 0
-239 -632 1346 0
-239 -638 1346 0
-239 -644 1346 0
-239 -650 1346 0
-239 -633 1347 0
-239 -639 1347 0
-239 -645 1347 0
-239 -651 1347 0
-239 -634 1348 0
-239 -640 1348 0
-239 -646 1348 0
-239 -652 1348 0
-239 -635 1349 0
-239 -641 1349 0
-239 -647 1349 0
-239 -653 1349 0
-239 -636 1350 0
-239 -642 1350 0
-239 -648 1350 0
-239 -654 1350 0
-85 239 -1345 0
-86 239 -1346 0
-87 239 -1347 0
-88 239 -1348 0
-89 239 -1349 0
-90 239 -1350 0
-240 -655 1351 0
-240 -661 1351 0
-240 -667 1351 0
-240 -673 1351 0
-240 -656 1352 0
-240 -662 1352 0
-240 -668 1352 0
-240 -674 1352 0
-240 -657 1353 0
-240 -663 1353 0
-240 -669 1353 0
-240 -675 1353 0
-240 -658 1354 0
-240 -664 1354 0
-240 -670 1354 0
-240 -676 1354 0
-240 -659 1355 0
-240 -665 1355 0
-240 -671 1355 0
-240 -677 1355 0
-240 -660 1356 0
-240 -666 1356 0
-240 -672 1356 0
-240 -678 1356 0
-91 240 -1351 0
-92 240 -1352 0
-93 240 -1353 0
-94 240 -1354 0
-95 240 -1355 0
-96 240 -1356 0
-241 -679 1357 0
-241 -685 1357 0
-241 -691 1357 0
-241 -697 1357 0
-241 -680 1358 0
-241 -686 1358 0
-241 -692 1358 0
-241 -698 1358 0
-241 -681 1359 0
-241 -687 1359 0
-241 -693 1359 0
-241 -699 1359 0
-241 -682 1360 0
-241 -688 1360 0
-241 -694 1360 0
-241 -700 1360 0
-241 -683 1361 0
-241 -689 1361 0
-241 -695 1361 0
-241 -701 1361 0
-241 -684 1362 0
-241 -690 1362 0
-241 -696 1362 0
-241 -702 1362 0
-97 241 -1357 -1358 0
-98 241 -1358 -1359 0
-99 241 -1359 -1360 0
-100 241 -1360 -1361 0
-101 241 -1361 -1362 0
-242 -703 1363 0
-242 -709 1363 0
-242 -715 1363 0
-242 -721 1363 0
-242 -704 1364 0
-242 -710 1364 0
-242 -716 1364 0
-242 -722 1364 0
-242 -705 1365 0
-242 -711 1365 0
-242 -717 1365 0
-242 -723 1365 0
-242 -706 1366 0
-242 -712 1366 0
-242 -718 1366 0
-242 -724 1366 0
-242 -707 1367 0
-242 -713 1367 0
-242 -719 1367 0
-242 -725 1367 0
-242 -708 1368 0
-242 -714 1368 0
-242 -720 1368 0
-242 -726 1368 0
-102 242 -1363 -1364 -1365 0
-103 242 -1364 -1365 -1366 0
-104 242 -1365 -1366 -1367 0
-105 242 -1366 -1367 -1368 0
106 107 108 109 110 111 0
-106 -107 0
-106 -108 0
-106 -109 0
-106 -110 0
-106 -111 0
-107 -108 0
-107 -109 0
-107 -110 0
-107 -111 0
-108 -109 0
-108 -110 0
-108 -111 0
-109 -110 0
-109 -111 0
-110 -111 0
112 113 114 115 116 117 0
-112 -113 0
-112 -114 0
-112 -115 0
-112 -116 0
-112 -117 0
-113 -114 0
-113 -115 0
-113 -116 0
-113 -117 0
-114 -115 0
-114 -116 0
-114 -117 0
-115 -116 0
-115 -117 0
-116 -117 0
118 119 120 121 122 0
-118 -119 0
-118 -120 0
-118 -121 0
-118 -122 0
-119 -120 0
-119 -121 0
-119 -122 0
-120 -121 0
-120 -122 0
-121 -122 0
123 124 125 126 0
-123 -124 0
-123 -125 0
-123 -126 0
-124 -125 0
-124 -126 0
-125 -126 0
207 208 209 210 0
-207 -208 0
-207 -209 0
-207 -210 0
-208 -209 0
-208 -210 0
-209 -210 0
211 212 213 214 0
-211 -212 0
-211 -213 0
-211 -214 0
-212 -213 0
-212 -214 0
-213 -214 0
215 216 217 218 0
-215 -216 0
-215 -217 0
-215 -218 0
-216 -217 0
-216 -218 0
-217 -218 0
219 220 221 222 0
-219 -220 0
-219 -221 0
-219 -222 0
-220 -221 0
-220 -222 0
-221 -222 0
-727 207 0
-727 106 0
-106 -207 727 0
-728 207 0
-728 107 0
-107 -207 728 0
-729 207 0
-729 108 0
-108 -207 729 0
-730 207 0
-730 109 0
-109 -207 730 0
-731 207 0
-731 110 0
-110 -207 731 0
-732 207 0
-732 111 0
-111 -207 732 0
-733 208 0
-733 106 0
-106 -208 733 0
-734 208 0
-734 107 0
-107 -208 734 0
-735 208 0
-735 108 0
-108 -208 735 0
-736 208 0
-736 109 0
-109 -208 736 0
-737 208 0
-737 110 0
-110 -208 737 0
-738 208 0
-738 111 0
-111 -208 738 0
-739 209 0
-739 106 0
-106 -209 739 0
-740 209 0
-740 107 0
-107 -209 740 0
-741 209 0
-741 108 0
-108 -209 741 0
-742 209 0
-742 109 0
-109 -209 742 0
-743 209 0
-743 110 0
-110 -209 743 0
-744 209 0
-744 111 0
-111 -209 744 0
-745 210 0
-745 106 0
-106 -210 745 0
-746 210 0
-746 107 0
-107 -210 746 0
-747 210 0
-747 108 0
-108 -210 747 0
-748 210 0
-748 109 0
-109 -210 748 0
-749 210 0
-749 110 0
-110 -210 749 0
-750 210 0
-750 111 0
-111 -210 750 0
-751 211 0
-751 112 0
-112 -211 751 0
-752 211 0
-752 113 0
-113 -211 752 0
-753 211 0
-753 114 0
-114 -211 753 0
-754 211 0
-754 115 0
-115 -211 754 0
-755 211 0
-755 116 0
-116 -211 755 0
-756 211 0
-756 117 0
-117 -211 756 0
-757 212 0
-757 112 0
-112 -212 757 0
-758 212 0
-758 113 0
-113 -212 758 0
-759 212 0
-759 114 0
-114 -212 759 0
-760 212 0
-760 115 0
-115 -212 760 0
-761 212 0
-761 116 0
-116 -212 761 0
-762 212 0
-762 117 0
-117 -212 762 0
-763 213 0
-763 112 0
-112 -213 763 0
-764 213 0
-764 113 0
-113 -213 764 0
-765 213 0
-765 114 0
-114 -213 765 0
-766 213 0
-766 115 0
-115 -213 766 0
-767 213 0
-767 116 0
-116 -213 767 0
-768 213 0
-768 117 0
-117 -213 768 0
-769 214 0
-769 112 0
-112 -214 769 0
-770 214 0
-770 113 0
-113 -214 770 0
-771 214 0
-771 114 0
-114 -214 771 0
-772 214 0
-772 115 0
-115 -214 772 0
-773 214 0
-773 116 0
-116 -214 773 0
-774 214 0
-774 117 0
-117 -214 774 0
-775 215 0
-775 118 0
-118 -215 775 0
-776 215 0
-776 118 119 0
-118 -215 776 0
-119 -215 776 0
-777 215 0
-777 119 120 0
-119 -215 777 0
-120 -215 777 0
-778 215 0
-778 120 121 0
-120 -215 778 0
-121 -215 778 0
-779 215 0
-779 121 122 0
-121 -215 779 0
-122 -215 779 0
-780 215 0
-780 122 0
-122 -215 780 0
-781 216 0
-781 118 0
-118 -216 781 0
-782 216 0
-782 118 119 0
-118 -216 782 0
-119 -216 782 0
-783 216 0
-783 119 120 0
-119 -216 783 0
-120 -216 783 0
-784 216 0
-784 120 121 0
-120 -216 784 0
-121 -216 784 0
-785 216 0
-785 121 122 0
-121 -216 785 0
-122 -216 785 0
-786 216 0
-786 122 0
-122 -216 786 0
-787 217 0
-787 118 0
-118 -217 787 0
-788 217 0
-788 118 119 0
-118 -217 788 0
-119 -217 788 0
-789 217 0
-789 119 120 0
-119 -217 789 0
-120 -217 789 0
-790 217 0
-790 120 121 0
-120 -217 790 0
-121 -217 790 0
-791 217 0
-791 121 122 0
-121 -217 791 0
-122 -217 791 0
-792 217 0
-792 122 0
-122 -217 792 0
-793 218 0
-793 118 0
-118 -218 793 0
-794 218 0
-794 118 119 0
-118 -218 794 0
-119 -218 794 0
-795 218 0
-795 119 120 0
-119 -218 795 0
-120 -218 795 0
-796 218 0
-796 120 121 0
-120 -218 796 0
-121 -218 796 0
-797 218 0
-797 121 122 0
-121 -218 797 0
-122 -218 797 0
-798 218 0
-798 122 0
-122 -218 798 0
-799 219 0
-799 123 0
-123 -219 799 0
-800 219 0
-800 123 124 0
-123 -219 800 0
-124 -219 800 0
-801 219 0
-801 123 124 125 0
-123 -219 801 0
-124 -219 801 0
-125 -219 801 0
-802 219 0
-802 124 125 126 0
-124 -219 802 0
-125 -219 802 0
-126 -219 802 0
-803 219 0
-803 125 126 0
-125 -219 803 0
-126 -219 803 0
-804 219 0
-804 126 0
-126 -219 804 0
-805 220 0
-805 123 0
-123 -220 805 0
-806 220 0
-806 123 124 0
-123 -220 806 0
-124 -220 806 0
-807 220 0
-807 123 124 125 0
-123 -220 807 0
-124 -220 807 0
-125 -220 807 0
-808 220 0
-808 124 125 126 0
-124 -220 808 0
-125 -220 808 0
-126 -220 808 0
-809 220 0
-809 125 126 0
-125 -220 809 0
-126 -220 809 0
-810 220 0
-810 126 0
-126 -220 810 0
-811 221 0
-811 123 0
-123 -221 811 0
-812 221 0
-812 123 124 0
-123 -221 812 0
-124 -221 812 0
-813 221 0
-813 123 124 125 0
-123 -221 813 0
-124 -221 813 0
-125 -221 813 0
-814 221 0
-814 124 125 126 0
-124 -221 814 0
-125 -221 814 0
-126 -221 814 0
-815 221 0
-815 125 126 0
-125 -221 815 0
-126 -221 815 0
-816 221 0
-816 126 0
-126 -221 816 0
-817 222 0
-817 123 0
-123 -222 817 0
-818 222 0
-818 123 124 0
-123 -222 818 0
-124 -222 818 0
-819 222 0
-819 123 124 125 0
-123 -222 819 0
-124 -222 819 0
-125 -222 819 0
-820 222 0
-820 124 125 126 0
-124 -222 820 0
-125 -222 820 0
-126 -222 820 0
-821 222 0
-821 125 126 0
-125 -222 821 0
-126 -222 821 0
-822 222 0
-822 126 0
-126 -222 822 0
-727 -751 0
-727 -775 0
-727 -799 0
-751 -775 0
-751 -799 0
-775 -799 0
-728 -752 0
-728 -776 0
-728 -800 0
-752 -776 0
-752 -800 0
-776 -800 0
-729 -753 0
-729 -777 0
-729 -801 0
-753 -777 0
-753 -801 0
-777 -801 0
-730 -754 0
-730 -778 0
-730 -802 0
-754 -778 0
-754 -802 0
-778 -802 0
-731 -755 0
-731 -779 0
-731 -803 0
-755 -779 0
-755 -803 0
-779 -803 0
-732 -756 0
-732 -780 0
-732 -804 0
-756 -780 0
-756 -804 0
-780 -804 0
-733 -757 0
-733 -781 0
-733 -805 0
-757 -781 0
-757 -805 0
-781 -805 0
-734 -758 0
-734 -782 0
-734 -806 0
-758 -782 0
-758 -806 0
-782 -806 0
-735 -759 0
-735 -783 0
-735 -807 0
-759 -783 0
-759 -807 0
-783 -807 0
-736 -760 0
-736 -784 0
-736 -808 0
-760 -784 0
-760 -808 0
-784 -808 0
-737 -761 0
-737 -785 0
-737 -809 0
-761 -785 0
-761 -809 0
-785 -809 0
-738 -762 0
-738 -786 0
-738 -810 0
-762 -786 0
-762 -810 0
-786 -810 0
-739 -763 0
-739 -787 0
-739 -811 0
-763 -787 0
-763 -811 0
-787 -811 0
-740 -764 0
-740 -788 0
-740 -812 0
-764 -788 0
-764 -812 0
-788 -812 0
-741 -765 0
-741 -789 0
-741 -813 0
-765 -789 0
-765 -813 0
-789 -813 0
-742 -766 0
-742 -790 0
-742 -814 0
-766 -790 0
-766 -814 0
-790 -814 0
-743 -767 0
-743 -791 0
-743 -815 0
-767 -791 0
-767 -815 0
-791 -815 0
-744 -768 0
-744 -792 0
-744 -816 0
-768 -792 0
-768 -816 0
-792 -816 0
-745 -769 0
-745 -793 0
-745 -817 0
-769 -793 0
-769 -817 0
-793 -817 0
-746 -770 0
-746 -794 0
-746 -818 0
-770 -794 0
-770 -818 0
-794 -818 0
-747 -771 0
-747 -795 0
-747 -819 0
-771 -795 0
-771 -819 0
-795 -819 0
-748 -772 0
-748 -796 0
-748 -820 0
-772 -796 0
-772 -820 0
-796 -820 0
-749 -773 0
-749 -797 0
-749 -821 0
-773 -797 0
-773 -821 0
-797 -821 0
-750 -774 0
-750 -798 0
-750 -822 0
-774 -798 0
-774 -822 0
-798 -822 0
-106 -208 751 775 799 0
-106 -209 757 781 805 0
-106 -210 763 787 811 0
-107 -208 752 776 800 0
-107 -209 758 782 806 0
-107 -210 764 788 812 0
-108 -208 753 777 801 0
-108 -209 759 783 807 0
-108 -210 765 789 813 0
-109 -208 754 778 802 0
-109 -209 760 784 808 0
-109 -210 766 790 814 0
-110 -208 755 779 803 0
-110 -209 761 785 809 0
-110 -210 767 791 815 0
-111 -208 756 780 804 0
-111 -209 762 786 810 0
-111 -210 768 792 816 0
-112 -212 727 775 799 0
-112 -213 733 781 805 0
-112 -214 739 787 811 0
-113 -212 728 776 800 0
-113 -213 734 782 806 0
-113 -214 740 788 812 0
-114 -212 729 777 801 0
-114 -213 735 783 807 0
-114 -214 741 789 813 0
-115 -212 730 778 802 0
-115 -213 736 784 808 0
-115 -214 742 790 814 0
-116 -212 731 779 803 0
-116 -213 737 785 809 0
-116 -214 743 791 815 0
-117 -212 732 780 804 0
-117 -213 738 786 810 0
-117 -214 744 792 816 0
-118 -216 727 751 799 728 752 800 0
-118 -217 733 757 805 734 758 806 0
-118 -218 739 763 811 740 764 812 0
-119 -216 728 752 800 729 753 801 0
-119 -217 734 758 806 735 759 807 0
-119 -218 740 764 812 741 765 813 0
-120 -216 729 753 801 730 754 802 0
-120 -217 735 759 807 736 760 808 0
-120 -218 741 765 813 742 766 814 0
-121 -216 730 754 802 731 755 803 0
-121 -217 736 760 808 737 761 809 0
-121 -218 742 766 814 743 767 815 0
-122 -216 731 755 803 732 756 804 0
-122 -217 737 761 809 738 762 810 0
-122 -218 743 767 815 744 768 816 0
-123 -220 727 751 775 728 752 776 0
-123 -220 727 751 775 729 753 777 0
-123 -220 728 752 776 729 753 777 0
-123 -221 733 757 781 734 758 782 0
-123 -221 733 757 781 735 759 783 0
-123 -221 734 758 782 735 759 783 0
-123 -222 739 763 787 740 764 788 0
-123 -222 739 763 787 741 765 789 0
-123 -222 740 764 788 741 765 789 0
-124 -220 728 752 776 729 753 777 0
-124 -220 728 752 776 730 754 778 0
-124 -220 729 753 777 730 754 778 0
-124 -221 734 758 782 735 759 783 0
-124 -221 734 758 782 736 760 784 0
-124 -221 735 759 783 736 760 784 0
-124 -222 740 764 788 741 765 789 0
-124 -222 740 764 788 742 766 790 0
-124 -222 741 765 789 742 766 790 0
-125 -220 729 753 777 730 754 778 0
-125 -220 729 753 777 731 755 779 0
-125 -220 730 754 778 731 755 779 0
-125 -221 735 759 783 736 760 784 0
-125 -221 735 759 783 737 761 785 0
-125 -221 736 760 784 737 761 785 0
-125 -222 741 765 789 742 766 790 0
-125 -222 741 765 789 743 767 791 0
-125 -222 742 766 790 743 767 791 0
-126 -220 730 754 778 731 755 779 0
-126 -220 730 754 778 732 756 780 0
-126 -220 731 755 779 732 756 780 0
-126 -221 736 760 784 737 761 785 0
-126 -221 736 760 784 738 762 786 0
-126 -221 737 761 785 738 762 786 0
-126 -222 742 766 790 743 767 791 0
-126 -222 742 766 790 744 768 792 0
-126 -222 743 767 791 744 768 792 0
-1369 727 733 739 745 0
-1369 -727 -757 0
-1369 -727 -781 0
-1369 -727 -805 0
-727 1369 757 781 805 0
-1369 -733 -763 0
-1369 -733 -787 0
-1369 -733 -811 0
-733 1369 763 787 811 0
-1369 -739 -769 0
-1369 -739 -793 0
-1369 -739 -817 0
-739 1369 769 793 817 0
-745 1369 0
-1370 728 734 740 746 0
-1370 -728 -758 0
-1370 -728 -782 0
-1370 -728 -806 0
-728 1370 758 782 806 0
-1370 -734 -764 0
-1370 -734 -788 0
-1370 -734 -812 0
-734 1370 764 788 812 0
-1370 -740 -770 0
-1370 -740 -794 0
-1370 -740 -818 0
-740 1370 770 794 818 0
-746 1370 0
-1371 729 735 741 747 0
-1371 -729 -759 0
-1371 -729 -783 0
-1371 -729 -807 0
-729 1371 759 783 807 0
-1371 -735 -765 0
-1371 -735 -789 0
-1371 -735 -813 0
-735 1371 765 789 813 0
-1371 -741 -771 0
-1371 -741 -795 0
-1371 -741 -819 0
-741 1371 771 795 819 0
-747 1371 0
-1372 730 736 742 748 0
-1372 -730 -760 0
-1372 -730 -784 0
-1372 -730 -808 0
-730 1372 760 784 808 0
-1372 -736 -766 0
-1372 -736 -790 0
-1372 -736 -814 0
-736 1372 766 790 814 0
-1372 -742 -772 0
-1372 -742 -796 0
-1372 -742 -820 0
-742 1372 772 796 820 0
-748 1372 0
-1373 731 737 743 749 0
-1373 -731 -761 0
-1373 -731 -785 0
-1373 -731 -809 0
-731 1373 761 785 809 0
-1373 -737 -767 0
-1373 -737 -791 0
-1373 -737 -815 0
-737 1373 767 791 815 0
-1373 -743 -773 0
-1373 -743 -797 0
-1373 -743 -821 0
-743 1373 773 797 821 0
-749 1373 0
-1374 732 738 744 750 0
-1374 -732 -762 0
-1374 -732 -786 0
-1374 -732 -810 0
-732 1374 762 786 810 0
-1374 -738 -768 0
-1374 -738 -792 0
-1374 -738 -816 0
-738 1374 768 792 816 0
-1374 -744 -774 0
-1374 -744 -798 0
-1374 -744 -822 0
-744 1374 774 798 822 0
-750 1374 0
-1375 751 757 763 769 0
-1375 -751 -733 0
-1375 -751 -781 0
-1375 -751 -805 0
-751 1375 733 781 805 0
-1375 -757 -739 0
-1375 -757 -787 0
-1375 -757 -811 0
-757 1375 739 787 811 0
-1375 -763 -745 0
-1375 -763 -793 0
-1375 -763 -817 0
-763 1375 745 793 817 0
-769 1375 0
-1376 752 758 764 770 0
-1376 -752 -734 0
-1376 -752 -782 0
-1376 -752 -806 0
-752 1376 734 782 806 0
-1376 -758 -740 0
-1376 -758 -788 0
-1376 -758 -812 0
-758 1376 740 788 812 0
-1376 -764 -746 0
-1376 -764 -794 0
-1376 -764 -818 0
-764 1376 746 794 818 0
-770 1376 0
-1377 753 759 765 771 0
-1377 -753 -735 0
-1377 -753 -783 0
-1377 -753 -807 0
-753 1377 735 783 807 0
-1377 -759 -741 0
-1377 -759 -789 0
-1377 -759 -813 0
-759 1377 741 789 813 0
-1377 -765 -747 0
-1377 -765 -795 0
-1377 -765 -819 0
-765 1377 747 795 819 0
-771 1377 0
-1378 754 760 766 772 0
-1378 -754 -736 0
-1378 -754 -784 0
-1378 -754 -808 0
-754 1378 736 784 808 0
-1378 -760 -742 0
-1378 -760 -790 0
-1378 -760 -814 0
-760 1378 742 790 814 0
-1378 -766 -748 0
-1378 -766 -796 0
-1378 -766 -820 0
-766 1378 748 796 820 0
-772 1378 0
-1379 755 761 767 773 0
-1379 -755 -737 0
-1379 -755 -785 0
-1379 -755 -809 0
-755 1379 737 785 809 0
-1379 -761 -743 0
-1379 -761 -791 0
-1379 -761 -815 0
-761 1379 743 791 815 0
-1379 -767 -749 0
-1379 -767 -797 0
-1379 -767 -821 0
-767 1379 749 797 821 0
-773 1379 0
-1380 756 762 768 774 0
-1380 -756 -738 0
-1380 -756 -786 0
-1380 -756 -810 0
-756 1380 738 786 810 0
-1380 -762 -744 0
-1380 -762 -792 0
-1380 -762 -816 0
-762 1380 744 792 816 0
-1380 -768 -750 0
-1380 -768 -798 0
-1380 -768 -822 0
-768 1380 750 798 822 0
-774 1380 0
-1381 775 781 787 793 0
-1381 -775 -733 0
-1381 -775 -757 0
-1381 -775 -805 0
-775 1381 733 757 805 0
-1381 -781 -739 0
-1381 -781 -763 0
-1381 -781 -811 0
-781 1381 739 763 811 0
-1381 -787 -745 0
-1381 -787 -769 0
-1381 -787 -817 0
-787 1381 745 769 817 0
-793 1381 0
-1382 776 782 788 794 0
-1382 -776 -734 0
-1382 -776 -758 0
-1382 -776 -806 0
-776 1382 734 758 806 0
-1382 -782 -740 0
-1382 -782 -764 0
-1382 -782 -812 0
-782 1382 740 764 812 0
-1382 -788 -746 0
-1382 -788 -770 0
-1382 -788 -818 0
-788 1382 746 770 818 0
-794 1382 0
-1383 777 783 789 795 0
-1383 -777 -735 0
-1383 -777 -759 0
-1383 -777 -807 0
-777 1383 735 759 807 0
-1383 -783 -741 0
-1383 -783 -765 0
-1383 -783 -813 0
-783 1383 741 765 813 0
-1383 -789 -747 0
-1383 -789 -771 0
-1383 -789 -819 0
-789 1383 747 771 819 0
-795 1383 0
-1384 778 784 790 796 0
-1384 -778 -736 0
-1384 -778 -760 0
-1384 -778 -808 0
-778 1384 736 760 808 0
-1384 -784 -742 0
-1384 -784 -766 0
-1384 -784 -814 0
-784 1384 742 766 814 0
-1384 -790 -748 0
-1384 -790 -772 0
-1384 -790 -820 0
-790 1384 748 772 820 0
-796 1384 0
-1385 779 785 791 797 0
-1385 -779 -737 0
-1385 -779 -761 0
-1385 -779 -809 0
-779 1385 737 761 809 0
-1385 -785 -743 0
-1385 -785 -767 0
-1385 -785 -815 0
-785 1385 743 767 815 0
-1385 -791 -749 0
-1385 -791 -773 0
-1385 -791 -821 0
-791 1385 749 773 821 0
-797 1385 0
-1386 780 786 792 798 0
-1386 -780 -738 0
-1386 -780 -762 0
-1386 -780 -810 0
-780 1386 738 762 810 0
-1386 -786 -744 0
-1386 -786 -768 0
-1386 -786 -816 0
-786 1386 744 768 816 0
-1386 -792 -750 0
-1386 -792 -774 0
-1386 -792 -822 0
-792 1386 750 774 822 0
-798 1386 0
-1387 799 805 811 817 0
-1387 -799 -733 0
-1387 -799 -757 0
-1387 -799 -781 0
-799 1387 733 757 781 0
-1387 -805 -739 0
-1387 -805 -763 0
-1387 -805 -787 0
-805 1387 739 763 787 0
-1387 -811 -745 0
-1387 -811 -769 0
-1387 -811 -793 0
-811 1387 745 769 793 0
-817 1387 0
-1388 800 806 812 818 0
-1388 -800 -734 0
-1388 -800 -758 0
-1388 -800 -782 0
-800 1388 734 758 782 0
-1388 -806 -740 0
-1388 -806 -764 0
-1388 -806 -788 0
-806 1388 740 764 788 0
-1388 -812 -746 0
-1388 -812 -770 0
-1388 -812 -794 0
-812 1388 746 770 794 0
-818 1388 0
-1389 801 807 813 819 0
-1389 -801 -735 0
-1389 -801 -759 0
-1389 -801 -783 0
-801 1389 735 759 783 0
-1389 -807 -741 0
-1389 -807 -765 0
-1389 -807 -789 0
-807 1389 741 765 789 0
-1389 -813 -747 0
-1389 -813 -771 0
-1389 -813 -795 0
-813 1389 747 771 795 0
-819 1389 0
-1390 802 808 814 820 0
-1390 -802 -736 0
-1390 -802 -760 0
-1390 -802 -784 0
-802 1390 736 760 784 0
-1390 -808 -742 0
-1390 -808 -766 0
-1390 -808 -790 0
-808 1390 742 766 790 0
-1390 -814 -748 0
-1390 -814 -772 0
-1390 -814 -796 0
-814 1390 748 772 796 0
-820 1390 0
-1391 803 809 815 821 0
-1391 -803 -737 0
-1391 -803 -761 0
-1391 -803 -785 0
-803 1391 737 761 785 0
-1391 -809 -743 0
-1391 -809 -767 0
-1391 -809 -791 0
-809 1391 743 767 791 0
-1391 -815 -749 0
-1391 -815 -773 0
-1391 -815 -797 0
-815 1391 749 773 797 0
-821 1391 0
-1392 804 810 816 822 0
-1392 -804 -738 0
-1392 -804 -762 0
-1392 -804 -786 0
-804 1392 738 762 786 0
-1392 -810 -744 0
-1392 -810 -768 0
-1392 -810 -792 0
-810 1392 744 768 792 0
-1392 -816 -750 0
-1392 -816 -774 0
-1392 -816 -798 0
-816 1392 750 774 798 0
-822 1392 0
-243 -727 1369 0
-243 -733 1369 0
-243 -739 1369 0
-243 -745 1369 0
-243 -728 1370 0
-243 -734 1370 0
-243 -740 1370 0
-243 -746 1370 0
-243 -729 1371 0
-243 -735 1371 0
-243 -741 1371 0
-243 -747 1371 0
-243 -730 1372 0
-243 -736 1372 0
-243 -742 1372 0
-243 -748 1372 0
-243 -731 1373 0
-243 -737 1373 0
-243 -743 1373 0
-243 -749 1373 0
-243 -732 1374 0
-243 -738 1374 0
-243 -744 1374 0
-243 -750 1374 0
-106 243 -1369 0
-107 243 -1370 0
-108 243 -1371 0
-109 243 -1372 0
-110 243 -1373 0
-111 243 -1374 0
-244 -751 1375 0
-244 -757 1375 0
-244 -763 1375 0
-244 -769 1375 0
-244 -752 1376 0
-244 -758 1376 0
-244 -764 1376 0
-244 -770 1376 0
-244 -753 1377 0
-244 -759 1377 0
-244 -765 1377 0
-244 -771 1377 0
-244 -754 1378 0
-244 -760 1378 0
-244 -766 1378 0
-244 -772 1378 0
-244 -755 1379 0
-244 -761 1379 0
-244 -767 1379 0
-244 -773 1379 0
-244 -756 1380 0
-244 -762 1380 0
-244 -768 1380 0
-244 -774 1380 0
-112 244 -1375 0
-113 244 -1376 0
-114 244 -1377 0
-115 244 -1378 0
-116 244 -1379 0
-117 244 -1380 0
-245 -775 1381 0
-245 -781 1381 0
-245 -787 1381 0
-245 -793 1381 0
-245 -776 1382 0
-245 -782 1382 0
-245 -788 1382 0
-245 -794 1382 0
-245 -777 1383 0
-245 -783 1383 0
-245 -789 1383 0
-245 -795 1383 0
-245 -778 1384 0
-245 -784 1384 0
-245 -790 1384 0
-245 -796 1384 0
-245 -779 1385 0
-245 -785 1385 0
-245 -791 1385 0
-245 -797 1385 0
-245 -780 1386 0
-245 -786 1386 0
-245 -792 1386 0
-245 -798 1386 0
-118 245 -1381 -1382 0
-119 245 -1382 -1383 0
-120 245 -1383 -1384 0
-121 245 -1384 -1385 0
-122 245 -1385 -1386 0
-246 -799 1387 0
-246 -805 1387 0
-246 -811 1387 0
-246 -817 1387 0
-246 -800 1388 0
-246 -806 1388 0
-246 -812 1388 0
-246 -818 1388 0
-246 -801 1389 0
-246 -807 1389 0
-246 -813 1389 0
-246 -819 1389 0
-246 -802 1390 0
-246 -808 1390 0
-246 -814 1390 0
-246 -820 1390 0
-246 -803 1391 0
-246 -809 1391 0
-246 -815 1391 0
-246 -821 1391 0
-246 -804 1392 0
-246 -810 1392 0
-246 -816 1392 0
-246 -822 1392 0
-123 246 -1387 -1388 -1389 0
-124 246 -1388 -1389 -1390 0
-125 246 -1389 -1390 -1391 0
-126 246 -1390 -1391 -1392 0
-823 223 0
-823 -1 -131 -128 0
-823 -1 -132 -129 0
-823 -1 -133 -130 0
-823 7 0
-823 -7 -131 1255 253 0
-823 -7 -132 1255 259 0
-823 -7 -133 1255 265 0
-823 -131 -277 0
-823 -131 -301 0
-823 -131 -325 0
-823 -131 -283 0
-823 -131 -307 0
-823 -131 -331 0
-823 -131 -289 0
-823 -131 -313 0
-823 -131 -337 0
-823 -132 -283 0
-823 -132 -307 0
-823 -132 -331 0
-823 -132 -289 0
-823 -132 -313 0
-823 -132 -337 0
-823 -133 -289 0
-823 -133 -313 0
-823 -133 -337 0
-823 -134 0
-823 22 0
-823 -131 144 0
-823 -132 145 0
-823 -133 146 0
-823 -228 0
-824 223 0
-824 -2 -131 -128 0
-824 -2 -132 -129 0
-824 -2 -133 -130 0
-824 8 0
-824 -8 -131 1256 254 0
-824 -8 -132 1256 260 0
-824 -8 -133 1256 266 0
-824 -131 -278 0
-824 -131 -302 0
-824 -131 -326 0
-824 -131 -284 0
-824 -131 -308 0
-824 -131 -332 0
-824 -131 -290 0
-824 -131 -314 0
-824 -131 -338 0
-824 -132 -284 0
-824 -132 -308 0
-824 -132 -332 0
-824 -132 -290 0
-824 -132 -314 0
-824 -132 -338 0
-824 -133 -290 0
-824 -133 -314 0
-824 -133 -338 0
-824 -134 0
-824 23 0
-824 -131 144 0
-824 -132 145 0
-824 -133 146 0
-824 -228 0
-825 223 0
-825 -3 -131 -128 0
-825 -3 -132 -129 0
-825 -3 -133 -130 0
-825 9 0
-825 -9 -131 1257 255 0
-825 -9 -132 1257 261 0
-825 -9 -133 1257 267 0
-825 -131 -279 0
-825 -131 -303 0
-825 -131 -327 0
-825 -131 -285 0
-825 -131 -309 0
-825 -131 -333 0
-825 -131 -291 0
-825 -131 -315 0
-825 -131 -339 0
-825 -132 -285 0
-825 -132 -309 0
-825 -132 -333 0
-825 -132 -291 0
-825 -132 -315 0
-825 -132 -339 0
-825 -133 -291 0
-825 -133 -315 0
-825 -133 -339 0
-825 -134 0
-825 24 0
-825 -131 144 0
-825 -132 145 0
-825 -133 146 0
-825 -228 0
-826 223 0
-826 -4 -131 -128 0
-826 -4 -132 -129 0
-826 -4 -133 -130 0
-826 10 0
-826 -10 -131 1258 256 0
-826 -10 -132 1258 262 0
-826 -10 -133 1258 268 0
-826 -131 -280 0
-826 -131 -304 0
-826 -131 -328 0
-826 -131 -286 0
-826 -131 -310 0
-826 -131 -334 0
-826 -131 -292 0
-826 -131 -316 0
-826 -131 -340 0
-826 -132 -286 0
-826 -132 -310 0
-826 -132 -334 0
-826 -132 -292 0
-826 -132 -316 0
-826 -132 -340 0
-826 -133 -292 0
-826 -133 -316 0
-826 -133 -340 0
-826 -134 0
-826 25 0
-826 -131 144 0
-826 -132 145 0
-826 -133 146 0
-826 -228 0
-827 223 0
-827 -5 -131 -128 0
-827 -5 -132 -129 0
-827 -5 -133 -130 0
-827 11 0
-827 -11 -131 1259 257 0
-827 -11 -132 1259 263 0
-827 -11 -133 1259 269 0
-827 -131 -281 0
-827 -131 -305 0
-827 -131 -329 0
-827 -131 -287 0
-827 -131 -311 0
-827 -131 -335 0
-827 -131 -293 0
-827 -131 -317 0
-827 -131 -341 0
-827 -132 -287 0
-827 -132 -311 0
-827 -132 -335 0
-827 -132 -293 0
-827 -132 -317 0
-827 -132 -341 0
-827 -133 -293 0
-827 -133 -317 0
-827 -133 -341 0
-827 -134 0
-827 26 0
-827 -131 144 0
-827 -132 145 0
-827 -133 146 0
-827 -228 0
-828 223 0
-828 -6 -131 -128 0
-828 -6 -132 -129 0
-828 -6 -133 -130 0
-828 12 0
-828 -12 -131 1260 258 0
-828 -12 -132 1260 264 0
-828 -12 -133 1260 270 0
-828 -131 -282 0
-828 -131 -306 0
-828 -131 -330 0
-828 -131 -288 0
-828 -131 -312 0
-828 -131 -336 0
-828 -131 -294 0
-828 -131 -318 0
-828 -131 -342 0
-828 -132 -288 0
-828 -132 -312 0
-828 -132 -336 0
-828 -132 -294 0
-828 -132 -318 0
-828 -132 -342 0
-828 -133 -294 0
-828 -133 -318 0
-828 -133 -342 0
-828 -134 0
-828 27 0
-828 -131 144 0
-828 -132 145 0
-828 -133 146 0
-828 -228 0
-829 223 0
-829 -1 -135 -128 0
-829 -1 -136 -129 0
-829 -1 -137 -130 0
-829 13 0
-829 -13 -135 1261 253 0
-829 -13 -136 1261 259 0
-829 -13 -137 1261 265 0
-829 -135 -277 0
-829 -135 -301 0
-829 -135 -325 0
-829 -135 -283 0
-829 -135 -307 0
-829 -135 -331 0
-829 -135 -289 0
-829 -135 -313 0
-829 -135 -337 0
-829 -136 -283 0
-829 -136 -307 0
-829 -136 -331 0
-829 -136 -289 0
-829 -136 -313 0
-829 -136 -337 0
-829 -137 -289 0
-829 -137 -313 0
-829 -137 -337 0
-829 -138 0
-829 22 0
-829 -135 144 0
-829 -136 145 0
-829 -137 146 0
-829 -229 0
-830 223 0
-830 -2 -135 -128 0
-830 -2 -136 -129 0
-830 -2 -137 -130 0
-830 13 14 0
-830 -13 -135 1262 254 0
-830 -13 -136 1262 260 0
-830 -13 -137 1262 266 0
-830 -14 -135 1262 254 0
-830 -14 -136 1262 260 0
-830 -14 -137 1262 266 0
-830 -135 -278 0
-830 -135 -302 0
-830 -135 -326 0
-830 -135 -284 0
-830 -135 -308 0
-830 -135 -332 0
-830 -135 -290 0
-830 -135 -314 0
-830 -135 -338 0
-830 -136 -284 0
-830 -136 -308 0
-830 -136 -332 0
-830 -136 -290 0
-830 -136 -314 0
-830 -136 -338 0
-830 -137 -290 0
-830 -137 -314 0
-830 -137 -338 0
-830 -138 0
-830 23 0
-830 -135 144 0
-830 -136 145 0
-830 -137 146 0
-830 -229 0
-831 223 0
-831 -3 -135 -128 0
-831 -3 -136 -129 0
-831 -3 -137 -130 0
-831 14 15 0
-831 -14 -135 1263 255 0
-831 -14 -136 1263 261 0
-831 -14 -137 1263 267 0
-831 -15 -135 1263 255 0
-831 -15 -136 1263 261 0
-831 -15 -137 1263 267 0
-831 -135 -279 0
-831 -135 -303 0
-831 -135 -327 0
-831 -135 -285 0
-831 -135 -309 0
-831 -135 -333 0
-831 -135 -291 0
-831 -135 -315 0
-831 -135 -339 0
-831 -136 -285 0
-831 -136 -309 0
-831 -136 -333 0
-831 -136 -291 0
-831 -136 -315 0
-831 -136 -339 0
-831 -137 -291 0
-831 -137 -315 0
-831 -137 -339 0
-831 -138 0
-831 24 0
-831 -135 144 0
-831 -136 145 0
-831 -137 146 0
-831 -229 0
-832 223 0
-832 -4 -135 -128 0
-832 -4 -136 -129 0
-832 -4 -137 -130 0
-832 15 16 0
-832 -15 -135 1264 256 0
-832 -15 -136 1264 262 0
-832 -15 -137 1264 268 0
-832 -16 -135 1264 256 0
-832 -16 -136 1264 262 0
-832 -16 -137 1264 268 0
-832 -135 -280 0
-832 -135 -304 0
-832 -135 -328 0
-832 -135 -286 0
-832 -135 -310 0
-832 -135 -334 0
-832 -135 -292 0
-832 -135 -316 0
-832 -135 -340 0
-832 -136 -286 0
-832 -136 -310 0
-832 -136 -334 0
-832 -136 -292 0
-832 -136 -316 0
-832 -136 -340 0
-832 -137 -292 0
-832 -137 -316 0
-832 -137 -340 0
-832 -138 0
-832 25 0
-832 -135 144 0
-832 -136 145 0
-832 -137 146 0
-832 -229 0
-833 223 0
-833 -5 -135 -128 0
-833 -5 -136 -129 0
-833 -5 -137 -130 0
-833 16 17 0
-833 -16 -135 1265 257 0
-833 -16 -136 1265 263 0
-833 -16 -137 1265 269 0
-833 -17 -135 1265 257 0
-833 -17 -136 1265 263 0
-833 -17 -137 1265 269 0
-833 -135 -281 0
-833 -135 -305 0
-833 -135 -329 0
-833 -135 -287 0
-833 -135 -311 0
-833 -135 -335 0
-833 -135 -293 0
-833 -135 -317 0
-833 -135 -341 0
-833 -136 -287 0
-833 -136 -311 0
-833 -136 -335 0
-833 -136 -293 0
-833 -136 -317 0
-833 -136 -341 0
-833 -137 -293 0
-833 -137 -317 0
-833 -137 -341 0
-833 -138 0
-833 26 0
-833 -135 144 0
-833 -136 145 0
-833 -137 146 0
-833 -229 0
-834 223 0
-834 -6 -135 -128 0
-834 -6 -136 -129 0
-834 -6 -137 -130 0
-834 17 0
-834 -17 -135 1266 258 0
-834 -17 -136 1266 264 0
-834 -17 -137 1266 270 0
-834 -135 -282 0
-834 -135 -306 0
-834 -135 -330 0
-834 -135 -288 0
-834 -135 -312 0
-834 -135 -336 0
-834 -135 -294 0
-834 -135 -318 0
-834 -135 -342 0
-834 -136 -288 0
-834 -136 -312 0
-834 -136 -336 0
-834 -136 -294 0
-834 -136 -318 0
-834 -136 -342 0
-834 -137 -294 0
-834 -137 -318 0
-834 -137 -342 0
-834 -138 0
-834 27 0
-834 -135 144 0
-834 -136 145 0
-834 -137 146 0
-834 -229 0
-835 223 0
-835 -1 -139 -128 0
-835 -1 -140 -129 0
-835 -1 -141 -130 0
-835 18 0
-835 -18 -139 1267 253 0
-835 -18 -140 1267 259 0
-835 -18 -141 1267 265 0
-835 -139 -277 0
-835 -139 -301 0
-835 -139 -325 0
-835 -139 -283 0
-835 -139 -307 0
-835 -139 -331 0
-835 -139 -289 0
-835 -139 -313 0
-835 -139 -337 0
-835 -140 -283 0
-835 -140 -307 0
-835 -140 -331 0
-835 -140 -289 0
-835 -140 -313 0
-835 -140 -337 0
-835 -141 -289 0
-835 -141 -313 0
-835 -141 -337 0
-835 -142 0
-835 22 0
-835 -139 144 0
-835 -140 145 0
-835 -141 146 0
-835 -230 0
-836 223 0
-836 -2 -139 -128 0
-836 -2 -140 -129 0
-836 -2 -141 -130 0
-836 18 19 0
-836 -18 -139 1268 254 0
-836 -18 -140 1268 260 0
-836 -18 -141 1268 266 0
-836 -19 -139 1268 254 0
-836 -19 -140 1268 260 0
-836 -19 -141 1268 266 0
-836 -139 -278 0
-836 -139 -302 0
-836 -139 -326 0
-836 -139 -284 0
-836 -139 -308 0
-836 -139 -332 0
-836 -139 -290 0
-836 -139 -314 0
-836 -139 -338 0
-836 -140 -284 0
-836 -140 -308 0
-836 -140 -332 0
-836 -140 -290 0
-836 -140 -314 0
-836 -140 -338 0
-836 -141 -290 0
-836 -141 -314 0
-836 -141 -338 0
-836 -142 0
-836 23 0
-836 -139 144 0
-836 -140 145 0
-836 -141 146 0
-836 -230 0
-837 223 0
-837 -3 -139 -128 0
-837 -3 -140 -129 0
-837 -3 -141 -130 0
-837 18 19 20 0
-837 -18 -139 1269 255 0
-837 -18 -140 1269 261 0
-837 -18 -141 1269 267 0
-837 -19 -139 1269 255 0
-837 -19 -140 1269 261 0
-837 -19 -141 1269 267 0
-837 -20 -139 1269 255 0
-837 -20 -140 1269 261 0
-837 -20 -141 1269 267 0
-837 -139 -279 0
-837 -139 -303 0
-837 -139 -327 0
-837 -139 -285 0
-837 -139 -309 0
-837 -139 -333 0
-837 -139 -291 0
-837 -139 -315 0
-837 -139 -339 0
-837 -140 -285 0
-837 -140 -309 0
-837 -140 -333 0
-837 -140 -291 0
-837 -140 -315 0
-837 -140 -339 0
-837 -141 -291 0
-837 -141 -315 0
-837 -141 -339 0
-837 -142 0
-837 24 0
-837 -139 144 0
-837 -140 145 0
-837 -141 146 0
-837 -230 0
-838 223 0
-838 -4 -139 -128 0
-838 -4 -140 -129 0
-838 -4 -141 -130 0
-838 19 20 21 0
-838 -19 -139 1270 256 0
-838 -19 -140 1270 262 0
-838 -19 -141 1270 268 0
-838 -20 -139 1270 256 0
-838 -20 -140 1270 262 0
-838 -20 -141 1270 268 0
-838 -21 -139 1270 256 0
-838 -21 -140 1270 262 0
-838 -21 -141 1270 268 0
-838 -139 -280 0
-838 -139 -304 0
-838 -139 -328 0
-838 -139 -286 0
-838 -139 -310 0
-838 -139 -334 0
-838 -139 -292 0
-838 -139 -316 0
-838 -139 -340 0
-838 -140 -286 0
-838 -140 -310 0
-838 -140 -334 0
-838 -140 -292 0
-838 -140 -316 0
-838 -140 -340 0
-838 -141 -292 0
-838 -141 -316 0
-838 -141 -340 0
-838 -142 0
-838 25 0
-838 -139 144 0
-838 -140 145 0
-838 -141 146 0
-838 -230 0
-839 223 0
-839 -5 -139 -128 0
-839 -5 -140 -129 0
-839 -5 -141 -130 0
-839 20 21 0
-839 -20 -139 1271 257 0
-839 -20 -140 1271 263 0
-839 -20 -141 1271 269 0
-839 -21 -139 1271 257 0
-839 -21 -140 1271 263 0
-839 -21 -141 1271 269 0
-839 -139 -281 0
-839 -139 -305 0
-839 -139 -329 0
-839 -139 -287 0
-839 -139 -311 0
-839 -139 -335 0
-839 -139 -293 0
-839 -139 -317 0
-839 -139 -341 0
-839 -140 -287 0
-839 -140 -311 0
-839 -140 -335 0
-839 -140 -293 0
-839 -140 -317 0
-839 -140 -341 0
-839 -141 -293 0
-839 -141 -317 0
-839 -141 -341 0
-839 -142 0
-839 26 0
-839 -139 144 0
-839 -140 145 0
-839 -141 146 0
-839 -230 0
-840 223 0
-840 -6 -139 -128 0
-840 -6 -140 -129 0
-840 -6 -141 -130 0
-840 21 0
-840 -21 -139 1272 258 0
-840 -21 -140 1272 264 0
-840 -21 -141 1272 270 0
-840 -139 -282 0
-840 -139 -306 0
-840 -139 -330 0
-840 -139 -288 0
-840 -139 -312 0
-840 -139 -336 0
-840 -139 -294 0
-840 -139 -318 0
-840 -139 -342 0
-840 -140 -288 0
-840 -140 -312 0
-840 -140 -336 0
-840 -140 -294 0
-840 -140 -318 0
-840 -140 -342 0
-840 -141 -294 0
-840 -141 -318 0
-840 -141 -342 0
-840 -142 0
-840 27 0
-840 -139 144 0
-840 -140 145 0
-840 -141 146 0
-840 -230 0
-841 223 0
-841 -1 -127 0
-841 -271 0
-841 -295 0
-841 -319 0
-841 -277 0
-841 -301 0
-841 -325 0
-841 -283 0
-841 -307 0
-841 -331 0
-841 -289 0
-841 -313 0
-841 -337 0
-841 22 0
-841 143 0
-842 223 0
-842 -2 -127 0
-842 -272 0
-842 -296 0
-842 -320 0
-842 -278 0
-842 -302 0
-842 -326 0
-842 -284 0
-842 -308 0
-842 -332 0
-842 -290 0
-842 -314 0
-842 -338 0
-842 23 0
-842 143 0
-843 223 0
-843 -3 -127 0
-843 -273 0
-843 -297 0
-843 -321 0
-843 -279 0
-843 -303 0
-843 -327 0
-843 -285 0
-843 -309 0
-843 -333 0
-843 -291 0
-843 -315 0
-843 -339 0
-843 24 0
-843 143 0
-844 223 0
-844 -4 -127 0
-844 -274 0
-844 -298 0
-844 -322 0
-844 -280 0
-844 -304 0
-844 -328 0
-844 -286 0
-844 -310 0
-844 -334 0
-844 -292 0
-844 -316 0
-844 -340 0
-844 25 0
-844 143 0
-845 223 0
-845 -5 -127 0
-845 -275 0
-845 -299 0
-845 -323 0
-845 -281 0
-845 -305 0
-845 -329 0
-845 -287 0
-845 -311 0
-845 -335 0
-845 -293 0
-845 -317 0
-845 -341 0
-845 26 0
-845 143 0
-846 223 0
-846 -6 -127 0
-846 -276 0
-846 -300 0
-846 -324 0
-846 -282 0
-846 -306 0
-846 -330 0
-846 -288 0
-846 -312 0
-846 -336 0
-846 -294 0
-846 -318 0
-846 -342 0
-846 27 0
-846 143 0
-847 224 0
-847 -7 -127 -132 0
-847 -7 -128 -133 0
-847 -7 -129 -134 0
-847 1 0
-847 -1 -127 1249 277 0
-847 -1 -128 1249 283 0
-847 -1 -129 1249 289 0
-847 -127 -253 0
-847 -127 -301 0
-847 -127 -325 0
-847 -127 -259 0
-847 -127 -307 0
-847 -127 -331 0
-847 -127 -265 0
-847 -127 -313 0
-847 -127 -337 0
-847 -128 -259 0
-847 -128 -307 0
-847 -128 -331 0
-847 -128 -265 0
-847 -128 -313 0
-847 -128 -337 0
-847 -129 -265 0
-847 -129 -313 0
-847 -129 -337 0
-847 -130 0
-847 28 0
-847 -127 148 0
-847 -128 149 0
-847 -129 150 0
-847 -227 0
-848 224 0
-848 -8 -127 -132 0
-848 -8 -128 -133 0
-848 -8 -129 -134 0
-848 2 0
-848 -2 -127 1250 278 0
-848 -2 -128 1250 284 0
-848 -2 -129 1250 290 0
-848 -127 -254 0
-848 -127 -302 0
-848 -127 -326 0
-848 -127 -260 0
-848 -127 -308 0
-848 -127 -332 0
-848 -127 -266 0
-848 -127 -314 0
-848 -127 -338 0
-848 -128 -260 0
-848 -128 -308 0
-848 -128 -332 0
-848 -128 -266 0
-848 -128 -314 0
-848 -128 -338 0
-848 -129 -266 0
-848 -129 -314 0
-848 -129 -338 0
-848 -130 0
-848 29 0
-848 -127 148 0
-848 -128 149 0
-848 -129 150 0
-848 -227 0
-849 224 0
-849 -9 -127 -132 0
-849 -9 -128 -133 0
-849 -9 -129 -134 0
-849 3 0
-849 -3 -127 1251 279 0
-849 -3 -128 1251 285 0
-849 -3 -129 1251 291 0
-849 -127 -255 0
-849 -127 -303 0
-849 -127 -327 0
-849 -127 -261 0
-849 -127 -309 0
-849 -127 -333 0
-849 -127 -267 0
-849 -127 -315 0
-849 -127 -339 0
-849 -128 -261 0
-849 -128 -309 0
-849 -128 -333 0
-849 -128 -267 0
-849 -128 -315 0
-849 -128 -339 0
-849 -129 -267 0
-849 -129 -315 0
-849 -129 -339 0
-849 -130 0
-849 30 0
-849 -127 148 0
-849 -128 149 0
-849 -129 150 0
-849 -227 0
-850 224 0
-850 -10 -127 -132 0
-850 -10 -128 -133 0
-850 -10 -129 -134 0
-850 4 0
-850 -4 -127 1252 280 0
-850 -4 -128 1252 286 0
-850 -4 -129 1252 292 0
-850 -127 -256 0
-850 -127 -304 0
-850 -127 -328 0
-850 -127 -262 0
-850 -127 -310 0
-850 -127 -334 0
-850 -127 -268 0
-850 -127 -316 0
-850 -127 -340 0
-850 -128 -262 0
-850 -128 -310 0
-850 -128 -334 0
-850 -128 -268 0
-850 -128 -316 0
-850 -128 -340 0
-850 -129 -268 0
-850 -129 -316 0
-850 -129 -340 0
-850 -130 0
-850 31 0
-850 -127 148 0
-850 -128 149 0
-850 -129 150 0
-850 -227 0
-851 224 0
-851 -11 -127 -132 0
-851 -11 -128 -133 0
-851 -11 -129 -134 0
-851 5 0
-851 -5 -127 1253 281 0
-851 -5 -128 1253 287 0
-851 -5 -129 1253 293 0
-851 -127 -257 0
-851 -127 -305 0
-851 -127 -329 0
-851 -127 -263 0
-851 -127 -311 0
-851 -127 -335 0
-851 -127 -269 0
-851 -127 -317 0
-851 -127 -341 0
-851 -128 -263 0
-851 -128 -311 0
-851 -128 -335 0
-851 -128 -269 0
-851 -128 -317 0
-851 -128 -341 0
-851 -129 -269 0
-851 -129 -317 0
-851 -129 -341 0
-851 -130 0
-851 32 0
-851 -127 148 0
-851 -128 149 0
-851 -129 150 0
-851 -227 0
-852 224 0
-852 -12 -127 -132 0
-852 -12 -128 -133 0
-852 -12 -129 -134 0
-852 6 0
-852 -6 -127 1254 282 0
-852 -6 -128 1254 288 0
-852 -6 -129 1254 294 0
-852 -127 -258 0
-852 -127 -306 0
-852 -127 -330 0
-852 -127 -264 0
-852 -127 -312 0
-852 -127 -336 0
-852 -127 -270 0
-852 -127 -318 0
-852 -127 -342 0
-852 -128 -264 0
-852 -128 -312 0
-852 -128 -336 0
-852 -128 -270 0
-852 -128 -318 0
-852 -128 -342 0
-852 -129 -270 0
-852 -129 -318 0
-852 -129 -342 0
-852 -130 0
-852 33 0
-852 -127 148 0
-852 -128 149 0
-852 -129 150 0
-852 -227 0
-853 224 0
-853 -7 -135 -132 0
-853 -7 -136 -133 0
-853 -7 -137 -134 0
-853 13 0
-853 -13 -135 1261 277 0
-853 -13 -136 1261 283 0
-853 -13 -137 1261 289 0
-853 -135 -253 0
-853 -135 -301 0
-853 -135 -325 0
-853 -135 -259 0
-853 -135 -307 0
-853 -135 -331 0
-853 -135 -265 0
-853 -135 -313 0
-853 -135 -337 0
-853 -136 -259 0
-853 -136 -307 0
-853 -136 -331 0
-853 -136 -265 0
-853 -136 -313 0
-853 -136 -337 0
-853 -137 -265 0
-853 -137 -313 0
-853 -137 -337 0
-853 -138 0
-853 28 0
-853 -135 148 0
-853 -136 149 0
-853 -137 150 0
-853 -229 0
-854 224 0
-854 -8 -135 -132 0
-854 -8 -136 -133 0
-854 -8 -137 -134 0
-854 13 14 0
-854 -13 -135 1262 278 0
-854 -13 -136 1262 284 0
-854 -13 -137 1262 290 0
-854 -14 -135 1262 278 0
-854 -14 -136 1262 284 0
-854 -14 -137 1262 290 0
-854 -135 -254 0
-854 -135 -302 0
-854 -135 -326 0
-854 -135 -260 0
-854 -135 -308 0
-854 -135 -332 0
-854 -135 -266 0
-854 -135 -314 0
-854 -135 -338 0
-854 -136 -260 0
-854 -136 -308 0
-854 -136 -332 0
-854 -136 -266 0
-854 -136 -314 0
-854 -136 -338 0
-854 -137 -266 0
-854 -137 -314 0
-854 -137 -338 0
-854 -138 0
-854 29 0
-854 -135 148 0
-854 -136 149 0
-854 -137 150 0
-854 -229 0
-855 224 0
-855 -9 -135 -132 0
-855 -9 -136 -133 0
-855 -9 -137 -134 0
-855 14 15 0
-855 -14 -135 1263 279 0
-855 -14 -136 1263 285 0
-855 -14 -137 1263 291 0
-855 -15 -135 1263 279 0
-855 -15 -136 1263 285 0
-855 -15 -137 1263 291 0
-855 -135 -255 0
-855 -135 -303 0
-855 -135 -327 0
-855 -135 -261 0
-855 -135 -309 0
-855 -135 -333 0
-855 -135 -267 0
-855 -135 -315 0
-855 -135 -339 0
-855 -136 -261 0
-855 -136 -309 0
-855 -136 -333 0
-855 -136 -267 0
-855 -136 -315 0
-855 -136 -339 0
-855 -137 -267 0
-855 -137 -315 0
-855 -137 -339 0
-855 -138 0
-855 30 0
-855 -135 148 0
-855 -136 149 0
-855 -137 150 0
-855 -229 0
-856 224 0
-856 -10 -135 -132 0
-856 -10 -136 -133 0
-856 -10 -137 -134 0
-856 15 16 0
-856 -15 -135 1264 280 0
-856 -15 -136 1264 286 0
-856 -15 -137 1264 292 0
-856 -16 -135 1264 280 0
-856 -16 -136 1264 286 0
-856 -16 -137 1264 292 0
-856 -135 -256 0
-856 -135 -304 0
-856 -135 -328 0
-856 -135 -262 0
-856 -135 -310 0
-856 -135 -334 0
-856 -135 -268 0
-856 -135 -316 0
-856 -135 -340 0
-856 -136 -262 0
-856 -136 -310 0
-856 -136 -334 0
-856 -136 -268 0
-856 -136 -316 0
-856 -136 -340 0
-856 -137 -268 0
-856 -137 -316 0
-856 -137 -340 0
-856 -138 0
-856 31 0
-856 -135 148 0
-856 -136 149 0
-856 -137 150 0
-856 -229 0
-857 224 0
-857 -11 -135 -132 0
-857 -11 -136 -133 0
-857 -11 -137 -134 0
-857 16 17 0
-857 -16 -135 1265 281 0
-857 -16 -136 1265 287 0
-857 -16 -137 1265 293 0
-857 -17 -135 1265 281 0
-857 -17 -136 1265 287 0
-857 -17 -137 1265 293 0
-857 -135 -257 0
-857 -135 -305 0
-857 -135 -329 0
-857 -135 -263 0
-857 -135 -311 0
-857 -135 -335 0
-857 -135 -269 0
-857 -135 -317 0
-857 -135 -341 0
-857 -136 -263 0
-857 -136 -311 0
-857 -136 -335 0
-857 -136 -269 0
-857 -136 -317 0
-857 -136 -341 0
-857 -137 -269 0
-857 -137 -317 0
-857 -137 -341 0
-857 -138 0
-857 32 0
-857 -135 148 0
-857 -136 149 0
-857 -137 150 0
-857 -229 0
-858 224 0
-858 -12 -135 -132 0
-858 -12 -136 -133 0
-858 -12 -137 -134 0
-858 17 0
-858 -17 -135 1266 282 0
-858 -17 -136 1266 288 0
-858 -17 -137 1266 294 0
-858 -135 -258 0
-858 -135 -306 0
-858 -135 -330 0
-858 -135 -264 0
-858 -135 -312 0
-858 -135 -336 0
-858 -135 -270 0
-858 -135 -318 0
-858 -135 -342 0
-858 -136 -264 0
-858 -136 -312 0
-858 -136 -336 0
-858 -136 -270 0
-858 -136 -318 0
-858 -136 -342 0
-858 -137 -270 0
-858 -137 -318 0
-858 -137 -342 0
-858 -138 0
-858 33 0
-858 -135 148 0
-858 -136 149 0
-858 -137 150 0
-858 -229 0
-859 224 0
-859 -7 -139 -132 0
-859 -7 -140 -133 0
-859 -7 -141 -134 0
-859 18 0
-859 -18 -139 1267 277 0
-859 -18 -140 1267 283 0
-859 -18 -141 1267 289 0
-859 -139 -253 0
-859 -139 -301 0
-859 -139 -325 0
-859 -139 -259 0
-859 -139 -307 0
-859 -139 -331 0
-859 -139 -265 0
-859 -139 -313 0
-859 -139 -337 0
-859 -140 -259 0
-859 -140 -307 0
-859 -140 -331 0
-859 -140 -265 0
-859 -140 -313 0
-859 -140 -337 0
-859 -141 -265 0
-859 -141 -313 0
-859 -141 -337 0
-859 -142 0
-859 28 0
-859 -139 148 0
-859 -140 149 0
-859 -141 150 0
-859 -230 0
-860 224 0
-860 -8 -139 -132 0
-860 -8 -140 -133 0
-860 -8 -141 -134 0
-860 18 19 0
-860 -18 -139 1268 278 0
-860 -18 -140 1268 284 0
-860 -18 -141 1268 290 0
-860 -19 -139 1268 278 0
-860 -19 -140 1268 284 0
-860 -19 -141 1268 290 0
-860 -139 -254 0
-860 -139 -302 0
-860 -139 -326 0
-860 -139 -260 0
-860 -139 -308 0
-860 -139 -332 0
-860 -139 -266 0
-860 -139 -314 0
-860 -139 -338 0
-860 -140 -260 0
-860 -140 -308 0
-860 -140 -332 0
-860 -140 -266 0
-860 -140 -314 0
-860 -140 -338 0
-860 -141 -266 0
-860 -141 -314 0
-860 -141 -338 0
-860 -142 0
-860 29 0
-860 -139 148 0
-860 -140 149 0
-860 -141 150 0
-860 -230 0
-861 224 0
-861 -9 -139 -132 0
-861 -9 -140 -133 0
-861 -9 -141 -134 0
-861 18 19 20 0
-861 -18 -139 1269 279 0
-861 -18 -140 1269 285 0
-861 -18 -141 1269 291 0
-861 -19 -139 1269 279 0
-861 -19 -140 1269 285 0
-861 -19 -141 1269 291 0
-861 -20 -139 1269 279 0
-861 -20 -140 1269 285 0
-861 -20 -141 1269 291 0
-861 -139 -255 0
-861 -139 -303 0
-861 -139 -327 0
-861 -139 -261 0
-861 -139 -309 0
-861 -139 -333 0
-861 -139 -267 0
-861 -139 -315 0
-861 -139 -339 0
-861 -140 -261 0
-861 -140 -309 0
-861 -140 -333 0
-861 -140 -267 0
-861 -140 -315 0
-861 -140 -339 0
-861 -141 -267 0
-861 -141 -315 0
-861 -141 -339 0
-861 -142 0
-861 30 0
-861 -139 148 0
-861 -140 149 0
-861 -141 150 0
-861 -230 0
-862 224 0
-862 -10 -139 -132 0
-862 -10 -140 -133 0
-862 -10 -141 -134 0
-862 19 20 21 0
-862 -19 -139 1270 280 0
-862 -19 -140 1270 286 0
-862 -19 -141 1270 292 0
-862 -20 -139 1270 280 0
-862 -20 -140 1270 286 0
-862 -20 -141 1270 292 0
-862 -21 -139 1270 280 0
-862 -21 -140 1270 286 0
-862 -21 -141 1270 292 0
-862 -139 -256 0
-862 -139 -304 0
-862 -139 -328 0
-862 -139 -262 0
-862 -139 -310 0
-862 -139 -334 0
-862 -139 -268 0
-862 -139 -316 0
-862 -139 -340 0
-862 -140 -262 0
-862 -140 -310 0
-862 -140 -334 0
-862 -140 -268 0
-862 -140 -316 0
-862 -140 -340 0
-862 -141 -268 0
-862 -141 -316 0
-862 -141 -340 0
-862 -142 0
-862 31 0
-862 -139 148 0
-862 -140 149 0
-862 -141 150 0
-862 -230 0
-863 224 0
-863 -11 -139 -132 0
-863 -11 -140 -133 0
-863 -11 -141 -134 0
-863 20 21 0
-863 -20 -139 1271 281 0
-863 -20 -140 1271 287 0
-863 -20 -141 1271 293 0
-863 -21 -139 1271 281 0
-863 -21 -140 1271 287 0
-863 -21 -141 1271 293 0
-863 -139 -257 0
-863 -139 -305 0
-863 -139 -329 0
-863 -139 -263 0
-863 -139 -311 0
-863 -139 -335 0
-863 -139 -269 0
-863 -139 -317 0
-863 -139 -341 0
-863 -140 -263 0
-863 -140 -311 0
-863 -140 -335 0
-863 -140 -269 0
-863 -140 -317 0
-863 -140 -341 0
-863 -141 -269 0
-863 -141 -317 0
-863 -141 -341 0
-863 -142 0
-863 32 0
-863 -139 148 0
-863 -140 149 0
-863 -141 150 0
-863 -230 0
-864 224 0
-864 -12 -139 -132 0
-864 -12 -140 -133 0
-864 -12 -141 -134 0
-864 21 0
-864 -21 -139 1272 282 0
-864 -21 -140 1272 288 0
-864 -21 -141 1272 294 0
-864 -139 -258 0
-864 -139 -306 0
-864 -139 -330 0
-864 -139 -264 0
-864 -139 -312 0
-864 -139 -336 0
-864 -139 -270 0
-864 -139 -318 0
-864 -139 -342 0
-864 -140 -264 0
-864 -140 -312 0
-864 -140 -336 0
-864 -140 -270 0
-864 -140 -318 0
-864 -140 -342 0
-864 -141 -270 0
-864 -141 -318 0
-864 -141 -342 0
-864 -142 0
-864 33 0
-864 -139 148 0
-864 -140 149 0
-864 -141 150 0
-864 -230 0
-865 224 0
-865 -7 -131 0
-865 -247 0
-865 -295 0
-865 -319 0
-865 -253 0
-865 -301 0
-865 -325 0
-865 -259 0
-865 -307 0
-865 -331 0
-865 -265 0
-865 -313 0
-865 -337 0
-865 28 0
-865 147 0
-866 224 0
-866 -8 -131 0
-866 -248 0
-866 -296 0
-866 -320 0
-866 -254 0
-866 -302 0
-866 -326 0
-866 -260 0
-866 -308 0
-866 -332 0
-866 -266 0
-866 -314 0
-866 -338 0
-866 29 0
-866 147 0
-867 224 0
-867 -9 -131 0
-867 -249 0
-867 -297 0
-867 -321 0
-867 -255 0
-867 -303 0
-867 -327 0
-867 -261 0
-867 -309 0
-867 -333 0
-867 -267 0
-867 -315 0
-867 -339 0
-867 30 0
-867 147 0
-868 224 0
-868 -10 -131 0
-868 -250 0
-868 -298 0
-868 -322 0
-868 -256 0
-868 -304 0
-868 -328 0
-868 -262 0
-868 -310 0
-868 -334 0
-868 -268 0
-868 -316 0
-868 -340 0
-868 31 0
-868 147 0
-869 224 0
-869 -11 -131 0
-869 -251 0
-869 -299 0
-869 -323 0
-869 -257 0
-869 -305 0
-869 -329 0
-869 -263 0
-869 -311 0
-869 -335 0
-869 -269 0
-869 -317 0
-869 -341 0
-869 32 0
-869 147 0
-870 224 0
-870 -12 -131 0
-870 -252 0
-870 -300 0
-870 -324 0
-870 -258 0
-870 -306 0
-870 -330 0
-870 -264 0
-870 -312 0
-870 -336 0
-870 -270 0
-870 -318 0
-870 -342 0
-870 33 0
-870 147 0
-871 225 0
-871 -13 -127 -136 0
-871 -13 -128 -137 0
-871 -13 -129 -138 0
-871 1 2 0
-871 -1 -127 1249 301 0
-871 -1 -128 1249 307 0
-871 -1 -129 1249 313 0
-871 -2 -127 1250 302 0
-871 -2 -128 1250 308 0
-871 -2 -129 1250 314 0
-871 -127 -253 0
-871 -127 -277 0
-871 -127 -325 0
-871 -127 -259 0
-871 -127 -283 0
-871 -127 -331 0
-871 -127 -265 0
-871 -127 -289 0
-871 -127 -337 0
-871 -127 -254 0
-871 -127 -278 0
-871 -127 -326 0
-871 -127 -260 0
-871 -127 -284 0
-871 -127 -332 0
-871 -127 -266 0
-871 -127 -290 0
-871 -127 -338 0
-871 -128 -259 0
-871 -128 -283 0
-871 -128 -331 0
-871 -128 -265 0
-871 -128 -289 0
-871 -128 -337 0
-871 -128 -260 0
-871 -128 -284 0
-871 -128 -332 0
-871 -128 -266 0
-871 -128 -290 0
-871 -128 -338 0
-871 -129 -265 0
-871 -129 -289 0
-871 -129 -337 0
-871 -129 -266 0
-871 -129 -290 0
-871 -129 -338 0
-871 -130 0
-871 34 0
-871 -127 152 0
-871 -128 153 0
-871 -129 154 0
-871 -227 0
-872 225 0
-872 -14 -127 -136 0
-872 -14 -128 -137 0
-872 -14 -129 -138 0
-872 2 3 0
-872 -2 -127 1250 302 0
-872 -2 -128 1250 308 0
-872 -2 -129 1250 314 0
-872 -3 -127 1251 303 0
-872 -3 -128 1251 309 0
-872 -3 -129 1251 315 0
-872 -127 -254 0
-872 -127 -278 0
-872 -127 -326 0
-872 -127 -260 0
-872 -127 -284 0
-872 -127 -332 0
-872 -127 -266 0
-872 -127 -290 0
-872 -127 -338 0
-872 -127 -255 0
-872 -127 -279 0
-872 -127 -327 0
-872 -127 -261 0
-872 -127 -285 0
-872 -127 -333 0
-872 -127 -267 0
-872 -127 -291 0
-872 -127 -339 0
-872 -128 -260 0
-872 -128 -284 0
-872 -128 -332 0
-872 -128 -266 0
-872 -128 -290 0
-872 -128 -338 0
-872 -128 -261 0
-872 -128 -285 0
-872 -128 -333 0
-872 -128 -267 0
-872 -128 -291 0
-872 -128 -339 0
-872 -129 -266 0
-872 -129 -290 0
-872 -129 -338 0
-872 -129 -267 0
-872 -129 -291 0
-872 -129 -339 0
-872 -130 0
-872 35 0
-872 -127 152 0
-872 -128 153 0
-872 -129 154 0
-872 -227 0
-873 225 0
-873 -15 -127 -136 0
-873 -15 -128 -137 0
-873 -15 -129 -138 0
-873 3 4 0
-873 -3 -127 1251 303 0
-873 -3 -128 1251 309 0
-873 -3 -129 1251 315 0
-873 -4 -127 1252 304 0
-873 -4 -128 1252 310 0
-873 -4 -129 1252 316 0
-873 -127 -255 0
-873 -127 -279 0
-873 -127 -327 0
-873 -127 -261 0
-873 -127 -285 0
-873 -127 -333 0
-873 -127 -267 0
-873 -127 -291 0
-873 -127 -339 0
-873 -127 -256 0
-873 -127 -280 0
-873 -127 -328 0
-873 -127 -262 0
-873 -127 -286 0
-873 -127 -334 0
-873 -127 -268 0
-873 -127 -292 0
-873 -127 -340 0
-873 -128 -261 0
-873 -128 -285 0
-873 -128 -333 0
-873 -128 -267 0
-873 -128 -291 0
-873 -128 -339 0
-873 -128 -262 0
-873 -128 -286 0
-873 -128 -334 0
-873 -128 -268 0
-873 -128 -292 0
-873 -128 -340 0
-873 -129 -267 0
-873 -129 -291 0
-873 -129 -339 0
-873 -129 -268 0
-873 -129 -292 0
-873 -129 -340 0
-873 -130 0
-873 36 0
-873 -127 152 0
-873 -128 153 0
-873 -129 154 0
-873 -227 0
-874 225 0
-874 -16 -127 -136 0
-874 -16 -128 -137 0
-874 -16 -129 -138 0
-874 4 5 0
-874 -4 -127 1252 304 0
-874 -4 -128 1252 310 0
-874 -4 -129 1252 316 0
-874 -5 -127 1253 305 0
-874 -5 -128 1253 311 0
-874 -5 -129 1253 317 0
-874 -127 -256 0
-874 -127 -280 0
-874 -127 -328 0
-874 -127 -262 0
-874 -127 -286 0
-874 -127 -334 0
-874 -127 -268 0
-874 -127 -292 0
-874 -127 -340 0
-874 -127 -257 0
-874 -127 -281 0
-874 -127 -329 0
-874 -127 -263 0
-874 -127 -287 0
-874 -127 -335 0
-874 -127 -269 0
-874 -127 -293 0
-874 -127 -341 0
-874 -128 -262 0
-874 -128 -286 0
-874 -128 -334 0
-874 -128 -268 0
-874 -128 -292 0
-874 -128 -340 0
-874 -128 -263 0
-874 -128 -287 0
-874 -128 -335 0
-874 -128 -269 0
-874 -128 -293 0
-874 -128 -341 0
-874 -129 -268 0
-874 -129 -292 0
-874 -129 -340 0
-874 -129 -269 0
-874 -129 -293 0
-874 -129 -341 0
-874 -130 0
-874 37 0
-874 -127 152 0
-874 -128 153 0
-874 -129 154 0
-874 -227 0
-875 225 0
-875 -17 -127 -136 0
-875 -17 -128 -137 0
-875 -17 -129 -138 0
-875 5 6 0
-875 -5 -127 1253 305 0
-875 -5 -128 1253 311 0
-875 -5 -129 1253 317 0
-875 -6 -127 1254 306 0
-875 -6 -128 1254 312 0
-875 -6 -129 1254 318 0
-875 -127 -257 0
-875 -127 -281 0
-875 -127 -329 0
-875 -127 -263 0
-875 -127 -287 0
-875 -127 -335 0
-875 -127 -269 0
-875 -127 -293 0
-875 -127 -341 0
-875 -127 -258 0
-875 -127 -282 0
-875 -127 -330 0
-875 -127 -264 0
-875 -127 -288 0
-875 -127 -336 0
-875 -127 -270 0
-875 -127 -294 0
-875 -127 -342 0
-875 -128 -263 0
-875 -128 -287 0
-875 -128 -335 0
-875 -128 -269 0
-875 -128 -293 0
-875 -128 -341 0
-875 -128 -264 0
-875 -128 -288 0
-875 -128 -336 0
-875 -128 -270 0
-875 -128 -294 0
-875 -128 -342 0
-875 -129 -269 0
-875 -129 -293 0
-875 -129 -341 0
-875 -129 -270 0
-875 -129 -294 0
-875 -129 -342 0
-875 -130 0
-875 38 0
-875 -127 152 0
-875 -128 153 0
-875 -129 154 0
-875 -227 0
-876 225 0
-876 -13 -131 -136 0
-876 -13 -132 -137 0
-876 -13 -133 -138 0
-876 7 8 0
-876 -7 -131 1255 301 0
-876 -7 -132 1255 307 0
-876 -7 -133 1255 313 0
-876 -8 -131 1256 302 0
-876 -8 -132 1256 308 0
-876 -8 -133 1256 314 0
-876 -131 -253 0
-876 -131 -277 0
-876 -131 -325 0
-876 -131 -259 0
-876 -131 -283 0
-876 -131 -331 0
-876 -131 -265 0
-876 -131 -289 0
-876 -131 -337 0
-876 -131 -254 0
-876 -131 -278 0
-876 -131 -326 0
-876 -131 -260 0
-876 -131 -284 0
-876 -131 -332 0
-876 -131 -266 0
-876 -131 -290 0
-876 -131 -338 0
-876 -132 -259 0
-876 -132 -283 0
-876 -132 -331 0
-876 -132 -265 0
-876 -132 -289 0
-876 -132 -337 0
-876 -132 -260 0
-876 -132 -284 0
-876 -132 -332 0
-876 -132 -266 0
-876 -132 -290 0
-876 -132 -338 0
-876 -133 -265 0
-876 -133 -289 0
-876 -133 -337 0
-876 -133 -266 0
-876 -133 -290 0
-876 -133 -338 0
-876 -134 0
-876 34 0
-876 -131 152 0
-876 -132 153 0
-876 -133 154 0
-876 -228 0
-877 225 0
-877 -14 -131 -136 0
-877 -14 -132 -137 0
-877 -14 -133 -138 0
-877 8 9 0
-877 -8 -131 1256 302 0
-877 -8 -132 1256 308 0
-877 -8 -133 1256 314 0
-877 -9 -131 1257 303 0
-877 -9 -132 1257 309 0
-877 -9 -133 1257 315 0
-877 -131 -254 0
-877 -131 -278 0
-877 -131 -326 0
-877 -131 -260 0
-877 -131 -284 0
-877 -131 -332 0
-877 -131 -266 0
-877 -131 -290 0
-877 -131 -338 0
-877 -131 -255 0
-877 -131 -279 0
-877 -131 -327 0
-877 -131 -261 0
-877 -131 -285 0
-877 -131 -333 0
-877 -131 -267 0
-877 -131 -291 0
-877 -131 -339 0
-877 -132 -260 0
-877 -132 -284 0
-877 -132 -332 0
-877 -132 -266 0
-877 -132 -290 0
-877 -132 -338 0
-877 -132 -261 0
-877 -132 -285 0
-877 -132 -333 0
-877 -132 -267 0
-877 -132 -291 0
-877 -132 -339 0
-877 -133 -266 0
-877 -133 -290 0
-877 -133 -338 0
-877 -133 -267 0
-877 -133 -291 0
-877 -133 -339 0
-877 -134 0
-877 35 0
-877 -131 152 0
-877 -132 153 0
-877 -133 154 0
-877 -228 0
-878 225 0
-878 -15 -131 -136 0
-878 -15 -132 -137 0
-878 -15 -133 -138 0
-878 9 10 0
-878 -9 -131 1257 303 0
-878 -9 -132 1257 309 0
-878 -9 -133 1257 315 0
-878 -10 -131 1258 304 0
-878 -10 -132 1258 310 0
-878 -10 -133 1258 316 0
-878 -131 -255 0
-878 -131 -279 0
-878 -131 -327 0
-878 -131 -261 0
-878 -131 -285 0
-878 -131 -333 0
-878 -131 -267 0
-878 -131 -291 0
-878 -131 -339 0
-878 -131 -256 0
-878 -131 -280 0
-878 -131 -328 0
-878 -131 -262 0
-878 -131 -286 0
-878 -131 -334 0
-878 -131 -268 0
-878 -131 -292 0
-878 -131 -340 0
-878 -132 -261 0
-878 -132 -285 0
-878 -132 -333 0
-878 -132 -267 0
-878 -132 -291 0
-878 -132 -339 0
-878 -132 -262 0
-878 -132 -286 0
-878 -132 -334 0
-878 -132 -268 0
-878 -132 -292 0
-878 -132 -340 0
-878 -133 -267 0
-878 -133 -291 0
-878 -133 -339 0
-878 -133 -268 0
-878 -133 -292 0
-878 -133 -340 0
-878 -134 0
-878 36 0
-878 -131 152 0
-878 -132 153 0
-878 -133 154 0
-878 -228 0
-879 225 0
-879 -16 -131 -136 0
-879 -16 -132 -137 0
-879 -16 -133 -138 0
-879 10 11 0
-879 -10 -131 1258 304 0
-879 -10 -132 1258 310 0
-879 -10 -133 1258 316 0
-879 -11 -131 1259 305 0
-879 -11 -132 1259 311 0
-879 -11 -133 1259 317 0
-879 -131 -256 0
-879 -131 -280 0
-879 -131 -328 0
-879 -131 -262 0
-879 -131 -286 0
-879 -131 -334 0
-879 -131 -268 0
-879 -131 -292 0
-879 -131 -340 0
-879 -131 -257 0
-879 -131 -281 0
-879 -131 -329 0
-879 -131 -263 0
-879 -131 -287 0
-879 -131 -335 0
-879 -131 -269 0
-879 -131 -293 0
-879 -131 -341 0
-879 -132 -262 0
-879 -132 -286 0
-879 -132 -334 0
-879 -132 -268 0
-879 -132 -292 0
-879 -132 -340 0
-879 -132 -263 0
-879 -132 -287 0
-879 -132 -335 0
-879 -132 -269 0
-879 -132 -293 0
-879 -132 -341 0
-879 -133 -268 0
-879 -133 -292 0
-879 -133 -340 0
-879 -133 -269 0
-879 -133 -293 0
-879 -133 -341 0
-879 -134 0
-879 37 0
-879 -131 152 0
-879 -132 153 0
-879 -133 154 0
-879 -228 0
-880 225 0
-880 -17 -131 -136 0
-880 -17 -132 -137 0
-880 -17 -133 -138 0
-880 11 12 0
-880 -11 -131 1259 305 0
-880 -11 -132 1259 311 0
-880 -11 -133 1259 317 0
-880 -12 -131 1260 306 0
-880 -12 -132 1260 312 0
-880 -12 -133 1260 318 0
-880 -131 -257 0
-880 -131 -281 0
-880 -131 -329 0
-880 -131 -263 0
-880 -131 -287 0
-880 -131 -335 0
-880 -131 -269 0
-880 -131 -293 0
-880 -131 -341 0
-880 -131 -258 0
-880 -131 -282 0
-880 -131 -330 0
-880 -131 -264 0
-880 -131 -288 0
-880 -131 -336 0
-880 -131 -270 0
-880 -131 -294 0
-880 -131 -342 0
-880 -132 -263 0
-880 -132 -287 0
-880 -132 -335 0
-880 -132 -269 0
-880 -132 -293 0
-880 -132 -341 0
-880 -132 -264 0
-880 -132 -288 0
-880 -132 -336 0
-880 -132 -270 0
-880 -132 -294 0
-880 -132 -342 0
-880 -133 -269 0
-880 -133 -293 0
-880 -133 -341 0
-880 -133 -270 0
-880 -133 -294 0
-880 -133 -342 0
-880 -134 0
-880 38 0
-880 -131 152 0
-880 -132 153 0
-880 -133 154 0
-880 -228 0
-881 225 0
-881 -13 -139 -136 0
-881 -13 -140 -137 0
-881 -13 -141 -138 0
-881 18 19 0
-881 -18 -139 1267 301 0
-881 -18 -140 1267 307 0
-881 -18 -141 1267 313 0
-881 -18 -139 1268 302 0
-881 -18 -140 1268 308 0
-881 -18 -141 1268 314 0
-881 -19 -139 1268 302 0
-881 -19 -140 1268 308 0
-881 -19 -141 1268 314 0
-881 -139 -253 0
-881 -139 -277 0
-881 -139 -325 0
-881 -139 -259 0
-881 -139 -283 0
-881 -139 -331 0
-881 -139 -265 0
-881 -139 -289 0
-881 -139 -337 0
-881 -139 -254 0
-881 -139 -278 0
-881 -139 -326 0
-881 -139 -260 0
-881 -139 -284 0
-881 -139 -332 0
-881 -139 -266 0
-881 -139 -290 0
-881 -139 -338 0
-881 -140 -259 0
-881 -140 -283 0
-881 -140 -331 0
-881 -140 -265 0
-881 -140 -289 0
-881 -140 -337 0
-881 -140 -260 0
-881 -140 -284 0
-881 -140 -332 0
-881 -140 -266 0
-881 -140 -290 0
-881 -140 -338 0
-881 -141 -265 0
-881 -141 -289 0
-881 -141 -337 0
-881 -141 -266 0
-881 -141 -290 0
-881 -141 -338 0
-881 -142 0
-881 34 0
-881 -139 152 0
-881 -140 153 0
-881 -141 154 0
-881 -230 0
-882 225 0
-882 -14 -139 -136 0
-882 -14 -140 -137 0
-882 -14 -141 -138 0
-882 18 19 20 0
-882 -18 -139 1268 302 0
-882 -18 -140 1268 308 0
-882 -18 -141 1268 314 0
-882 -18 -139 1269 303 0
-882 -18 -140 1269 309 0
-882 -18 -141 1269 315 0
-882 -19 -139 1268 302 0
-882 -19 -140 1268 308 0
-882 -19 -141 1268 314 0
-882 -19 -139 1269 303 0
-882 -19 -140 1269 309 0
-882 -19 -141 1269 315 0
-882 -20 -139 1269 303 0
-882 -20 -140 1269 309 0
-882 -20 -141 1269 315 0
-882 -139 -254 0
-882 -139 -278 0
-882 -139 -326 0
-882 -139 -260 0
-882 -139 -284 0
-882 -139 -332 0
-882 -139 -266 0
-882 -139 -290 0
-882 -139 -338 0
-882 -139 -255 0
-882 -139 -279 0
-882 -139 -327 0
-882 -139 -261 0
-882 -139 -285 0
-882 -139 -333 0
-882 -139 -267 0
-882 -139 -291 0
-882 -139 -339 0
-882 -140 -260 0
-882 -140 -284 0
-882 -140 -332 0
-882 -140 -266 0
-882 -140 -290 0
-882 -140 -338 0
-882 -140 -261 0
-882 -140 -285 0
-882 -140 -333 0
-882 -140 -267 0
-882 -140 -291 0
-882 -140 -339 0
-882 -141 -266 0
-882 -141 -290 0
-882 -141 -338 0
-882 -141 -267 0
-882 -141 -291 0
-882 -141 -339 0
-882 -142 0
-882 35 0
-882 -139 152 0
-882 -140 153 0
-882 -141 154 0
-882 -230 0
-883 225 0
-883 -15 -139 -136 0
-883 -15 -140 -137 0
-883 -15 -141 -138 0
-883 18 19 20 21 0
-883 -18 -139 1269 303 0
-883 -18 -140 1269 309 0
-883 -18 -141 1269 315 0
-883 -19 -139 1269 303 0
-883 -19 -140 1269 309 0
-883 -19 -141 1269 315 0
-883 -19 -139 1270 304 0
-883 -19 -140 1270 310 0
-883 -19 -141 1270 316 0
-883 -20 -139 1269 303 0
-883 -20 -140 1269 309 0
-883 -20 -141 1269 315 0
-883 -20 -139 1270 304 0
-883 -20 -140 1270 310 0
-883 -20 -141 1270 316 0
-883 -21 -139 1270 304 0
-883 -21 -140 1270 310 0
-883 -21 -141 1270 316 0
-883 -139 -255 0
-883 -139 -279 0
-883 -139 -327 0
-883 -139 -261 0
-883 -139 -285 0
-883 -139 -333 0
-883 -139 -267 0
-883 -139 -291 0
-883 -139 -339 0
-883 -139 -256 0
-883 -139 -280 0
-883 -139 -328 0
-883 -139 -262 0
-883 -139 -286 0
-883 -139 -334 0
-883 -139 -268 0
-883 -139 -292 0
-883 -139 -340 0
-883 -140 -261 0
-883 -140 -285 0
-883 -140 -333 0
-883 -140 -267 0
-883 -140 -291 0
-883 -140 -339 0
-883 -140 -262 0
-883 -140 -286 0
-883 -140 -334 0
-883 -140 -268 0
-883 -140 -292 0
-883 -140 -340 0
-883 -141 -267 0
-883 -141 -291 0
-883 -141 -339 0
-883 -141 -268 0
-883 -141 -292 0
-883 -141 -340 0
-883 -142 0
-883 36 0
-883 -139 152 0
-883 -140 153 0
-883 -141 154 0
-883 -230 0
-884 225 0
-884 -16 -139 -136 0
-884 -16 -140 -137 0
-884 -16 -141 -138 0
-884 19 20 21 0
-884 -19 -139 1270 304 0
-884 -19 -140 1270 310 0
-884 -19 -141 1270 316 0
-884 -20 -139 1270 304 0
-884 -20 -140 1270 310 0
-884 -20 -141 1270 316 0
-884 -20 -139 1271 305 0
-884 -20 -140 1271 311 0
-884 -20 -141 1271 317 0
-884 -21 -139 1270 304 0
-884 -21 -140 1270 310 0
-884 -21 -141 1270 316 0
-884 -21 -139 1271 305 0
-884 -21 -140 1271 311 0
-884 -21 -141 1271 317 0
-884 -139 -256 0
-884 -139 -280 0
-884 -139 -328 0
-884 -139 -262 0
-884 -139 -286 0
-884 -139 -334 0
-884 -139 -268 0
-884 -139 -292 0
-884 -139 -340 0
-884 -139 -257 0
-884 -139 -281 0
-884 -139 -329 0
-884 -139 -263 0
-884 -139 -287 0
-884 -139 -335 0
-884 -139 -269 0
-884 -139 -293 0
-884 -139 -341 0
-884 -140 -262 0
-884 -140 -286 0
-884 -140 -334 0
-884 -140 -268 0
-884 -140 -292 0
-884 -140 -340 0
-884 -140 -263 0
-884 -140 -287 0
-884 -140 -335 0
-884 -140 -269 0
-884 -140 -293 0
-884 -140 -341 0
-884 -141 -268 0
-884 -141 -292 0
-884 -141 -340 0
-884 -141 -269 0
-884 -141 -293 0
-884 -141 -341 0
-884 -142 0
-884 37 0
-884 -139 152 0
-884 -140 153 0
-884 -141 154 0
-884 -230 0
-885 225 0
-885 -17 -139 -136 0
-885 -17 -140 -137 0
-885 -17 -141 -138 0
-885 20 21 0
-885 -20 -139 1271 305 0
-885 -20 -140 1271 311 0
-885 -20 -141 1271 317 0
-885 -21 -139 1271 305 0
-885 -21 -140 1271 311 0
-885 -21 -141 1271 317 0
-885 -21 -139 1272 306 0
-885 -21 -140 1272 312 0
-885 -21 -141 1272 318 0
-885 -139 -257 0
-885 -139 -281 0
-885 -139 -329 0
-885 -139 -263 0
-885 -139 -287 0
-885 -139 -335 0
-885 -139 -269 0
-885 -139 -293 0
-885 -139 -341 0
-885 -139 -258 0
-885 -139 -282 0
-885 -139 -330 0
-885 -139 -264 0
-885 -139 -288 0
-885 -139 -336 0
-885 -139 -270 0
-885 -139 -294 0
-885 -139 -342 0
-885 -140 -263 0
-885 -140 -287 0
-885 -140 -335 0
-885 -140 -269 0
-885 -140 -293 0
-885 -140 -341 0
-885 -140 -264 0
-885 -140 -288 0
-885 -140 -336 0
-885 -140 -270 0
-885 -140 -294 0
-885 -140 -342 0
-885 -141 -269 0
-885 -141 -293 0
-885 -141 -341 0
-885 -141 -270 0
-885 -141 -294 0
-885 -141 -342 0
-885 -142 0
-885 38 0
-885 -139 152 0
-885 -140 153 0
-885 -141 154 0
-885 -230 0
-886 225 0
-886 -13 -135 0
-886 -247 0
-886 -271 0
-886 -319 0
-886 -253 0
-886 -277 0
-886 -325 0
-886 -259 0
-886 -283 0
-886 -331 0
-886 -265 0
-886 -289 0
-886 -337 0
-886 -248 0
-886 -272 0
-886 -320 0
-886 -254 0
-886 -278 0
-886 -326 0
-886 -260 0
-886 -284 0
-886 -332 0
-886 -266 0
-886 -290 0
-886 -338 0
-886 34 0
-886 151 0
-887 225 0
-887 -14 -135 0
-887 -248 0
-887 -272 0
-887 -320 0
-887 -254 0
-887 -278 0
-887 -326 0
-887 -260 0
-887 -284 0
-887 -332 0
-887 -266 0
-887 -290 0
-887 -338 0
-887 -249 0
-887 -273 0
-887 -321 0
-887 -255 0
-887 -279 0
-887 -327 0
-887 -261 0
-887 -285 0
-887 -333 0
-887 -267 0
-887 -291 0
-887 -339 0
-887 35 0
-887 151 0
-888 225 0
-888 -15 -135 0
-888 -249 0
-888 -273 0
-888 -321 0
-888 -255 0
-888 -279 0
-888 -327 0
-888 -261 0
-888 -285 0
-888 -333 0
-888 -267 0
-888 -291 0
-888 -339 0
-888 -250 0
-888 -274 0
-888 -322 0
-888 -256 0
-888 -280 0
-888 -328 0
-888 -262 0
-888 -286 0
-888 -334 0
-888 -268 0
-888 -292 0
-888 -340 0
-888 36 0
-888 151 0
-889 225 0
-889 -16 -135 0
-889 -250 0
-889 -274 0
-889 -322 0
-889 -256 0
-889 -280 0
-889 -328 0
-889 -262 0
-889 -286 0
-889 -334 0
-889 -268 0
-889 -292 0
-889 -340 0
-889 -251 0
-889 -275 0
-889 -323 0
-889 -257 0
-889 -281 0
-889 -329 0
-889 -263 0
-889 -287 0
-889 -335 0
-889 -269 0
-889 -293 0
-889 -341 0
-889 37 0
-889 151 0
-890 225 0
-890 -17 -135 0
-890 -251 0
-890 -275 0
-890 -323 0
-890 -257 0
-890 -281 0
-890 -329 0
-890 -263 0
-890 -287 0
-890 -335 0
-890 -269 0
-890 -293 0
-890 -341 0
-890 -252 0
-890 -276 0
-890 -324 0
-890 -258 0
-890 -282 0
-890 -330 0
-890 -264 0
-890 -288 0
-890 -336 0
-890 -270 0
-890 -294 0
-890 -342 0
-890 38 0
-890 151 0
-891 226 0
-891 -18 -127 -140 0
-891 -18 -128 -141 0
-891 -18 -129 -142 0
-891 1 2 3 0
-891 -1 -127 1249 325 0
-891 -1 -128 1249 331 0
-891 -1 -129 1249 337 0
-891 -2 -127 1250 326 0
-891 -2 -128 1250 332 0
-891 -2 -129 1250 338 0
-891 -3 -127 1251 327 0
-891 -3 -128 1251 333 0
-891 -3 -129 1251 339 0
-891 -127 -253 0
-891 -127 -277 0
-891 -127 -301 0
-891 -127 -259 0
-891 -127 -283 0
-891 -127 -307 0
-891 -127 -265 0
-891 -127 -289 0
-891 -127 -313 0
-891 -127 -254 0
-891 -127 -278 0
-891 -127 -302 0
-891 -127 -260 0
-891 -127 -284 0
-891 -127 -308 0
-891 -127 -266 0
-891 -127 -290 0
-891 -127 -314 0
-891 -127 -255 0
-891 -127 -279 0
-891 -127 -303 0
-891 -127 -261 0
-891 -127 -285 0
-891 -127 -309 0
-891 -127 -267 0
-891 -127 -291 0
-891 -127 -315 0
-891 -128 -259 0
-891 -128 -283 0
-891 -128 -307 0
-891 -128 -265 0
-891 -128 -289 0
-891 -128 -313 0
-891 -128 -260 0
-891 -128 -284 0
-891 -128 -308 0
-891 -128 -266 0
-891 -128 -290 0
-891 -128 -314 0
-891 -128 -261 0
-891 -128 -285 0
-891 -128 -309 0
-891 -128 -267 0
-891 -128 -291 0
-891 -128 -315 0
-891 -129 -265 0
-891 -129 -289 0
-891 -129 -313 0
-891 -129 -266 0
-891 -129 -290 0
-891 -129 -314 0
-891 -129 -267 0
-891 -129 -291 0
-891 -129 -315 0
-891 -130 0
-891 39 0
-891 -127 156 0
-891 -128 157 0
-891 -129 158 0
-891 -227 0
-892 226 0
-892 -19 -127 -140 0
-892 -19 -128 -141 0
-892 -19 -129 -142 0
-892 2 3 4 0
-892 -2 -127 1250 326 0
-892 -2 -128 1250 332 0
-892 -2 -129 1250 338 0
-892 -3 -127 1251 327 0
-892 -3 -128 1251 333 0
-892 -3 -129 1251 339 0
-892 -4 -127 1252 328 0
-892 -4 -128 1252 334 0
-892 -4 -129 1252 340 0
-892 -127 -254 0
-892 -127 -278 0
-892 -127 -302 0
-892 -127 -260 0
-892 -127 -284 0
-892 -127 -308 0
-892 -127 -266 0
-892 -127 -290 0
-892 -127 -314 0
-892 -127 -255 0
-892 -127 -279 0
-892 -127 -303 0
-892 -127 -261 0
-892 -127 -285 0
-892 -127 -309 0
-892 -127 -267 0
-892 -127 -291 0
-892 -127 -315 0
-892 -127 -256 0
-892 -127 -280 0
-892 -127 -304 0
-892 -127 -262 0
-892 -127 -286 0
-892 -127 -310 0
-892 -127 -268 0
-892 -127 -292 0
-892 -127 -316 0
-892 -128 -260 0
-892 -128 -284 0
-892 -128 -308 0
-892 -128 -266 0
-892 -128 -290 0
-892 -128 -314 0
-892 -128 -261 0
-892 -128 -285 0
-892 -128 -309 0
-892 -128 -267 0
-892 -128 -291 0
-892 -128 -315 0
-892 -128 -262 0
-892 -128 -286 0
-892 -128 -310 0
-892 -128 -268 0
-892 -128 -292 0
-892 -128 -316 0
-892 -129 -266 0
-892 -129 -290 0
-892 -129 -314 0
-892 -129 -267 0
-892 -129 -291 0
-892 -129 -315 0
-892 -129 -268 0
-892 -129 -292 0
-892 -129 -316 0
-892 -130 0
-892 40 0
-892 -127 156 0
-892 -128 157 0
-892 -129 158 0
-892 -227 0
-893 226 0
-893 -20 -127 -140 0
-893 -20 -128 -141 0
-893 -20 -129 -142 0
-893 3 4 5 0
-893 -3 -127 1251 327 0
-893 -3 -128 1251 333 0
-893 -3 -129 1251 339 0
-893 -4 -127 1252 328 0
-893 -4 -128 1252 334 0
-893 -4 -129 1252 340 0
-893 -5 -127 1253 329 0
-893 -5 -128 1253 335 0
-893 -5 -129 1253 341 0
-893 -127 -255 0
-893 -127 -279 0
-893 -127 -303 0
-893 -127 -261 0
-893 -127 -285 0
-893 -127 -309 0
-893 -127 -267 0
-893 -127 -291 0
-893 -127 -315 0
-893 -127 -256 0
-893 -127 -280 0
-893 -127 -304 0
-893 -127 -262 0
-893 -127 -286 0
-893 -127 -310 0
-893 -127 -268 0
-893 -127 -292 0
-893 -127 -316 0
-893 -127 -257 0
-893 -127 -281 0
-893 -127 -305 0
-893 -127 -263 0
-893 -127 -287 0
-893 -127 -311 0
-893 -127 -269 0
-893 -127 -293 0
-893 -127 -317 0
-893 -128 -261 0
-893 -128 -285 0
-893 -128 -309 0
-893 -128 -267 0
-893 -128 -291 0
-893 -128 -315 0
-893 -128 -262 0
-893 -128 -286 0
-893 -128 -310 0
-893 -128 -268 0
-893 -128 -292 0
-893 -128 -316 0
-893 -128 -263 0
-893 -128 -287 0
-893 -128 -311 0
-893 -128 -269 0
-893 -128 -293 0
-893 -128 -317 0
-893 -129 -267 0
-893 -129 -291 0
-893 -129 -315 0
-893 -129 -268 0
-893 -129 -292 0
-893 -129 -316 0
-893 -129 -269 0
-893 -129 -293 0
-893 -129 -317 0
-893 -130 0
-893 41 0
-893 -127 156 0
-893 -128 157 0
-893 -129 158 0
-893 -227 0
-894 226 0
-894 -21 -127 -140 0
-894 -21 -128 -141 0
-894 -21 -129 -142 0
-894 4 5 6 0
-894 -4 -127 1252 328 0
-894 -4 -128 1252 334 0
-894 -4 -129 1252 340 0
-894 -5 -127 1253 329 0
-894 -5 -128 1253 335 0
-894 -5 -129 1253 341 0
-894 -6 -127 1254 330 0
-894 -6 -128 1254 336 0
-894 -6 -129 1254 342 0
-894 -127 -256 0
-894 -127 -280 0
-894 -127 -304 0
-894 -127 -262 0
-894 -127 -286 0
-894 -127 -310 0
-894 -127 -268 0
-894 -127 -292 0
-894 -127 -316 0
-894 -127 -257 0
-894 -127 -281 0
-894 -127 -305 0
-894 -127 -263 0
-894 -127 -287 0
-894 -127 -311 0
-894 -127 -269 0
-894 -127 -293 0
-894 -127 -317 0
-894 -127 -258 0
-894 -127 -282 0
-894 -127 -306 0
-894 -127 -264 0
-894 -127 -288 0
-894 -127 -312 0
-894 -127 -270 0
-894 -127 -294 0
-894 -127 -318 0
-894 -128 -262 0
-894 -128 -286 0
-894 -128 -310 0
-894 -128 -268 0
-894 -128 -292 0
-894 -128 -316 0
-894 -128 -263 0
-894 -128 -287 0
-894 -128 -311 0
-894 -128 -269 0
-894 -128 -293 0
-894 -128 -317 0
-894 -128 -264 0
-894 -128 -288 0
-894 -128 -312 0
-894 -128 -270 0
-894 -128 -294 0
-894 -128 -318 0
-894 -129 -268 0
-894 -129 -292 0
-894 -129 -316 0
-894 -129 -269 0
-894 -129 -293 0
-894 -129 -317 0
-894 -129 -270 0
-894 -129 -294 0
-894 -129 -318 0
-894 -130 0
-894 42 0
-894 -127 156 0
-894 -128 157 0
-894 -129 158 0
-894 -227 0
-895 226 0
-895 -18 -131 -140 0
-895 -18 -132 -141 0
-895 -18 -133 -142 0
-895 7 8 9 0
-895 -7 -131 1255 325 0
-895 -7 -132 1255 331 0
-895 -7 -133 1255 337 0
-895 -8 -131 1256 326 0
-895 -8 -132 1256 332 0
-895 -8 -133 1256 338 0
-895 -9 -131 1257 327 0
-895 -9 -132 1257 333 0
-895 -9 -133 1257 339 0
-895 -131 -253 0
-895 -131 -277 0
-895 -131 -301 0
-895 -131 -259 0
-895 -131 -283 0
-895 -131 -307 0
-895 -131 -265 0
-895 -131 -289 0
-895 -131 -313 0
-895 -131 -254 0
-895 -131 -278 0
-895 -131 -302 0
-895 -131 -260 0
-895 -131 -284 0
-895 -131 -308 0
-895 -131 -266 0
-895 -131 -290 0
-895 -131 -314 0
-895 -131 -255 0
-895 -131 -279 0
-895 -131 -303 0
-895 -131 -261 0
-895 -131 -285 0
-895 -131 -309 0
-895 -131 -267 0
-895 -131 -291 0
-895 -131 -315 0
-895 -132 -259 0
-895 -132 -283 0
-895 -132 -307 0
-895 -132 -265 0
-895 -132 -289 0
-895 -132 -313 0
-895 -132 -260 0
-895 -132 -284 0
-895 -132 -308 0
-895 -132 -266 0
-895 -132 -290 0
-895 -132 -314 0
-895 -132 -261 0
-895 -132 -285 0
-895 -132 -309 0
-895 -132 -267 0
-895 -132 -291 0
-895 -132 -315 0
-895 -133 -265 0
-895 -133 -289 0
-895 -133 -313 0
-895 -133 -266 0
-895 -133 -290 0
-895 -133 -314 0
-895 -133 -267 0
-895 -133 -291 0
-895 -133 -315 0
-895 -134 0
-895 39 0
-895 -131 156 0
-895 -132 157 0
-895 -133 158 0
-895 -228 0
-896 226 0
-896 -19 -131 -140 0
-896 -19 -132 -141 0
-896 -19 -133 -142 0
-896 8 9 10 0
-896 -8 -131 1256 326 0
-896 -8 -132 1256 332 0
-896 -8 -133 1256 338 0
-896 -9 -131 1257 327 0
-896 -9 -132 1257 333 0
-896 -9 -133 1257 339 0
-896 -10 -131 1258 328 0
-896 -10 -132 1258 334 0
-896 -10 -133 1258 340 0
-896 -131 -254 0
-896 -131 -278 0
-896 -131 -302 0
-896 -131 -260 0
-896 -131 -284 0
-896 -131 -308 0
-896 -131 -266 0
-896 -131 -290 0
-896 -131 -314 0
-896 -131 -255 0
-896 -131 -279 0
-896 -131 -303 0
-896 -131 -261 0
-896 -131 -285 0
-896 -131 -309 0
-896 -131 -267 0
-896 -131 -291 0
-896 -131 -315 0
-896 -131 -256 0
-896 -131 -280 0
-896 -131 -304 0
-896 -131 -262 0
-896 -131 -286 0
-896 -131 -310 0
-896 -131 -268 0
-896 -131 -292 0
-896 -131 -316 0
-896 -132 -260 0
-896 -132 -284 0
-896 -132 -308 0
-896 -132 -266 0
-896 -132 -290 0
-896 -132 -314 0
-896 -132 -261 0
-896 -132 -285 0
-896 -132 -309 0
-896 -132 -267 0
-896 -132 -291 0
-896 -132 -315 0
-896 -132 -262 0
-896 -132 -286 0
-896 -132 -310 0
-896 -132 -268 0
-896 -132 -292 0
-896 -132 -316 0
-896 -133 -266 0
-896 -133 -290 0
-896 -133 -314 0
-896 -133 -267 0
-896 -133 -291 0
-896 -133 -315 0
-896 -133 -268 0
-896 -133 -292 0
-896 -133 -316 0
-896 -134 0
-896 40 0
-896 -131 156 0
-896 -132 157 0
-896 -133 158 0
-896 -228 0
-897 226 0
-897 -20 -131 -140 0
-897 -20 -132 -141 0
-897 -20 -133 -142 0
-897 9 10 11 0
-897 -9 -131 1257 327 0
-897 -9 -132 1257 333 0
-897 -9 -133 1257 339 0
-897 -10 -131 1258 328 0
-897 -10 -132 1258 334 0
-897 -10 -133 1258 340 0
-897 -11 -131 1259 329 0
-897 -11 -132 1259 335 0
-897 -11 -133 1259 341 0
-897 -131 -255 0
-897 -131 -279 0
-897 -131 -303 0
-897 -131 -261 0
-897 -131 -285 0
-897 -131 -309 0
-897 -131 -267 0
-897 -131 -291 0
-897 -131 -315 0
-897 -131 -256 0
-897 -131 -280 0
-897 -131 -304 0
-897 -131 -262 0
-897 -131 -286 0
-897 -131 -310 0
-897 -131 -268 0
-897 -131 -292 0
-897 -131 -316 0
-897 -131 -257 0
-897 -131 -281 0
-897 -131 -305 0
-897 -131 -263 0
-897 -131 -287 0
-897 -131 -311 0
-897 -131 -269 0
-897 -131 -293 0
-897 -131 -317 0
-897 -132 -261 0
-897 -132 -285 0
-897 -132 -309 0
-897 -132 -267 0
-897 -132 -291 0
-897 -132 -315 0
-897 -132 -262 0
-897 -132 -286 0
-897 -132 -310 0
-897 -132 -268 0
-897 -132 -292 0
-897 -132 -316 0
-897 -132 -263 0
-897 -132 -287 0
-897 -132 -311 0
-897 -132 -269 0
-897 -132 -293 0
-897 -132 -317 0
-897 -133 -267 0
-897 -133 -291 0
-897 -133 -315 0
-897 -133 -268 0
-897 -133 -292 0
-897 -133 -316 0
-897 -133 -269 0
-897 -133 -293 0
-897 -133 -317 0
-897 -134 0
-897 41 0
-897 -131 156 0
-897 -132 157 0
-897 -133 158 0
-897 -228 0
-898 226 0
-898 -21 -131 -140 0
-898 -21 -132 -141 0
-898 -21 -133 -142 0
-898 10 11 12 0
-898 -10 -131 1258 328 0
-898 -10 -132 1258 334 0
-898 -10 -133 1258 340 0
-898 -11 -131 1259 329 0
-898 -11 -132 1259 335 0
-898 -11 -133 1259 341 0
-898 -12 -131 1260 330 0
-898 -12 -132 1260 336 0
-898 -12 -133 1260 342 0
-898 -131 -256 0
-898 -131 -280 0
-898 -131 -304 0
-898 -131 -262 0
-898 -131 -286 0
-898 -131 -310 0
-898 -131 -268 0
-898 -131 -292 0
-898 -131 -316 0
-898 -131 -257 0
-898 -131 -281 0
-898 -131 -305 0
-898 -131 -263 0
-898 -131 -287 0
-898 -131 -311 0
-898 -131 -269 0
-898 -131 -293 0
-898 -131 -317 0
-898 -131 -258 0
-898 -131 -282 0
-898 -131 -306 0
-898 -131 -264 0
-898 -131 -288 0
-898 -131 -312 0
-898 -131 -270 0
-898 -131 -294 0
-898 -131 -318 0
-898 -132 -262 0
-898 -132 -286 0
-898 -132 -310 0
-898 -132 -268 0
-898 -132 -292 0
-898 -132 -316 0
-898 -132 -263 0
-898 -132 -287 0
-898 -132 -311 0
-898 -132 -269 0
-898 -132 -293 0
-898 -132 -317 0
-898 -132 -264 0
-898 -132 -288 0
-898 -132 -312 0
-898 -132 -270 0
-898 -132 -294 0
-898 -132 -318 0
-898 -133 -268 0
-898 -133 -292 0
-898 -133 -316 0
-898 -133 -269 0
-898 -133 -293 0
-898 -133 -317 0
-898 -133 -270 0
-898 -133 -294 0
-898 -133 -318 0
-898 -134 0
-898 42 0
-898 -131 156 0
-898 -132 157 0
-898 -133 158 0
-898 -228 0
-899 226 0
-899 -18 -135 -140 0
-899 -18 -136 -141 0
-899 -18 -137 -142 0
-899 13 14 15 0
-899 -13 -135 1261 325 0
-899 -13 -136 1261 331 0
-899 -13 -137 1261 337 0
-899 -13 -135 1262 326 0
-899 -13 -136 1262 332 0
-899 -13 -137 1262 338 0
-899 -14 -135 1262 326 0
-899 -14 -136 1262 332 0
-899 -14 -137 1262 338 0
-899 -14 -135 1263 327 0
-899 -14 -136 1263 333 0
-899 -14 -137 1263 339 0
-899 -15 -135 1263 327 0
-899 -15 -136 1263 333 0
-899 -15 -137 1263 339 0
-899 -135 -253 0
-899 -135 -277 0
-899 -135 -301 0
-899 -135 -259 0
-899 -135 -283 0
-899 -135 -307 0
-899 -135 -265 0
-899 -135 -289 0
-899 -135 -313 0
-899 -135 -254 0
-899 -135 -278 0
-899 -135 -302 0
-899 -135 -260 0
-899 -135 -284 0
-899 -135 -308 0
-899 -135 -266 0
-899 -135 -290 0
-899 -135 -314 0
-899 -135 -255 0
-899 -135 -279 0
-899 -135 -303 0
-899 -135 -261 0
-899 -135 -285 0
-899 -135 -309 0
-899 -135 -267 0
-899 -135 -291 0
-899 -135 -315 0
-899 -136 -259 0
-899 -136 -283 0
-899 -136 -307 0
-899 -136 -265 0
-899 -136 -289 0
-899 -136 -313 0
-899 -136 -260 0
-899 -136 -284 0
-899 -136 -308 0
-899 -136 -266 0
-899 -136 -290 0
-899 -136 -314 0
-899 -136 -261 0
-899 -136 -285 0
-899 -136 -309 0
-899 -136 -267 0
-899 -136 -291 0
-899 -136 -315 0
-899 -137 -265 0
-899 -137 -289 0
-899 -137 -313 0
-899 -137 -266 0
-899 -137 -290 0
-899 -137 -314 0
-899 -137 -267 0
-899 -137 -291 0
-899 -137 -315 0
-899 -138 0
-899 39 0
-899 -135 156 0
-899 -136 157 0
-899 -137 158 0
-899 -229 0
-900 226 0
-900 -19 -135 -140 0
-900 -19 -136 -141 0
-900 -19 -137 -142 0
-900 13 14 15 16 0
-900 -13 -135 1262 326 0
-900 -13 -136 1262 332 0
-900 -13 -137 1262 338 0
-900 -14 -135 1262 326 0
-900 -14 -136 1262 332 0
-900 -14 -137 1262 338 0
-900 -14 -135 1263 327 0
-900 -14 -136 1263 333 0
-900 -14 -137 1263 339 0
-900 -15 -135 1263 327 0
-900 -15 -136 1263 333 0
-900 -15 -137 1263 339 0
-900 -15 -135 1264 328 0
-900 -15 -136 1264 334 0
-900 -15 -137 1264 340 0
-900 -16 -135 1264 328 0
-900 -16 -136 1264 334 0
-900 -16 -137 1264 340 0
-900 -135 -254 0
-900 -135 -278 0
-900 -135 -302 0
-900 -135 -260 0
-900 -135 -284 0
-900 -135 -308 0
-900 -135 -266 0
-900 -135 -290 0
-900 -135 -314 0
-900 -135 -255 0
-900 -135 -279 0
-900 -135 -303 0
-900 -135 -261 0
-900 -135 -285 0
-900 -135 -309 0
-900 -135 -267 0
-900 -135 -291 0
-900 -135 -315 0
-900 -135 -256 0
-900 -135 -280 0
-900 -135 -304 0
-900 -135 -262 0
-900 -135 -286 0
-900 -135 -310 0
-900 -135 -268 0
-900 -135 -292 0
-900 -135 -316 0
-900 -136 -260 0
-900 -136 -284 0
-900 -136 -308 0
-900 -136 -266 0
-900 -136 -290 0
-900 -136 -314 0
-900 -136 -261 0
-900 -136 -285 0
-900 -136 -309 0
-900 -136 -267 0
-900 -136 -291 0
-900 -136 -315 0
-900 -136 -262 0
-900 -136 -286 0
-900 -136 -310 0
-900 -136 -268 0
-900 -136 -292 0
-900 -136 -316 0
-900 -137 -266 0
-900 -137 -290 0
-900 -137 -314 0
-900 -137 -267 0
-900 -137 -291 0
-900 -137 -315 0
-900 -137 -268 0
-900 -137 -292 0
-900 -137 -316 0
-900 -138 0
-900 40 0
-900 -135 156 0
-900 -136 157 0
-900 -137 158 0
-900 -229 0
-901 226 0
-901 -20 -135 -140 0
-901 -20 -136 -141 0
-901 -20 -137 -142 0
-901 14 15 16 17 0
-901 -14 -135 1263 327 0
-901 -14 -136 1263 333 0
-901 -14 -137 1263 339 0
-901 -15 -135 1263 327 0
-901 -15 -136 1263 333 0
-901 -15 -137 1263 339 0
-901 -15 -135 1264 328 0
-901 -15 -136 1264 334 0
-901 -15 -137 1264 340 0
-901 -16 -135 1264 328 0
-901 -16 -136 1264 334 0
-901 -16 -137 1264 340 0
-901 -16 -135 1265 329 0
-901 -16 -136 1265 335 0
-901 -16 -137 1265 341 0
-901 -17 -135 1265 329 0
-901 -17 -136 1265 335 0
-901 -17 -137 1265 341 0
-901 -135 -255 0
-901 -135 -279 0
-901 -135 -303 0
-901 -135 -261 0
-901 -135 -285 0
-901 -135 -309 0
-901 -135 -267 0
-901 -135 -291 0
-901 -135 -315 0
-901 -135 -256 0
-901 -135 -280 0
-901 -135 -304 0
-901 -135 -262 0
-901 -135 -286 0
-901 -135 -310 0
-901 -135 -268 0
-901 -135 -292 0
-901 -135 -316 0
-901 -135 -257 0
-901 -135 -281 0
-901 -135 -305 0
-901 -135 -263 0
-901 -135 -287 0
-901 -135 -311 0
-901 -135 -269 0
-901 -135 -293 0
-901 -135 -317 0
-901 -136 -261 0
-901 -136 -285 0
-901 -136 -309 0
-901 -136 -267 0
-901 -136 -291 0
-901 -136 -315 0
-901 -136 -262 0
-901 -136 -286 0
-901 -136 -310 0
-901 -136 -268 0
-901 -136 -292 0
-901 -136 -316 0
-901 -136 -263 0
-901 -136 -287 0
-901 -136 -311 0
-901 -136 -269 0
-901 -136 -293 0
-901 -136 -317 0
-901 -137 -267 0
-901 -137 -291 0
-901 -137 -315 0
-901 -137 -268 0
-901 -137 -292 0
-901 -137 -316 0
-901 -137 -269 0
-901 -137 -293 0
-901 -137 -317 0
-901 -138 0
-901 41 0
-901 -135 156 0
-901 -136 157 0
-901 -137 158 0
-901 -229 0
-902 226 0
-902 -21 -135 -140 0
-902 -21 -136 -141 0
-902 -21 -137 -142 0
-902 15 16 17 0
-902 -15 -135 1264 328 0
-902 -15 -136 1264 334 0
-902 -15 -137 1264 340 0
-902 -16 -135 1264 328 0
-902 -16 -136 1264 334 0
-902 -16 -137 1264 340 0
-902 -16 -135 1265 329 0
-902 -16 -136 1265 335 0
-902 -16 -137 1265 341 0
-902 -17 -135 1265 329 0
-902 -17 -136 1265 335 0
-902 -17 -137 1265 341 0
-902 -17 -135 1266 330 0
-902 -17 -136 1266 336 0
-902 -17 -137 1266 342 0
-902 -135 -256 0
-902 -135 -280 0
-902 -135 -304 0
-902 -135 -262 0
-902 -135 -286 0
-902 -135 -310 0
-902 -135 -268 0
-902 -135 -292 0
-902 -135 -316 0
-902 -135 -257 0
-902 -135 -281 0
-902 -135 -305 0
-902 -135 -263 0
-902 -135 -287 0
-902 -135 -311 0
-902 -135 -269 0
-902 -135 -293 0
-902 -135 -317 0
-902 -135 -258 0
-902 -135 -282 0
-902 -135 -306 0
-902 -135 -264 0
-902 -135 -288 0
-902 -135 -312 0
-902 -135 -270 0
-902 -135 -294 0
-902 -135 -318 0
-902 -136 -262 0
-902 -136 -286 0
-902 -136 -310 0
-902 -136 -268 0
-902 -136 -292 0
-902 -136 -316 0
-902 -136 -263 0
-902 -136 -287 0
-902 -136 -311 0
-902 -136 -269 0
-902 -136 -293 0
-902 -136 -317 0
-902 -136 -264 0
-902 -136 -288 0
-902 -136 -312 0
-902 -136 -270 0
-902 -136 -294 0
-902 -136 -318 0
-902 -137 -268 0
-902 -137 -292 0
-902 -137 -316 0
-902 -137 -269 0
-902 -137 -293 0
-902 -137 -317 0
-902 -137 -270 0
-902 -137 -294 0
-902 -137 -318 0
-902 -138 0
-902 42 0
-902 -135 156 0
-902 -136 157 0
-902 -137 158 0
-902 -229 0
-903 226 0
-903 -18 -139 0
-903 -247 0
-903 -271 0
-903 -295 0
-903 -253 0
-903 -277 0
-903 -301 0
-903 -259 0
-903 -283 0
-903 -307 0
-903 -265 0
-903 -289 0
-903 -313 0
-903 -248 0
-903 -272 0
-903 -296 0
-903 -254 0
-903 -278 0
-903 -302 0
-903 -260 0
-903 -284 0
-903 -308 0
-903 -266 0
-903 -290 0
-903 -314 0
-903 -249 0
-903 -273 0
-903 -297 0
-903 -255 0
-903 -279 0
-903 -303 0
-903 -261 0
-903 -285 0
-903 -309 0
-903 -267 0
-903 -291 0
-903 -315 0
-903 39 0
-903 155 0
-904 226 0
-904 -19 -139 0
-904 -248 0
-904 -272 0
-904 -296 0
-904 -254 0
-904 -278 0
-904 -302 0
-904 -260 0
-904 -284 0
-904 -308 0
-904 -266 0
-904 -290 0
-904 -314 0
-904 -249 0
-904 -273 0
-904 -297 0
-904 -255 0
-904 -279 0
-904 -303 0
-904 -261 0
-904 -285 0
-904 -309 0
-904 -267 0
-904 -291 0
-904 -315 0
-904 -250 0
-904 -274 0
-904 -298 0
-904 -256 0
-904 -280 0
-904 -304 0
-904 -262 0
-904 -286 0
-904 -310 0
-904 -268 0
-904 -292 0
-904 -316 0
-904 40 0
-904 155 0
-905 226 0
-905 -20 -139 0
-905 -249 0
-905 -273 0
-905 -297 0
-905 -255 0
-905 -279 0
-905 -303 0
-905 -261 0
-905 -285 0
-905 -309 0
-905 -267 0
-905 -291 0
-905 -315 0
-905 -250 0
-905 -274 0
-905 -298 0
-905 -256 0
-905 -280 0
-905 -304 0
-905 -262 0
-905 -286 0
-905 -310 0
-905 -268 0
-905 -292 0
-905 -316 0
-905 -251 0
-905 -275 0
-905 -299 0
-905 -257 0
-905 -281 0
-905 -305 0
-905 -263 0
-905 -287 0
-905 -311 0
-905 -269 0
-905 -293 0
-905 -317 0
-905 41 0
-905 155 0
-906 226 0
-906 -21 -139 0
-906 -250 0
-906 -274 0
-906 -298 0
-906 -256 0
-906 -280 0
-906 -304 0
-906 -262 0
-906 -286 0
-906 -310 0
-906 -268 0
-906 -292 0
-906 -316 0
-906 -251 0
-906 -275 0
-906 -299 0
-906 -257 0
-906 -281 0
-906 -305 0
-906 -263 0
-906 -287 0
-906 -311 0
-906 -269 0
-906 -293 0
-906 -317 0
-906 -252 0
-906 -276 0
-906 -300 0
-906 -258 0
-906 -282 0
-906 -306 0
-906 -264 0
-906 -288 0
-906 -312 0
-906 -270 0
-906 -294 0
-906 -318 0
-906 42 0
-906 155 0
1 -22 823 824 825 826 827 828 829 830 831 832 833 834 835 836 837 838 839 840 841 842 843 844 845 846 0
-1 22 823 824 825 826 827 828 829 830 831 832 833 834 835 836 837 838 839 840 841 842 843 844 845 846 0
2 -23 823 824 825 826 827 828 829 830 831 832 833 834 835 836 837 838 839 840 841 842 843 844 845 846 0
-2 23 823 824 825 826 827 828 829 830 831 832 833 834 835 836 837 838 839 840 841 842 843 844 845 846 0
3 -24 823 824 825 826 827 828 829 830 831 832 833 834 835 836 837 838 839 840 841 842 843 844 845 846 0
-3 24 823 824 825 826 827 828 829 830 831 832 833 834 835 836 837 838 839 840 841 842 843 844 845 846 0
4 -25 823 824 825 826 827 828 829 830 831 832 833 834 835 836 837 838 839 840 841 842 843 844 845 846 0
-4 25 823 824 825 826 827 828 829 830 831 832 833 834 835 836 837 838 839 840 841 842 843 844 845 846 0
5 -26 823 824 825 826 827 828 829 830 831 832 833 834 835 836 837 838 839 840 841 842 843 844 845 846 0
-5 26 823 824 825 826 827 828 829 830 831 832 833 834 835 836 837 838 839 840 841 842 843 844 845 846 0
6 -27 823 824 825 826 827 828 829 830 831 832 833 834 835 836 837 838 839 840 841 842 843 844 845 846 0
-6 27 823 824 825 826 827 828 829 830 831 832 833 834 835 836 837 838 839 840 841 842 843 844 845 846 0
127 -143 823 824 825 826 827 828 829 830 831 832 833 834 835 836 837 838 839 840 841 842 843 844 845 846 0
-127 143 823 824 825 826 827 828 829 830 831 832 833 834 835 836 837 838 839 840 841 842 843 844 845 846 0
128 -144 823 824 825 826 827 828 829 830 831 832 833 834 835 836 837 838 839 840 841 842 843 844 845 846 0
-128 144 823 824 825 826 827 828 829 830 831 832 833 834 835 836 837 838 839 840 841 842 843 844 845 846 0
129 -145 823 824 825 826 827 828 829 830 831 832 833 834 835 836 837 838 839 840 841 842 843 844 845 846 0
-129 145 823 824 825 826 827 828 829 830 831 832 833 834 835 836 837 838 839 840 841 842 843 844 845 846 0
130 -146 823 824 825 826 827 828 829 830 831 832 833 834 835 836 837 838 839 840 841 842 843 844 845 846 0
-130 146 823 824 825 826 827 828 829 830 831 832 833 834 835 836 837 838 839 840 841 842 843 844 845 846 0
7 -28 847 848 849 850 851 852 853 854 855 856 857 858 859 860 861 862 863 864 865 866 867 868 869 870 0
-7 28 847 848 849 850 851 852 853 854 855 856 857 858 859 860 861 862 863 864 865 866 867 868 869 870 0
8 -29 847 848 849 850 851 852 853 854 855 856 857 858 859 860 861 862 863 864 865 866 867 868 869 870 0
-8 29 847 848 849 850 851 852 853 854 855 856 857 858 859 860 861 862 863 864 865 866 867 868 869 870 0
9 -30 847 848 849 850 851 852 853 854 855 856 857 858 859 860 861 862 863 864 865 866 867 868 869 870 0
-9 30 847 848 849 850 851 852 853 854 855 856 857 858 859 860 861 862 863 864 865 866 867 868 869 870 0
10 -31 847 848 849 850 851 852 853 854 855 856 857 858 859 860 861 862 863 864 865 866 867 868 869 870 0
-10 31 847 848 849 850 851 852 853 854 855 856 857 858 859 860 861 862 863 864 865 866 867 868 869 870 0
11 -32 847 848 849 850 851 852 853 854 855 856 857 858 859 860 861 862 863 864 865 866 867 868 869 870 0
-11 32 847 848 849 850 851 852 853 854 855 856 857 858 859 860 861 862 863 864 865 866 867 868 869 870 0
12 -33 847 848 849 850 851 852 853 854 855 856 857 858 859 860 861 862 863 864 865 866 867 868 869 870 0
-12 33 847 848 849 850 851 852 853 854 855 856 857 858 859 860 861 862 863 864 865 866 867 868 869 870 0
131 -147 847 848 849 850 851 852 853 854 855 856 857 858 859 860 861 862 863 864 865 866 867 868 869 870 0
-131 147 847 848 849 850 851 852 853 854 855 856 857 858 859 860 861 862 863 864 865 866 867 868 869 870 0
132 -148 847 848 849 850 851 852 853 854 855 856 857 858 859 860 861 862 863 864 865 866 867 868 869 870 0
-132 148 847 848 849 850 851 852 853 854 855 856 857 858 859 860 861 862 863 864 865 866 867 868 869 870 0
133 -149 847 848 849 850 851 852 853 854 855 856 857 858 859 860 861 862 863 864 865 866 867 868 869 870 0
-133 149 847 848 849 850 851 852 853 854 855 856 857 858 859 860 861 862 863 864 865 866 867 868 869 870 0
134 -150 847 848 849 850 851 852 853 854 855 856 857 858 859 860 861 862 863 864 865 866 867 868 869 870 0
-134 150 847 848 849 850 851 852 853 854 855 856 857 858 859 860 861 862 863 864 865 866 867 868 869 870 0
13 -34 871 872 873 874 875 876 877 878 879 880 881 882 883 884 885 886 887 888 889 890 0
-13 34 871 872 873 874 875 876 877 878 879 880 881 882 883 884 885 886 887 888 889 890 0
14 -35 871 872 873 874 875 876 877 878 879 880 881 882 883 884 885 886 887 888 889 890 0
-14 35 871 872 873 874 875 876 877 878 879 880 881 882 883 884 885 886 887 888 889 890 0
15 -36 871 872 873 874 875 876 877 878 879 880 881 882 883 884 885 886 887 888 889 890 0
-15 36 871 872 873 874 875 876 877 878 879 880 881 882 883 884 885 886 887 888 889 890 0
16 -37 871 872 873 874 875 876 877 878 879 880 881 882 883 884 885 886 887 888 889 890 0
-16 37 871 872 873 874 875 876 877 878 879 880 881 882 883 884 885 886 887 888 889 890 0
17 -38 871 872 873 874 875 876 877 878 879 880 881 882 883 884 885 886 887 888 889 890 0
-17 38 871 872 873 874 875 876 877 878 879 880 881 882 883 884 885 886 887 888 889 890 0
135 -151 871 872 873 874 875 876 877 878 879 880 881 882 883 884 885 886 887 888 889 890 0
-135 151 871 872 873 874 875 876 877 878 879 880 881 882 883 884 885 886 887 888 889 890 0
136 -152 871 872 873 874 875 876 877 878 879 880 881 882 883 884 885 886 887 888 889 890 0
-136 152 871 872 873 874 875 876 877 878 879 880 881 882 883 884 885 886 887 888 889 890 0
137 -153 871 872 873 874 875 876 877 878 879 880 881 882 883 884 885 886 887 888 889 890 0
-137 153 871 872 873 874 875 876 877 878 879 880 881 882 883 884 885 886 887 888 889 890 0
138 -154 871 872 873 874 875 876 877 878 879 880 881 882 883 884 885 886 887 888 889 890 0
-138 154 871 872 873 874 875 876 877 878 879 880 881 882 883 884 885 886 887 888 889 890 0
18 -39 891 892 893 894 895 896 897 898 899 900 901 902 903 904 905 906 0
-18 39 891 892 893 894 895 896 897 898 899 900 901 902 903 904 905 906 0
19 -40 891 892 893 894 895 896 897 898 899 900 901 902 903 904 905 906 0
-19 40 891 892 893 894 895 896 897 898 899 900 901 902 903 904 905 906 0
20 -41 891 892 893 894 895 896 897 898 899 900 901 902 903 904 905 906 0
-20 41 891 892 893 894 895 896 897 898 899 900 901 902 903 904 905 906 0
21 -42 891 892 893 894 895 896 897 898 899 900 901 902 903 904 905 906 0
-21 42 891 892 893 894 895 896 897 898 899 900 901 902 903 904 905 906 0
139 -155 891 892 893 894 895 896 897 898 899 900 901 902 903 904 905 906 0
-139 155 891 892 893 894 895 896 897 898 899 900 901 902 903 904 905 906 0
140 -156 891 892 893 894 895 896 897 898 899 900 901 902 903 904 905 906 0
-140 156 891 892 893 894 895 896 897 898 899 900 901 902 903 904 905 906 0
141 -157 891 892 893 894 895 896 897 898 899 900 901 902 903 904 905 906 0
-141 157 891 892 893 894 895 896 897 898 899 900 901 902 903 904 905 906 0
142 -158 891 892 893 894 895 896 897 898 899 900 901 902 903 904 905 906 0
-142 158 891 892 893 894 895 896 897 898 899 900 901 902 903 904 905 906 0
823 824 825 826 827 828 829 830 831 832 833 834 835 836 837 838 839 840 841 842 843 844 845 846 847 848 849 850 851 852 853 854 855 856 857 858 859 860 861 862 863 864 865 866 867 868 869 870 871 872 873 874 875 876 877 878 879 880 881 882 883 884 885 886 887 888 889 890 891 892 893 894 895 896 897 898 899 900 901 902 903 904 905 906 0
-823 -824 0
-823 -825 0
-823 -826 0
-823 -827 0
-823 -828 0
-823 -829 0
-823 -830 0
-823 -831 0
-823 -832 0
-823 -833 0
-823 -834 0
-823 -835 0
-823 -836 0
-823 -837 0
-823 -838 0
-823 -839 0
-823 -840 0
-823 -841 0
-823 -842 0
-823 -843 0
-823 -844 0
-823 -845 0
-823 -846 0
-823 -847 0
-823 -848 0
-823 -849 0
-823 -850 0
-823 -851 0
-823 -852 0
-823 -853 0
-823 -854 0
-823 -855 0
-823 -856 0
-823 -857 0
-823 -858 0
-823 -859 0
-823 -860 0
-823 -861 0
-823 -862 0
-823 -863 0
-823 -864 0
-823 -865 0
-823 -866 0
-823 -867 0
-823 -868 0
-823 -869 0
-823 -870 0
-823 -871 0
-823 -872 0
-823 -873 0
-823 -874 0
-823 -875 0
-823 -876 0
-823 -877 0
-823 -878 0
-823 -879 0
-823 -880 0
-823 -881 0
-823 -882 0
-823 -883 0
-823 -884 0
-823 -885 0
-823 -886 0
-823 -887 0
-823 -888 0
-823 -889 0
-823 -890 0
-823 -891 0
-823 -892 0
-823 -893 0
-823 -894 0
-823 -895 0
-823 -896 0
-823 -897 0
-823 -898 0
-823 -899 0
-823 -900 0
-823 -901 0
-823 -902 0
-823 -903 0
-823 -904 0
-823 -905 0
-823 -906 0
-824 -825 0
-824 -826 0
-824 -827 0
-824 -828 0
-824 -829 0
-824 -830 0
-824 -831 0
-824 -832 0
-824 -833 0
-824 -834 0
-824 -835 0
-824 -836 0
-824 -837 0
-824 -838 0
-824 -839 0
-824 -840 0
-824 -841 0
-824 -842 0
-824 -843 0
-824 -844 0
-824 -845 0
-824 -846 0
-824 -847 0
-824 -848 0
-824 -849 0
-824 -850 0
-824 -851 0
-824 -852 0
-824 -853 0
-824 -854 0
-824 -855 0
-824 -856 0
-824 -857 0
-824 -858 0
-824 -859 0
-824 -860 0
-824 -861 0
-824 -862 0
-824 -863 0
-824 -864 0
-824 -865 0
-824 -866 0
-824 -867 0
-824 -868 0
-824 -869 0
-824 -870 0
-824 -871 0
-824 -872 0
-824 -873 0
-824 -874 0
-824 -875 0
-824 -876 0
-824 -877 0
-824 -878 0
-824 -879 0
-824 -880 0
-824 -881 0
-824 -882 0
-824 -883 0
-824 -884 0
-824 -885 0
-824 -886 0
-824 -887 0
-824 -888 0
-824 -889 0
-824 -890 0
-824 -891 0
-824 -892 0
-824 -893 0
-824 -894 0
-824 -895 0
-824 -896 0
-824 -897 0
-824 -898 0
-824 -899 0
-824 -900 0
-824 -901 0
-824 -902 0
-824 -903 0
-824 -904 0
-824 -905 0
-824 -906 0
-825 -826 0
-825 -827 0
-825 -828 0
-825 -829 0
-825 -830 0
-825 -831 0
-825 -832 0
-825 -833 0
-825 -834 0
-825 -835 0
-825 -836 0
-825 -837 0
-825 -838 0
-825 -839 0
-825 -840 0
-825 -841 0
-825 -842 0
-825 -843 0
-825 -844 0
-825 -845 0
-825 -846 0
-825 -847 0
-825 -848 0
-825 -849 0
-825 -850 0
-825 -851 0
-825 -852 0
-825 -853 0
-825 -854 0
-825 -855 0
-825 -856 0
-825 -857 0
-825 -858 0
-825 -859 0
-825 -860 0
-825 -861 0
-825 -862 0
-825 -863 0
-825 -864 0
-825 -865 0
-825 -866 0
-825 -867 0
-825 -868 0
-825 -869 0
-825 -870 0
-825 -871 0
-825 -872 0
-825 -873 0
-825 -874 0
-825 -875 0
-825 -876 0
-825 -877 0
-825 -878 0
-825 -879 0
-825 -880 0
-825 -881 0
-825 -882 0
-825 -883 0
-825 -884 0
-825 -885 0
-825 -886 0
-825 -887 0
-825 -888 0
-825 -889 0
-825 -890 0
-825 -891 0
-825 -892 0
-825 -893 0
-825 -894 0
-825 -895 0
-825 -896 0
-825 -897 0
-825 -898 0
-825 -899 0
-825 -900 0
-825 -901 0
-825 -902 0
-825 -903 0
-825 -904 0
-825 -905 0
-825 -906 0
-826 -827 0
-826 -828 0
-826 -829 0
-826 -830 0
-826 -831 0
-826 -832 0
-826 -833 0
-826 -834 0
-826 -835 0
-826 -836 0
-826 -837 0
-826 -838 0
-826 -839 0
-826 -840 0
-826 -841 0
-826 -842 0
-826 -843 0
-826 -844 0
-826 -845 0
-826 -846 0
-826 -847 0
-826 -848 0
-826 -849 0
-826 -850 0
-826 -851 0
-826 -852 0
-826 -853 0
-826 -854 0
-826 -855 0
-826 -856 0
-826 -857 0
-826 -858 0
-826 -859 0
-826 -860 0
-826 -861 0
-826 -862 0
-826 -863 0
-826 -864 0
-826 -865 0
-826 -866 0
-826 -867 0
-826 -868 0
-826 -869 0
-826 -870 0
-826 -871 0
-826 -872 0
-826 -873 0
-826 -874 0
-826 -875 0
-826 -876 0
-826 -877 0
-826 -878 0
-826 -879 0
-826 -880 0
-826 -881 0
-826 -882 0
-826 -883 0
-826 -884 0
-826 -885 0
-826 -886 0
-826 -887 0
-826 -888 0
-826 -889 0
-826 -890 0
-826 -891 0
-826 -892 0
-826 -893 0
-826 -894 0
-826 -895 0
-826 -896 0
-826 -897 0
-826 -898 0
-826 -899 0
-826 -900 0
-826 -901 0
-826 -902 0
-826 -903 0
-826 -904 0
-826 -905 0
-826 -906 0
-827 -828 0
-827 -829 0
-827 -830 0
-827 -831 0
-827 -832 0
-827 -833 0
-827 -834 0
-827 -835 0
-827 -836 0
-827 -837 0
-827 -838 0
-827 -839 0
-827 -840 0
-827 -841 0
-827 -842 0
-827 -843 0
-827 -844 0
-827 -845 0
-827 -846 0
-827 -847 0
-827 -848 0
-827 -849 0
-827 -850 0
-827 -851 0
-827 -852 0
-827 -853 0
-827 -854 0
-827 -855 0
-827 -856 0
-827 -857 0
-827 -858 0
-827 -859 0
-827 -860 0
-827 -861 0
-827 -862 0
-827 -863 0
-827 -864 0
-827 -865 0
-827 -866 0
-827 -867 0
-827 -868 0
-827 -869 0
-827 -870 0
-827 -871 0
-827 -872 0
-827 -873 0
-827 -874 0
-827 -875 0
-827 -876 0
-827 -877 0
-827 -878 0
-827 -879 0
-827 -880 0
-827 -881 0
-827 -882 0
-827 -883 0
-827 -884 0
-827 -885 0
-827 -886 0
-827 -887 0
-827 -888 0
-827 -889 0
-827 -890 0
-827 -891 0
-827 -892 0
-827 -893 0
-827 -894 0
-827 -895 0
-827 -896 0
-827 -897 0
-827 -898 0
-827 -899 0
-827 -900 0
-827 -901 0
-827 -902 0
-827 -903 0
-827 -904 0
-827 -905 0
-827 -906 0
-828 -829 0
-828 -830 0
-828 -831 0
-828 -832 0
-828 -833 0
-828 -834 0
-828 -835 0
-828 -836 0
-828 -837 0
-828 -838 0
-828 -839 0
-828 -840 0
-828 -841 0
-828 -842 0
-828 -843 0
-828 -844 0
-828 -845 0
-828 -846 0
-828 -847 0
-828 -848 0
-828 -849 0
-828 -850 0
-828 -851 0
-828 -852 0
-828 -853 0
-828 -854 0
-828 -855 0
-828 -856 0
-828 -857 0
-828 -858 0
-828 -859 0
-828 -860 0
-828 -861 0
-828 -862 0
-828 -863 0
-828 -864 0
-828 -865 0
-828 -866 0
-828 -867 0
-828 -868 0
-828 -869 0
-828 -870 0
-828 -871 0
-828 -872 0
-828 -873 0
-828 -874 0
-828 -875 0
-828 -876 0
-828 -877 0
-828 -878 0
-828 -879 0
-828 -880 0
-828 -881 0
-828 -882 0
-828 -883 0
-828 -884 0
-828 -885 0
-828 -886 0
-828 -887 0
-828 -888 0
-828 -889 0
-828 -890 0
-828 -891 0
-828 -892 0
-828 -893 0
-828 -894 0
-828 -895 0
-828 -896 0
-828 -897 0
-828 -898 0
-828 -899 0
-828 -900 0
-828 -901 0
-828 -902 0
-828 -903 0
-828 -904 0
-828 -905 0
-828 -906 0
-829 -830 0
-829 -831 0
-829 -832 0
-829 -833 0
-829 -834 0
-829 -835 0
-829 -836 0
-829 -837 0
-829 -838 0
-829 -839 0
-829 -840 0
-829 -841 0
-829 -842 0
-829 -843 0
-829 -844 0
-829 -845 0
-829 -846 0
-829 -847 0
-829 -848 0
-829 -849 0
-829 -850 0
-829 -851 0
-829 -852 0
-829 -853 0
-829 -854 0
-829 -855 0
-829 -856 0
-829 -857 0
-829 -858 0
-829 -859 0
-829 -860 0
-829 -861 0
-829 -862 0
-829 -863 0
-829 -864 0
-829 -865 0
-829 -866 0
-829 -867 0
-829 -868 0
-829 -869 0
-829 -870 0
-829 -871 0
-829 -872 0
-829 -873 0
-829 -874 0
-829 -875 0
-829 -876 0
-829 -877 0
-829 -878 0
-829 -879 0
-829 -880 0
-829 -881 0
-829 -882 0
-829 -883 0
-829 -884 0
-829 -885 0
-829 -886 0
-829 -887 0
-829 -888 0
-829 -889 0
-829 -890 0
-829 -891 0
-829 -892 0
-829 -893 0
-829 -894 0
-829 -895 0
-829 -896 0
-829 -897 0
-829 -898 0
-829 -899 0
-829 -900 0
-829 -901 0
-829 -902 0
-829 -903 0
-829 -904 0
-829 -905 0
-829 -906 0
-830 -831 0
-830 -832 0
-830 -833 0
-830 -834 0
-830 -835 0
-830 -836 0
-830 -837 0
-830 -838 0
-830 -839 0
-830 -840 0
-830 -841 0
-830 -842 0
-830 -843 0
-830 -844 0
-830 -845 0
-830 -846 0
-830 -847 0
-830 -848 0
-830 -849 0
-830 -850 0
-830 -851 0
-830 -852 0
-830 -853 0
-830 -854 0
-830 -855 0
-830 -856 0
-830 -857 0
-830 -858 0
-830 -859 0
-830 -860 0
-830 -861 0
-830 -862 0
-830 -863 0
-830 -864 0
-830 -865 0
-830 -866 0
-830 -867 0
-830 -868 0
-830 -869 0
-830 -870 0
-830 -871 0
-830 -872 0
-830 -873 0
-830 -874 0
-830 -875 0
-830 -876 0
-830 -877 0
-830 -878 0
-830 -879 0
-830 -880 0
-830 -881 0
-830 -882 0
-830 -883 0
-830 -884 0
-830 -885 0
-830 -886 0
-830 -887 0
-830 -888 0
-830 -889 0
-830 -890 0
-830 -891 0
-830 -892 0
-830 -893 0
-830 -894 0
-830 -895 0
-830 -896 0
-830 -897 0
-830 -898 0
-830 -899 0
-830 -900 0
-830 -901 0
-830 -902 0
-830 -903 0
-830 -904 0
-830 -905 0
-830 -906 0
-831 -832 0
-831 -833 0
-831 -834 0
-831 -835 0
-831 -836 0
-831 -837 0
-831 -838 0
-831 -839 0
-831 -840 0
-831 -841 0
-831 -842 0
-831 -843 0
-831 -844 0
-831 -845 0
-831 -846 0
-831 -847 0
-831 -848 0
-831 -849 0
-831 -850 0
-831 -851 0
-831 -852 0
-831 -853 0
-831 -854 0
-831 -855 0
-831 -856 0
-831 -857 0
-831 -858 0
-831 -859 0
-831 -860 0
-831 -861 0
-831 -862 0
-831 -863 0
-831 -864 0
-831 -865 0
-831 -866 0
-831 -867 0
-831 -868 0
-831 -869 0
-831 -870 0
-831 -871 0
-831 -872 0
-831 -873 0
-831 -874 0
-831 -875 0
-831 -876 0
-831 -877 0
-831 -878 0
-831 -879 0
-831 -880 0
-831 -881 0
-831 -882 0
-831 -883 0
-831 -884 0
-831 -885 0
-831 -886 0
-831 -887 0
-831 -888 0
-831 -889 0
-831 -890 0
-831 -891 0
-831 -892 0
-831 -893 0
-831 -894 0
-831 -895 0
-831 -896 0
-831 -897 0
-831 -898 0
-831 -899 0
-831 -900 0
-831 -901 0
-831 -902 0
-831 -903 0
-831 -904 0
-831 -905 0
-831 -906 0
-832 -833 0
-832 -834 0
-832 -835 0
-832 -836 0
-832 -837 0
-832 -838 0
-832 -839 0
-832 -840 0
-832 -841 0
-832 -842 0
-832 -843 0
-832 -844 0
-832 -845 0
-832 -846 0
-832 -847 0
-832 -848 0
-832 -849 0
-832 -850 0
-832 -851 0
-832 -852 0
-832 -853 0
-832 -854 0
-832 -855 0
-832 -856 0
-832 -857 0
-832 -858 0
-832 -859 0
-832 -860 0
-832 -861 0
-832 -862 0
-832 -863 0
-832 -864 0
-832 -865 0
-832 -866 0
-832 -867 0
-832 -868 0
-832 -869 0
-832 -870 0
-832 -871 0
-832 -872 0
-832 -873 0
-832 -874 0
-832 -875 0
-832 -876 0
-832 -877 0
-832 -878 0
-832 -879 0
-832 -880 0
-832 -881 0
-832 -882 0
-832 -883 0
-832 -884 0
-832 -885 0
-832 -886 0
-832 -887 0
-832 -888 0
-832 -889 0
-832 -890 0
-832 -891 0
-832 -892 0
-832 -893 0
-832 -894 0
-832 -895 0
-832 -896 0
-832 -897 0
-832 -898 0
-832 -899 0
-832 -900 0
-832 -901 0
-832 -902 0
-832 -903 0
-832 -904 0
-832 -905 0
-832 -906 0
-833 -834 0
-833 -835 0
-833 -836 0
-833 -837 0
-833 -838 0
-833 -839 0
-833 -840 0
-833 -841 0
-833 -842 0
-833 -843 0
-833 -844 0
-833 -845 0
-833 -846 0
-833 -847 0
-833 -848 0
-833 -849 0
-833 -850 0
-833 -851 0
-833 -852 0
-833 -853 0
-833 -854 0
-833 -855 0
-833 -856 0
-833 -857 0
-833 -858 0
-833 -859 0
-833 -860 0
-833 -861 0
-833 -862 0
-833 -863 0
-833 -864 0
-833 -865 0
-833 -866 0
-833 -867 0
-833 -868 0
-833 -869 0
-833 -870 0
-833 -871 0
-833 -872 0
-833 -873 0
-833 -874 0
-833 -875 0
-833 -876 0
-833 -877 0
-833 -878 0
-833 -879 0
-833 -880 0
-833 -881 0
-833 -882 0
-833 -883 0
-833 -884 0
-833 -885 0
-833 -886 0
-833 -887 0
-833 -888 0
-833 -889 0
-833 -890 0
-833 -891 0
-833 -892 0
-833 -893 0
-833 -894 0
-833 -895 0
-833 -896 0
-833 -897 0
-833 -898 0
-833 -899 0
-833 -900 0
-833 -901 0
-833 -902 0
-833 -903 0
-833 -904 0
-833 -905 0
-833 -906 0
-834 -835 0
-834 -836 0
-834 -837 0
-834 -838 0
-834 -839 0
-834 -840 0
-834 -841 0
-834 -842 0
-834 -843 0
-834 -844 0
-834 -845 0
-834 -846 0
-834 -847 0
-834 -848 0
-834 -849 0
-834 -850 0
-834 -851 0
-834 -852 0
-834 -853 0
-834 -854 0
-834 -855 0
-834 -856 0
-834 -857 0
-834 -858 0
-834 -859 0
-834 -860 0
-834 -861 0
-834 -862 0
-834 -863 0
-834 -864 0
-834 -865 0
-834 -866 0
-834 -867 0
-834 -868 0
-834 -869 0
-834 -870 0
-834 -871 0
-834 -872 0
-834 -873 0
-834 -874 0
-834 -875 0
-834 -876 0
-834 -877 0
-834 -878 0
-834 -879 0
-834 -880 0
-834 -881 0
-834 -882 0
-834 -883 0
-834 -884 0
-834 -885 0
-834 -886 0
-834 -887 0
-834 -888 0
-834 -889 0
-834 -890 0
-834 -891 0
-834 -892 0
-834 -893 0
-834 -894 0
-834 -895 0
-834 -896 0
-834 -897 0
-834 -898 0
-834 -899 0
-834 -900 0
-834 -901 0
-834 -902 0
-834 -903 0
-834 -904 0
-834 -905 0
-834 -906 0
-835 -836 0
-835 -837 0
-835 -838 0
-835 -839 0
-835 -840 0
-835 -841 0
-835 -842 0
-835 -843 0
-835 -844 0
-835 -845 0
-835 -846 0
-835 -847 0
-835 -848 0
-835 -849 0
-835 -850 0
-835 -851 0
-835 -852 0
-835 -853 0
-835 -854 0
-835 -855 0
-835 -856 0
-835 -857 0
-835 -858 0
-835 -859 0
-835 -860 0
-835 -861 0
-835 -862 0
-835 -863 0
-835 -864 0
-835 -865 0
-835 -866 0
-835 -867 0
-835 -868 0
-835 -869 0
-835 -870 0
-835 -871 0
-835 -872 0
-835 -873 0
-835 -874 0
-835 -875 0
-835 -876 0
-835 -877 0
-835 -878 0
-835 -879 0
-835 -880 0
-835 -881 0
-835 -882 0
-835 -883 0
-835 -884 0
-835 -885 0
-835 -886 0
-835 -887 0
-835 -888 0
-835 -889 0
-835 -890 0
-835 -891 0
-835 -892 0
-835 -893 0
-835 -894 0
-835 -895 0
-835 -896 0
-835 -897 0
-835 -898 0
-835 -899 0
-835 -900 0
-835 -901 0
-835 -902 0
-835 -903 0
-835 -904 0
-835 -905 0
-835 -906 0
-836 -837 0
-836 -838 0
-836 -839 0
-836 -840 0
-836 -841 0
-836 -842 0
-836 -843 0
-836 -844 0
-836 -845 0
-836 -846 0
-836 -847 0
-836 -848 0
-836 -849 0
-836 -850 0
-836 -851 0
-836 -852 0
-836 -853 0
-836 -854 0
-836 -855 0
-836 -856 0
-836 -857 0
-836 -858 0
-836 -859 0
-836 -860 0
-836 -861 0
-836 -862 0
-836 -863 0
-836 -864 0
-836 -865 0
-836 -866 0
-836 -867 0
-836 -868 0
-836 -869 0
-836 -870 0
-836 -871 0
-836 -872 0
-836 -873 0
-836 -874 0
-836 -875 0
-836 -876 0
-836 -877 0
-836 -878 0
-836 -879 0
-836 -880 0
-836 -881 0
-836 -882 0
-836 -883 0
-836 -884 0
-836 -885 0
-836 -886 0
-836 -887 0
-836 -888 0
-836 -889 0
-836 -890 0
-836 -891 0
-836 -892 0
-836 -893 0
-836 -894 0
-836 -895 0
-836 -896 0
-836 -897 0
-836 -898 0
-836 -899 0
-836 -900 0
-836 -901 0
-836 -902 0
-836 -903 0
-836 -904 0
-836 -905 0
-836 -906 0
-837 -838 0
-837 -839 0
-837 -840 0
-837 -841 0
-837 -842 0
-837 -843 0
-837 -844 0
-837 -845 0
-837 -846 0
-837 -847 0
-837 -848 0
-837 -849 0
-837 -850 0
-837 -851 0
-837 -852 0
-837 -853 0
-837 -854 0
-837 -855 0
-837 -856 0
-837 -857 0
-837 -858 0
-837 -859 0
-837 -860 0
-837 -861 0
-837 -862 0
-837 -863 0
-837 -864 0
-837 -865 0
-837 -866 0
-837 -867 0
-837 -868 0
-837 -869 0
-837 -870 0
-837 -871 0
-837 -872 0
-837 -873 0
-837 -874 0
-837 -875 0
-837 -876 0
-837 -877 0
-837 -878 0
-837 -879 0
-837 -880 0
-837 -881 0
-837 -882 0
-837 -883 0
-837 -884 0
-837 -885 0
-837 -886 0
-837 -887 0
-837 -888 0
-837 -889 0
-837 -890 0
-837 -891 0
-837 -892 0
-837 -893 0
-837 -894 0
-837 -895 0
-837 -896 0
-837 -897 0
-837 -898 0
-837 -899 0
-837 -900 0
-837 -901 0
-837 -902 0
-837 -903 0
-837 -904 0
-837 -905 0
-837 -906 0
-838 -839 0
-838 -840 0
-838 -841 0
-838 -842 0
-838 -843 0
-838 -844 0
-838 -845 0
-838 -846 0
-838 -847 0
-838 -848 0
-838 -849 0
-838 -850 0
-838 -851 0
-838 -852 0
-838 -853 0
-838 -854 0
-838 -855 0
-838 -856 0
-838 -857 0
-838 -858 0
-838 -859 0
-838 -860 0
-838 -861 0
-838 -862 0
-838 -863 0
-838 -864 0
-838 -865 0
-838 -866 0
-838 -867 0
-838 -868 0
-838 -869 0
-838 -870 0
-838 -871 0
-838 -872 0
-838 -873 0
-838 -874 0
-838 -875 0
-838 -876 0
-838 -877 0
-838 -878 0
-838 -879 0
-838 -880 0
-838 -881 0
-838 -882 0
-838 -883 0
-838 -884 0
-838 -885 0
-838 -886 0
-838 -887 0
-838 -888 0
-838 -889 0
-838 -890 0
-838 -891 0
-838 -892 0
-838 -893 0
-838 -894 0
-838 -895 0
-838 -896 0
-838 -897 0
-838 -898 0
-838 -899 0
-838 -900 0
-838 -901 0
-838 -902 0
-838 -903 0
-838 -904 0
-838 -905 0
-838 -906 0
-839 -840 0
-839 -841 0
-839 -842 0
-839 -843 0
-839 -844 0
-839 -845 0
-839 -846 0
-839 -847 0
-839 -848 0
-839 -849 0
-839 -850 0
-839 -851 0
-839 -852 0
-839 -853 0
-839 -854 0
-839 -855 0
-839 -856 0
-839 -857 0
-839 -858 0
-839 -859 0
-839 -860 0
-839 -861 0
-839 -862 0
-839 -863 0
-839 -864 0
-839 -865 0
-839 -866 0
-839 -867 0
-839 -868 0
-839 -869 0
-839 -870 0
-839 -871 0
-839 -872 0
-839 -873 0
-839 -874 0
-839 -875 0
-839 -876 0
-839 -877 0
-839 -878 0
-839 -879 0
-839 -880 0
-839 -881 0
-839 -882 0
-839 -883 0
-839 -884 0
-839 -885 0
-839 -886 0
-839 -887 0
-839 -888 0
-839 -889 0
-839 -890 0
-839 -891 0
-839 -892 0
-839 -893 0
-839 -894 0
-839 -895 0
-839 -896 0
-839 -897 0
-839 -898 0
-839 -899 0
-839 -900 0
-839 -901 0
-839 -902 0
-839 -903 0
-839 -904 0
-839 -905 0
-839 -906 0
-840 -841 0
-840 -842 0
-840 -843 0
-840 -844 0
-840 -845 0
-840 -846 0
-840 -847 0
-840 -848 0
-840 -849 0
-840 -850 0
-840 -851 0
-840 -852 0
-840 -853 0
-840 -854 0
-840 -855 0
-840 -856 0
-840 -857 0
-840 -858 0
-840 -859 0
-840 -860 0
-840 -861 0
-840 -862 0
-840 -863 0
-840 -864 0
-840 -865 0
-840 -866 0
-840 -867 0
-840 -868 0
-840 -869 0
-840 -870 0
-840 -871 0
-840 -872 0
-840 -873 0
-840 -874 0
-840 -875 0
-840 -876 0
-840 -877 0
-840 -878 0
-840 -879 0
-840 -880 0
-840 -881 0
-840 -882 0
-840 -883 0
-840 -884 0
-840 -885 0
-840 -886 0
-840 -887 0
-840 -888 0
-840 -889 0
-840 -890 0
-840 -891 0
-840 -892 0
-840 -893 0
-840 -894 0
-840 -895 0
-840 -896 0
-840 -897 0
-840 -898 0
-840 -899 0
-840 -900 0
-840 -901 0
-840 -902 0
-840 -903 0
-840 -904 0
-840 -905 0
-840 -906 0
-841 -842 0
-841 -843 0
-841 -844 0
-841 -845 0
-841 -846 0
-841 -847 0
-841 -848 0
-841 -849 0
-841 -850 0
-841 -851 0
-841 -852 0
-841 -853 0
-841 -854 0
-841 -855 0
-841 -856 0
-841 -857 0
-841 -858 0
-841 -859 0
-841 -860 0
-841 -861 0
-841 -862 0
-841 -863 0
-841 -864 0
-841 -865 0
-841 -866 0
-841 -867 0
-841 -868 0
-841 -869 0
-841 -870 0
-841 -871 0
-841 -872 0
-841 -873 0
-841 -874 0
-841 -875 0
-841 -876 0
-841 -877 0
-841 -878 0
-841 -879 0
-841 -880 0
-841 -881 0
-841 -882 0
-841 -883 0
-841 -884 0
-841 -885 0
-841 -886 0
-841 -887 0
-841 -888 0
-841 -889 0
-841 -890 0
-841 -891 0
-841 -892 0
-841 -893 0
-841 -894 0
-841 -895 0
-841 -896 0
-841 -897 0
-841 -898 0
-841 -899 0
-841 -900 0
-841 -901 0
-841 -902 0
-841 -903 0
-841 -904 0
-841 -905 0
-841 -906 0
-842 -843 0
-842 -844 0
-842 -845 0
-842 -846 0
-842 -847 0
-842 -848 0
-842 -849 0
-842 -850 0
-842 -851 0
-842 -852 0
-842 -853 0
-842 -854 0
-842 -855 0
-842 -856 0
-842 -857 0
-842 -858 0
-842 -859 0
-842 -860 0
-842 -861 0
-842 -862 0
-842 -863 0
-842 -864 0
-842 -865 0
-842 -866 0
-842 -867 0
-842 -868 0
-842 -869 0
-842 -870 0
-842 -871 0
-842 -872 0
-842 -873 0
-842 -874 0
-842 -875 0
-842 -876 0
-842 -877 0
-842 -878 0
-842 -879 0
-842 -880 0
-842 -881 0
-842 -882 0
-842 -883 0
-842 -884 0
-842 -885 0
-842 -886 0
-842 -887 0
-842 -888 0
-842 -889 0
-842 -890 0
-842 -891 0
-842 -892 0
-842 -893 0
-842 -894 0
-842 -895 0
-842 -896 0
-842 -897 0
-842 -898 0
-842 -899 0
-842 -900 0
-842 -901 0
-842 -902 0
-842 -903 0
-842 -904 0
-842 -905 0
-842 -906 0
-843 -844 0
-843 -845 0
-843 -846 0
-843 -847 0
-843 -848 0
-843 -849 0
-843 -850 0
-843 -851 0
-843 -852 0
-843 -853 0
-843 -854 0
-843 -855 0
-843 -856 0
-843 -857 0
-843 -858 0
-843 -859 0
-843 -860 0
-843 -861 0
-843 -862 0
-843 -863 0
-843 -864 0
-843 -865 0
-843 -866 0
-843 -867 0
-843 -868 0
-843 -869 0
-843 -870 0
-843 -871 0
-843 -872 0
-843 -873 0
-843 -874 0
-843 -875 0
-843 -876 0
-843 -877 0
-843 -878 0
-843 -879 0
-843 -880 0
-843 -881 0
-843 -882 0
-843 -883 0
-843 -884 0
-843 -885 0
-843 -886 0
-843 -887 0
-843 -888 0
-843 -889 0
-843 -890 0
-843 -891 0
-843 -892 0
-843 -893 0
-843 -894 0
-843 -895 0
-843 -896 0
-843 -897 0
-843 -898 0
-843 -899 0
-843 -900 0
-843 -901 0
-843 -902 0
-843 -903 0
-843 -904 0
-843 -905 0
-843 -906 0
-844 -845 0
-844 -846 0
-844 -847 0
-844 -848 0
-844 -849 0
-844 -850 0
-844 -851 0
-844 -852 0
-844 -853 0
-844 -854 0
-844 -855 0
-844 -856 0
-844 -857 0
-844 -858 0
-844 -859 0
-844 -860 0
-844 -861 0
-844 -862 0
-844 -863 0
-844 -864 0
-844 -865 0
-844 -866 0
-844 -867 0
-844 -868 0
-844 -869 0
-844 -870 0
-844 -871 0
-844 -872 0
-844 -873 0
-844 -874 0
-844 -875 0
-844 -876 0
-844 -877 0
-844 -878 0
-844 -879 0
-844 -880 0
-844 -881 0
-844 -882 0
-844 -883 0
-844 -884 0
-844 -885 0
-844 -886 0
-844 -887 0
-844 -888 0
-844 -889 0
-844 -890 0
-844 -891 0
-844 -892 0
-844 -893 0
-844 -894 0
-844 -895 0
-844 -896 0
-844 -897 0
-844 -898 0
-844 -899 0
-844 -900 0
-844 -901 0
-844 -902 0
-844 -903 0
-844 -904 0
-844 -905 0
-844 -906 0
-845 -846 0
-845 -847 0
-845 -848 0
-845 -849 0
-845 -850 0
-845 -851 0
-845 -852 0
-845 -853 0
-845 -854 0
-845 -855 0
-845 -856 0
-845 -857 0
-845 -858 0
-845 -859 0
-845 -860 0
-845 -861 0
-845 -862 0
-845 -863 0
-845 -864 0
-845 -865 0
-845 -866 0
-845 -867 0
-845 -868 0
-845 -869 0
-845 -870 0
-845 -871 0
-845 -872 0
-845 -873 0
-845 -874 0
-845 -875 0
-845 -876 0
-845 -877 0
-845 -878 0
-845 -879 0
-845 -880 0
-845 -881 0
-845 -882 0
-845 -883 0
-845 -884 0
-845 -885 0
-845 -886 0
-845 -887 0
-845 -888 0
-845 -889 0
-845 -890 0
-845 -891 0
-845 -892 0
-845 -893 0
-845 -894 0
-845 -895 0
-845 -896 0
-845 -897 0
-845 -898 0
-845 -899 0
-845 -900 0
-845 -901 0
-845 -902 0
-845 -903 0
-845 -904 0
-845 -905 0
-845 -906 0
-846 -847 0
-846 -848 0
-846 -849 0
-846 -850 0
-846 -851 0
-846 -852 0
-846 -853 0
-846 -854 0
-846 -855 0
-846 -856 0
-846 -857 0
-846 -858 0
-846 -859 0
-846 -860 0
-846 -861 0
-846 -862 0
-846 -863 0
-846 -864 0
-846 -865 0
-846 -866 0
-846 -867 0
-846 -868 0
-846 -869 0
-846 -870 0
-846 -871 0
-846 -872 0
-846 -873 0
-846 -874 0
-846 -875 0
-846 -876 0
-846 -877 0
-846 -878 0
-846 -879 0
-846 -880 0
-846 -881 0
-846 -882 0
-846 -883 0
-846 -884 0
-846 -885 0
-846 -886 0
-846 -887 0
-846 -888 0
-846 -889 0
-846 -890 0
-846 -891 0
-846 -892 0
-846 -893 0
-846 -894 0
-846 -895 0
-846 -896 0
-846 -897 0
-846 -898 0
-846 -899 0
-846 -900 0
-846 -901 0
-846 -902 0
-846 -903 0
-846 -904 0
-846 -905 0
-846 -906 0
-847 -848 0
-847 -849 0
-847 -850 0
-847 -851 0
-847 -852 0
-847 -853 0
-847 -854 0
-847 -855 0
-847 -856 0
-847 -857 0
-847 -858 0
-847 -859 0
-847 -860 0
-847 -861 0
-847 -862 0
-847 -863 0
-847 -864 0
-847 -865 0
-847 -866 0
-847 -867 0
-847 -868 0
-847 -869 0
-847 -870 0
-847 -871 0
-847 -872 0
-847 -873 0
-847 -874 0
-847 -875 0
-847 -876 0
-847 -877 0
-847 -878 0
-847 -879 0
-847 -880 0
-847 -881 0
-847 -882 0
-847 -883 0
-847 -884 0
-847 -885 0
-847 -886 0
-847 -887 0
-847 -888 0
-847 -889 0
-847 -890 0
-847 -891 0
-847 -892 0
-847 -893 0
-847 -894 0
-847 -895 0
-847 -896 0
-847 -897 0
-847 -898 0
-847 -899 0
-847 -900 0
-847 -901 0
-847 -902 0
-847 -903 0
-847 -904 0
-847 -905 0
-847 -906 0
-848 -849 0
-848 -850 0
-848 -851 0
-848 -852 0
-848 -853 0
-848 -854 0
-848 -855 0
-848 -856 0
-848 -857 0
-848 -858 0
-848 -859 0
-848 -860 0
-848 -861 0
-848 -862 0
-848 -863 0
-848 -864 0
-848 -865 0
-848 -866 0
-848 -867 0
-848 -868 0
-848 -869 0
-848 -870 0
-848 -871 0
-848 -872 0
-848 -873 0
-848 -874 0
-848 -875 0
-848 -876 0
-848 -877 0
-848 -878 0
-848 -879 0
-848 -880 0
-848 -881 0
-848 -882 0
-848 -883 0
-848 -884 0
-848 -885 0
-848 -886 0
-848 -887 0
-848 -888 0
-848 -889 0
-848 -890 0
-848 -891 0
-848 -892 0
-848 -893 0
-848 -894 0
-848 -895 0
-848 -896 0
-848 -897 0
-848 -898 0
-848 -899 0
-848 -900 0
-848 -901 0
-848 -902 0
-848 -903 0
-848 -904 0
-848 -905 0
-848 -906 0
-849 -850 0
-849 -851 0
-849 -852 0
-849 -853 0
-849 -854 0
-849 -855 0
-849 -856 0
-849 -857 0
-849 -858 0
-849 -859 0
-849 -860 0
-849 -861 0
-849 -862 0
-849 -863 0
-849 -864 0
-849 -865 0
-849 -866 0
-849 -867 0
-849 -868 0
-849 -869 0
-849 -870 0
-849 -871 0
-849 -872 0
-849 -873 0
-849 -874 0
-849 -875 0
-849 -876 0
-849 -877 0
-849 -878 0
-849 -879 0
-849 -880 0
-849 -881 0
-849 -882 0
-849 -883 0
-849 -884 0
-849 -885 0
-849 -886 0
-849 -887 0
-849 -888 0
-849 -889 0
-849 -890 0
-849 -891 0
-849 -892 0
-849 -893 0
-849 -894 0
-849 -895 0
-849 -896 0
-849 -897 0
-849 -898 0
-849 -899 0
-849 -900 0
-849 -901 0
-849 -902 0
-849 -903 0
-849 -904 0
-849 -905 0
-849 -906 0
-850 -851 0
-850 -852 0
-850 -853 0
-850 -854 0
-850 -855 0
-850 -856 0
-850 -857 0
-850 -858 0
-850 -859 0
-850 -860 0
-850 -861 0
-850 -862 0
-850 -863 0
-850 -864 0
-850 -865 0
-850 -866 0
-850 -867 0
-850 -868 0
-850 -869 0
-850 -870 0
-850 -871 0
-850 -872 0
-850 -873 0
-850 -874 0
-850 -875 0
-850 -876 0
-850 -877 0
-850 -878 0
-850 -879 0
-850 -880 0
-850 -881 0
-850 -882 0
-850 -883 0
-850 -884 0
-850 -885 0
-850 -886 0
-850 -887 0
-850 -888 0
-850 -889 0
-850 -890 0
-850 -891 0
-850 -892 0
-850 -893 0
-850 -894 0
-850 -895 0
-850 -896 0
-850 -897 0
-850 -898 0
-850 -899 0
-850 -900 0
-850 -901 0
-850 -902 0
-850 -903 0
-850 -904 0
-850 -905 0
-850 -906 0
-851 -852 0
-851 -853 0
-851 -854 0
-851 -855 0
-851 -856 0
-851 -857 0
-851 -858 0
-851 -859 0
-851 -860 0
-851 -861 0
-851 -862 0
-851 -863 0
-851 -864 0
-851 -865 0
-851 -866 0
-851 -867 0
-851 -868 0
-851 -869 0
-851 -870 0
-851 -871 0
-851 -872 0
-851 -873 0
-851 -874 0
-851 -875 0
-851 -876 0
-851 -877 0
-851 -878 0
-851 -879 0
-851 -880 0
-851 -881 0
-851 -882 0
-851 -883 0
-851 -884 0
-851 -885 0
-851 -886 0
-851 -887 0
-851 -888 0
-851 -889 0
-851 -890 0
-851 -891 0
-851 -892 0
-851 -893 0
-851 -894 0
-851 -895 0
-851 -896 0
-851 -897 0
-851 -898 0
-851 -899 0
-851 -900 0
-851 -901 0
-851 -902 0
-851 -903 0
-851 -904 0
-851 -905 0
-851 -906 0
-852 -853 0
-852 -854 0
-852 -855 0
-852 -856 0
-852 -857 0
-852 -858 0
-852 -859 0
-852 -860 0
-852 -861 0
-852 -862 0
-852 -863 0
-852 -864 0
-852 -865 0
-852 -866 0
-852 -867 0
-852 -868 0
-852 -869 0
-852 -870 0
-852 -871 0
-852 -872 0
-852 -873 0
-852 -874 0
-852 -875 0
-852 -876 0
-852 -877 0
-852 -878 0
-852 -879 0
-852 -880 0
-852 -881 0
-852 -882 0
-852 -883 0
-852 -884 0
-852 -885 0
-852 -886 0
-852 -887 0
-852 -888 0
-852 -889 0
-852 -890 0
-852 -891 0
-852 -892 0
-852 -893 0
-852 -894 0
-852 -895 0
-852 -896 0
-852 -897 0
-852 -898 0
-852 -899 0
-852 -900 0
-852 -901 0
-852 -902 0
-852 -903 0
-852 -904 0
-852 -905 0
-852 -906 0
-853 -854 0
-853 -855 0
-853 -856 0
-853 -857 0
-853 -858 0
-853 -859 0
-853 -860 0
-853 -861 0
-853 -862 0
-853 -863 0
-853 -864 0
-853 -865 0
-853 -866 0
-853 -867 0
-853 -868 0
-853 -869 0
-853 -870 0
-853 -871 0
-853 -872 0
-853 -873 0
-853 -874 0
-853 -875 0
-853 -876 0
-853 -877 0
-853 -878 0
-853 -879 0
-853 -880 0
-853 -881 0
-853 -882 0
-853 -883 0
-853 -884 0
-853 -885 0
-853 -886 0
-853 -887 0
-853 -888 0
-853 -889 0
-853 -890 0
-853 -891 0
-853 -892 0
-853 -893 0
-853 -894 0
-853 -895 0
-853 -896 0
-853 -897 0
-853 -898 0
-853 -899 0
-853 -900 0
-853 -901 0
-853 -902 0
-853 -903 0
-853 -904 0
-853 -905 0
-853 -906 0
-854 -855 0
-854 -856 0
-854 -857 0
-854 -858 0
-854 -859 0
-854 -860 0
-854 -861 0
-854 -862 0
-854 -863 0
-854 -864 0
-854 -865 0
-854 -866 0
-854 -867 0
-854 -868 0
-854 -869 0
-854 -870 0
-854 -871 0
-854 -872 0
-854 -873 0
-854 -874 0
-854 -875 0
-854 -876 0
-854 -877 0
-854 -878 0
-854 -879 0
-854 -880 0
-854 -881 0
-854 -882 0
-854 -883 0
-854 -884 0
-854 -885 0
-854 -886 0
-854 -887 0
-854 -888 0
-854 -889 0
-854 -890 0
-854 -891 0
-854 -892 0
-854 -893 0
-854 -894 0
-854 -895 0
-854 -896 0
-854 -897 0
-854 -898 0
-854 -899 0
-854 -900 0
-854 -901 0
-854 -902 0
-854 -903 0
-854 -904 0
-854 -905 0
-854 -906 0
-855 -856 0
-855 -857 0
-855 -858 0
-855 -859 0
-855 -860 0
-855 -861 0
-855 -862 0
-855 -863 0
-855 -864 0
-855 -865 0
-855 -866 0
-855 -867 0
-855 -868 0
-855 -869 0
-855 -870 0
-855 -871 0
-855 -872 0
-855 -873 0
-855 -874 0
-855 -875 0
-855 -876 0
-855 -877 0
-855 -878 0
-855 -879 0
-855 -880 0
-855 -881 0
-855 -882 0
-855 -883 0
-855 -884 0
-855 -885 0
-855 -886 0
-855 -887 0
-855 -888 0
-855 -889 0
-855 -890 0
-855 -891 0
-855 -892 0
-855 -893 0
-855 -894 0
-855 -895 0
-855 -896 0
-855 -897 0
-855 -898 0
-855 -899 0
-855 -900 0
-855 -901 0
-855 -902 0
-855 -903 0
-855 -904 0
-855 -905 0
-855 -906 0
-856 -857 0
-856 -858 0
-856 -859 0
-856 -860 0
-856 -861 0
-856 -862 0
-856 -863 0
-856 -864 0
-856 -865 0
-856 -866 0
-856 -867 0
-856 -868 0
-856 -869 0
-856 -870 0
-856 -871 0
-856 -872 0
-856 -873 0
-856 -874 0
-856 -875 0
-856 -876 0
-856 -877 0
-856 -878 0
-856 -879 0
-856 -880 0
-856 -881 0
-856 -882 0
-856 -883 0
-856 -884 0
-856 -885 0
-856 -886 0
-856 -887 0
-856 -888 0
-856 -889 0
-856 -890 0
-856 -891 0
-856 -892 0
-856 -893 0
-856 -894 0
-856 -895 0
-856 -896 0
-856 -897 0
-856 -898 0
-856 -899 0
-856 -900 0
-856 -901 0
-856 -902 0
-856 -903 0
-856 -904 0
-856 -905 0
-856 -906 0
-857 -858 0
-857 -859 0
-857 -860 0
-857 -861 0
-857 -862 0
-857 -863 0
-857 -864 0
-857 -865 0
-857 -866 0
-857 -867 0
-857 -868 0
-857 -869 0
-857 -870 0
-857 -871 0
-857 -872 0
-857 -873 0
-857 -874 0
-857 -875 0
-857 -876 0
-857 -877 0
-857 -878 0
-857 -879 0
-857 -880 0
-857 -881 0
-857 -882 0
-857 -883 0
-857 -884 0
-857 -885 0
-857 -886 0
-857 -887 0
-857 -888 0
-857 -889 0
-857 -890 0
-857 -891 0
-857 -892 0
-857 -893 0
-857 -894 0
-857 -895 0
-857 -896 0
-857 -897 0
-857 -898 0
-857 -899 0
-857 -900 0
-857 -901 0
-857 -902 0
-857 -903 0
-857 -904 0
-857 -905 0
-857 -906 0
-858 -859 0
-858 -860 0
-858 -861 0
-858 -862 0
-858 -863 0
-858 -864 0
-858 -865 0
-858 -866 0
-858 -867 0
-858 -868 0
-858 -869 0
-858 -870 0
-858 -871 0
-858 -872 0
-858 -873 0
-858 -874 0
-858 -875 0
-858 -876 0
-858 -877 0
-858 -878 0
-858 -879 0
-858 -880 0
-858 -881 0
-858 -882 0
-858 -883 0
-858 -884 0
-858 -885 0
-858 -886 0
-858 -887 0
-858 -888 0
-858 -889 0
-858 -890 0
-858 -891 0
-858 -892 0
-858 -893 0
-858 -894 0
-858 -895 0
-858 -896 0
-858 -897 0
-858 -898 0
-858 -899 0
-858 -900 0
-858 -901 0
-858 -902 0
-858 -903 0
-858 -904 0
-858 -905 0
-858 -906 0
-859 -860 0
-859 -861 0
-859 -862 0
-859 -863 0
-859 -864 0
-859 -865 0
-859 -866 0
-859 -867 0
-859 -868 0
-859 -869 0
-859 -870 0
-859 -871 0
-859 -872 0
-859 -873 0
-859 -874 0
-859 -875 0
-859 -876 0
-859 -877 0
-859 -878 0
-859 -879 0
-859 -880 0
-859 -881 0
-859 -882 0
-859 -883 0
-859 -884 0
-859 -885 0
-859 -886 0
-859 -887 0
-859 -888 0
-859 -889 0
-859 -890 0
-859 -891 0
-859 -892 0
-859 -893 0
-859 -894 0
-859 -895 0
-859 -896 0
-859 -897 0
-859 -898 0
-859 -899 0
-859 -900 0
-859 -901 0
-859 -902 0
-859 -903 0
-859 -904 0
-859 -905 0
-859 -906 0
-860 -861 0
-860 -862 0
-860 -863 0
-860 -864 0
-860 -865 0
-860 -866 0
-860 -867 0
-860 -868 0
-860 -869 0
-860 -870 0
-860 -871 0
-860 -872 0
-860 -873 0
-860 -874 0
-860 -875 0
-860 -876 0
-860 -877 0
-860 -878 0
-860 -879 0
-860 -880 0
-860 -881 0
-860 -882 0
-860 -883 0
-860 -884 0
-860 -885 0
-860 -886 0
-860 -887 0
-860 -888 0
-860 -889 0
-860 -890 0
-860 -891 0
-860 -892 0
-860 -893 0
-860 -894 0
-860 -895 0
-860 -896 0
-860 -897 0
-860 -898 0
-860 -899 0
-860 -900 0
-860 -901 0
-860 -902 0
-860 -903 0
-860 -904 0
-860 -905 0
-860 -906 0
-861 -862 0
-861 -863 0
-861 -864 0
-861 -865 0
-861 -866 0
-861 -867 0
-861 -868 0
-861 -869 0
-861 -870 0
-861 -871 0
-861 -872 0
-861 -873 0
-861 -874 0
-861 -875 0
-861 -876 0
-861 -877 0
-861 -878 0
-861 -879 0
-861 -880 0
-861 -881 0
-861 -882 0
-861 -883 0
-861 -884 0
-861 -885 0
-861 -886 0
-861 -887 0
-861 -888 0
-861 -889 0
-861 -890 0
-861 -891 0
-861 -892 0
-861 -893 0
-861 -894 0
-861 -895 0
-861 -896 0
-861 -897 0
-861 -898 0
-861 -899 0
-861 -900 0
-861 -901 0
-861 -902 0
-861 -903 0
-861 -904 0
-861 -905 0
-861 -906 0
-862 -863 0
-862 -864 0
-862 -865 0
-862 -866 0
-862 -867 0
-862 -868 0
-862 -869 0
-862 -870 0
-862 -871 0
-862 -872 0
-862 -873 0
-862 -874 0
-862 -875 0
-862 -876 0
-862 -877 0
-862 -878 0
-862 -879 0
-862 -880 0
-862 -881 0
-862 -882 0
-862 -883 0
-862 -884 0
-862 -885 0
-862 -886 0
-862 -887 0
-862 -888 0
-862 -889 0
-862 -890 0
-862 -891 0
-862 -892 0
-862 -893 0
-862 -894 0
-862 -895 0
-862 -896 0
-862 -897 0
-862 -898 0
-862 -899 0
-862 -900 0
-862 -901 0
-862 -902 0
-862 -903 0
-862 -904 0
-862 -905 0
-862 -906 0
-863 -864 0
-863 -865 0
-863 -866 0
-863 -867 0
-863 -868 0
-863 -869 0
-863 -870 0
-863 -871 0
-863 -872 0
-863 -873 0
-863 -874 0
-863 -875 0
-863 -876 0
-863 -877 0
-863 -878 0
-863 -879 0
-863 -880 0
-863 -881 0
-863 -882 0
-863 -883 0
-863 -884 0
-863 -885 0
-863 -886 0
-863 -887 0
-863 -888 0
-863 -889 0
-863 -890 0
-863 -891 0
-863 -892 0
-863 -893 0
-863 -894 0
-863 -895 0
-863 -896 0
-863 -897 0
-863 -898 0
-863 -899 0
-863 -900 0
-863 -901 0
-863 -902 0
-863 -903 0
-863 -904 0
-863 -905 0
-863 -906 0
-864 -865 0
-864 -866 0
-864 -867 0
-864 -868 0
-864 -869 0
-864 -870 0
-864 -871 0
-864 -872 0
-864 -873 0
-864 -874 0
-864 -875 0
-864 -876 0
-864 -877 0
-864 -878 0
-864 -879 0
-864 -880 0
-864 -881 0
-864 -882 0
-864 -883 0
-864 -884 0
-864 -885 0
-864 -886 0
-864 -887 0
-864 -888 0
-864 -889 0
-864 -890 0
-864 -891 0
-864 -892 0
-864 -893 0
-864 -894 0
-864 -895 0
-864 -896 0
-864 -897 0
-864 -898 0
-864 -899 0
-864 -900 0
-864 -901 0
-864 -902 0
-864 -903 0
-864 -904 0
-864 -905 0
-864 -906 0
-865 -866 0
-865 -867 0
-865 -868 0
-865 -869 0
-865 -870 0
-865 -871 0
-865 -872 0
-865 -873 0
-865 -874 0
-865 -875 0
-865 -876 0
-865 -877 0
-865 -878 0
-865 -879 0
-865 -880 0
-865 -881 0
-865 -882 0
-865 -883 0
-865 -884 0
-865 -885 0
-865 -886 0
-865 -887 0
-865 -888 0
-865 -889 0
-865 -890 0
-865 -891 0
-865 -892 0
-865 -893 0
-865 -894 0
-865 -895 0
-865 -896 0
-865 -897 0
-865 -898 0
-865 -899 0
-865 -900 0
-865 -901 0
-865 -902 0
-865 -903 0
-865 -904 0
-865 -905 0
-865 -906 0
-866 -867 0
-866 -868 0
-866 -869 0
-866 -870 0
-866 -871 0
-866 -872 0
-866 -873 0
-866 -874 0
-866 -875 0
-866 -876 0
-866 -877 0
-866 -878 0
-866 -879 0
-866 -880 0
-866 -881 0
-866 -882 0
-866 -883 0
-866 -884 0
-866 -885 0
-866 -886 0
-866 -887 0
-866 -888 0
-866 -889 0
-866 -890 0
-866 -891 0
-866 -892 0
-866 -893 0
-866 -894 0
-866 -895 0
-866 -896 0
-866 -897 0
-866 -898 0
-866 -899 0
-866 -900 0
-866 -901 0
-866 -902 0
-866 -903 0
-866 -904 0
-866 -905 0
-866 -906 0
-867 -868 0
-867 -869 0
-867 -870 0
-867 -871 0
-867 -872 0
-867 -873 0
-867 -874 0
-867 -875 0
-867 -876 0
-867 -877 0
-867 -878 0
-867 -879 0
-867 -880 0
-867 -881 0
-867 -882 0
-867 -883 0
-867 -884 0
-867 -885 0
-867 -886 0
-867 -887 0
-867 -888 0
-867 -889 0
-867 -890 0
-867 -891 0
-867 -892 0
-867 -893 0
-867 -894 0
-867 -895 0
-867 -896 0
-867 -897 0
-867 -898 0
-867 -899 0
-867 -900 0
-867 -901 0
-867 -902 0
-867 -903 0
-867 -904 0
-867 -905 0
-867 -906 0
-868 -869 0
-868 -870 0
-868 -871 0
-868 -872 0
-868 -873 0
-868 -874 0
-868 -875 0
-868 -876 0
-868 -877 0
-868 -878 0
-868 -879 0
-868 -880 0
-868 -881 0
-868 -882 0
-868 -883 0
-868 -884 0
-868 -885 0
-868 -886 0
-868 -887 0
-868 -888 0
-868 -889 0
-868 -890 0
-868 -891 0
-868 -892 0
-868 -893 0
-868 -894 0
-868 -895 0
-868 -896 0
-868 -897 0
-868 -898 0
-868 -899 0
-868 -900 0
-868 -901 0
-868 -902 0
-868 -903 0
-868 -904 0
-868 -905 0
-868 -906 0
-869 -870 0
-869 -871 0
-869 -872 0
-869 -873 0
-869 -874 0
-869 -875 0
-869 -876 0
-869 -877 0
-869 -878 0
-869 -879 0
-869 -880 0
-869 -881 0
-869 -882 0
-869 -883 0
-869 -884 0
-869 -885 0
-869 -886 0
-869 -887 0
-869 -888 0
-869 -889 0
-869 -890 0
-869 -891 0
-869 -892 0
-869 -893 0
-869 -894 0
-869 -895 0
-869 -896 0
-869 -897 0
-869 -898 0
-869 -899 0
-869 -900 0
-869 -901 0
-869 -902 0
-869 -903 0
-869 -904 0
-869 -905 0
-869 -906 0
-870 -871 0
-870 -872 0
-870 -873 0
-870 -874 0
-870 -875 0
-870 -876 0
-870 -877 0
-870 -878 0
-870 -879 0
-870 -880 0
-870 -881 0
-870 -882 0
-870 -883 0
-870 -884 0
-870 -885 0
-870 -886 0
-870 -887 0
-870 -888 0
-870 -889 0
-870 -890 0
-870 -891 0
-870 -892 0
-870 -893 0
-870 -894 0
-870 -895 0
-870 -896 0
-870 -897 0
-870 -898 0
-870 -899 0
-870 -900 0
-870 -901 0
-870 -902 0
-870 -903 0
-870 -904 0
-870 -905 0
-870 -906 0
-871 -872 0
-871 -873 0
-871 -874 0
-871 -875 0
-871 -876 0
-871 -877 0
-871 -878 0
-871 -879 0
-871 -880 0
-871 -881 0
-871 -882 0
-871 -883 0
-871 -884 0
-871 -885 0
-871 -886 0
-871 -887 0
-871 -888 0
-871 -889 0
-871 -890 0
-871 -891 0
-871 -892 0
-871 -893 0
-871 -894 0
-871 -895 0
-871 -896 0
-871 -897 0
-871 -898 0
-871 -899 0
-871 -900 0
-871 -901 0
-871 -902 0
-871 -903 0
-871 -904 0
-871 -905 0
-871 -906 0
-872 -873 0
-872 -874 0
-872 -875 0
-872 -876 0
-872 -877 0
-872 -878 0
-872 -879 0
-872 -880 0
-872 -881 0
-872 -882 0
-872 -883 0
-872 -884 0
-872 -885 0
-872 -886 0
-872 -887 0
-872 -888 0
-872 -889 0
-872 -890 0
-872 -891 0
-872 -892 0
-872 -893 0
-872 -894 0
-872 -895 0
-872 -896 0
-872 -897 0
-872 -898 0
-872 -899 0
-872 -900 0
-872 -901 0
-872 -902 0
-872 -903 0
-872 -904 0
-872 -905 0
-872 -906 0
-873 -874 0
-873 -875 0
-873 -876 0
-873 -877 0
-873 -878 0
-873 -879 0
-873 -880 0
-873 -881 0
-873 -882 0
-873 -883 0
-873 -884 0
-873 -885 0
-873 -886 0
-873 -887 0
-873 -888 0
-873 -889 0
-873 -890 0
-873 -891 0
-873 -892 0
-873 -893 0
-873 -894 0
-873 -895 0
-873 -896 0
-873 -897 0
-873 -898 0
-873 -899 0
-873 -900 0
-873 -901 0
-873 -902 0
-873 -903 0
-873 -904 0
-873 -905 0
-873 -906 0
-874 -875 0
-874 -876 0
-874 -877 0
-874 -878 0
-874 -879 0
-874 -880 0
-874 -881 0
-874 -882 0
-874 -883 0
-874 -884 0
-874 -885 0
-874 -886 0
-874 -887 0
-874 -888 0
-874 -889 0
-874 -890 0
-874 -891 0
-874 -892 0
-874 -893 0
-874 -894 0
-874 -895 0
-874 -896 0
-874 -897 0
-874 -898 0
-874 -899 0
-874 -900 0
-874 -901 0
-874 -902 0
-874 -903 0
-874 -904 0
-874 -905 0
-874 -906 0
-875 -876 0
-875 -877 0
-875 -878 0
-875 -879 0
-875 -880 0
-875 -881 0
-875 -882 0
-875 -883 0
-875 -884 0
-875 -885 0
-875 -886 0
-875 -887 0
-875 -888 0
-875 -889 0
-875 -890 0
-875 -891 0
-875 -892 0
-875 -893 0
-875 -894 0
-875 -895 0
-875 -896 0
-875 -897 0
-875 -898 0
-875 -899 0
-875 -900 0
-875 -901 0
-875 -902 0
-875 -903 0
-875 -904 0
-875 -905 0
-875 -906 0
-876 -877 0
-876 -878 0
-876 -879 0
-876 -880 0
-876 -881 0
-876 -882 0
-876 -883 0
-876 -884 0
-876 -885 0
-876 -886 0
-876 -887 0
-876 -888 0
-876 -889 0
-876 -890 0
-876 -891 0
-876 -892 0
-876 -893 0
-876 -894 0
-876 -895 0
-876 -896 0
-876 -897 0
-876 -898 0
-876 -899 0
-876 -900 0
-876 -901 0
-876 -902 0
-876 -903 0
-876 -904 0
-876 -905 0
-876 -906 0
-877 -878 0
-877 -879 0
-877 -880 0
-877 -881 0
-877 -882 0
-877 -883 0
-877 -884 0
-877 -885 0
-877 -886 0
-877 -887 0
-877 -888 0
-877 -889 0
-877 -890 0
-877 -891 0
-877 -892 0
-877 -893 0
-877 -894 0
-877 -895 0
-877 -896 0
-877 -897 0
-877 -898 0
-877 -899 0
-877 -900 0
-877 -901 0
-877 -902 0
-877 -903 0
-877 -904 0
-877 -905 0
-877 -906 0
-878 -879 0
-878 -880 0
-878 -881 0
-878 -882 0
-878 -883 0
-878 -884 0
-878 -885 0
-878 -886 0
-878 -887 0
-878 -888 0
-878 -889 0
-878 -890 0
-878 -891 0
-878 -892 0
-878 -893 0
-878 -894 0
-878 -895 0
-878 -896 0
-878 -897 0
-878 -898 0
-878 -899 0
-878 -900 0
-878 -901 0
-878 -902 0
-878 -903 0
-878 -904 0
-878 -905 0
-878 -906 0
-879 -880 0
-879 -881 0
-879 -882 0
-879 -883 0
-879 -884 0
-879 -885 0
-879 -886 0
-879 -887 0
-879 -888 0
-879 -889 0
-879 -890 0
-879 -891 0
-879 -892 0
-879 -893 0
-879 -894 0
-879 -895 0
-879 -896 0
-879 -897 0
-879 -898 0
-879 -899 0
-879 -900 0
-879 -901 0
-879 -902 0
-879 -903 0
-879 -904 0
-879 -905 0
-879 -906 0
-880 -881 0
-880 -882 0
-880 -883 0
-880 -884 0
-880 -885 0
-880 -886 0
-880 -887 0
-880 -888 0
-880 -889 0
-880 -890 0
-880 -891 0
-880 -892 0
-880 -893 0
-880 -894 0
-880 -895 0
-880 -896 0
-880 -897 0
-880 -898 0
-880 -899 0
-880 -900 0
-880 -901 0
-880 -902 0
-880 -903 0
-880 -904 0
-880 -905 0
-880 -906 0
-881 -882 0
-881 -883 0
-881 -884 0
-881 -885 0
-881 -886 0
-881 -887 0
-881 -888 0
-881 -889 0
-881 -890 0
-881 -891 0
-881 -892 0
-881 -893 0
-881 -894 0
-881 -895 0
-881 -896 0
-881 -897 0
-881 -898 0
-881 -899 0
-881 -900 0
-881 -901 0
-881 -902 0
-881 -903 0
-881 -904 0
-881 -905 0
-881 -906 0
-882 -883 0
-882 -884 0
-882 -885 0
-882 -886 0
-882 -887 0
-882 -888 0
-882 -889 0
-882 -890 0
-882 -891 0
-882 -892 0
-882 -893 0
-882 -894 0
-882 -895 0
-882 -896 0
-882 -897 0
-882 -898 0
-882 -899 0
-882 -900 0
-882 -901 0
-882 -902 0
-882 -903 0
-882 -904 0
-882 -905 0
-882 -906 0
-883 -884 0
-883 -885 0
-883 -886 0
-883 -887 0
-883 -888 0
-883 -889 0
-883 -890 0
-883 -891 0
-883 -892 0
-883 -893 0
-883 -894 0
-883 -895 0
-883 -896 0
-883 -897 0
-883 -898 0
-883 -899 0
-883 -900 0
-883 -901 0
-883 -902 0
-883 -903 0
-883 -904 0
-883 -905 0
-883 -906 0
-884 -885 0
-884 -886 0
-884 -887 0
-884 -888 0
-884 -889 0
-884 -890 0
-884 -891 0
-884 -892 0
-884 -893 0
-884 -894 0
-884 -895 0
-884 -896 0
-884 -897 0
-884 -898 0
-884 -899 0
-884 -900 0
-884 -901 0
-884 -902 0
-884 -903 0
-884 -904 0
-884 -905 0
-884 -906 0
-885 -886 0
-885 -887 0
-885 -888 0
-885 -889 0
-885 -890 0
-885 -891 0
-885 -892 0
-885 -893 0
-885 -894 0
-885 -895 0
-885 -896 0
-885 -897 0
-885 -898 0
-885 -899 0
-885 -900 0
-885 -901 0
-885 -902 0
-885 -903 0
-885 -904 0
-885 -905 0
-885 -906 0
-886 -887 0
-886 -888 0
-886 -889 0
-886 -890 0
-886 -891 0
-886 -892 0
-886 -893 0
-886 -894 0
-886 -895 0
-886 -896 0
-886 -897 0
-886 -898 0
-886 -899 0
-886 -900 0
-886 -901 0
-886 -902 0
-886 -903 0
-886 -904 0
-886 -905 0
-886 -906 0
-887 -888 0
-887 -889 0
-887 -890 0
-887 -891 0
-887 -892 0
-887 -893 0
-887 -894 0
-887 -895 0
-887 -896 0
-887 -897 0
-887 -898 0
-887 -899 0
-887 -900 0
-887 -901 0
-887 -902 0
-887 -903 0
-887 -904 0
-887 -905 0
-887 -906 0
-888 -889 0
-888 -890 0
-888 -891 0
-888 -892 0
-888 -893 0
-888 -894 0
-888 -895 0
-888 -896 0
-888 -897 0
-888 -898 0
-888 -899 0
-888 -900 0
-888 -901 0
-888 -902 0
-888 -903 0
-888 -904 0
-888 -905 0
-888 -906 0
-889 -890 0
-889 -891 0
-889 -892 0
-889 -893 0
-889 -894 0
-889 -895 0
-889 -896 0
-889 -897 0
-889 -898 0
-889 -899 0
-889 -900 0
-889 -901 0
-889 -902 0
-889 -903 0
-889 -904 0
-889 -905 0
-889 -906 0
-890 -891 0
-890 -892 0
-890 -893 0
-890 -894 0
-890 -895 0
-890 -896 0
-890 -897 0
-890 -898 0
-890 -899 0
-890 -900 0
-890 -901 0
-890 -902 0
-890 -903 0
-890 -904 0
-890 -905 0
-890 -906 0
-891 -892 0
-891 -893 0
-891 -894 0
-891 -895 0
-891 -896 0
-891 -897 0
-891 -898 0
-891 -899 0
-891 -900 0
-891 -901 0
-891 -902 0
-891 -903 0
-891 -904 0
-891 -905 0
-891 -906 0
-892 -893 0
-892 -894 0
-892 -895 0
-892 -896 0
-892 -897 0
-892 -898 0
-892 -899 0
-892 -900 0
-892 -901 0
-892 -902 0
-892 -903 0
-892 -904 0
-892 -905 0
-892 -906 0
-893 -894 0
-893 -895 0
-893 -896 0
-893 -897 0
-893 -898 0
-893 -899 0
-893 -900 0
-893 -901 0
-893 -902 0
-893 -903 0
-893 -904 0
-893 -905 0
-893 -906 0
-894 -895 0
-894 -896 0
-894 -897 0
-894 -898 0
-894 -899 0
-894 -900 0
-894 -901 0
-894 -902 0
-894 -903 0
-894 -904 0
-894 -905 0
-894 -906 0
-895 -896 0
-895 -897 0
-895 -898 0
-895 -899 0
-895 -900 0
-895 -901 0
-895 -902 0
-895 -903 0
-895 -904 0
-895 -905 0
-895 -906 0
-896 -897 0
-896 -898 0
-896 -899 0
-896 -900 0
-896 -901 0
-896 -902 0
-896 -903 0
-896 -904 0
-896 -905 0
-896 -906 0
-897 -898 0
-897 -899 0
-897 -900 0
-897 -901 0
-897 -902 0
-897 -903 0
-897 -904 0
-897 -905 0
-897 -906 0
-898 -899 0
-898 -900 0
-898 -901 0
-898 -902 0
-898 -903 0
-898 -904 0
-898 -905 0
-898 -906 0
-899 -900 0
-899 -901 0
-899 -902 0
-899 -903 0
-899 -904 0
-899 -905 0
-899 -906 0
-900 -901 0
-900 -902 0
-900 -903 0
-900 -904 0
-900 -905 0
-900 -906 0
-901 -902 0
-901 -903 0
-901 -904 0
-901 -905 0
-901 -906 0
-902 -903 0
-902 -904 0
-902 -905 0
-902 -906 0
-903 -904 0
-903 -905 0
-903 -906 0
-904 -905 0
-904 -906 0
-905 -906 0
-907 227 0
-907 -22 -147 -144 0
-907 -22 -148 -145 0
-907 -22 -149 -146 0
-907 28 0
-907 -28 -147 1279 349 0
-907 -28 -148 1279 355 0
-907 -28 -149 1279 361 0
-907 -147 -373 0
-907 -147 -397 0
-907 -147 -421 0
-907 -147 -379 0
-907 -147 -403 0
-907 -147 -427 0
-907 -147 -385 0
-907 -147 -409 0
-907 -147 -433 0
-907 -148 -379 0
-907 -148 -403 0
-907 -148 -427 0
-907 -148 -385 0
-907 -148 -409 0
-907 -148 -433 0
-907 -149 -385 0
-907 -149 -409 0
-907 -149 -433 0
-907 -150 0
-907 43 0
-907 -147 160 0
-907 -148 161 0
-907 -149 162 0
-907 -232 0
-908 227 0
-908 -23 -147 -144 0
-908 -23 -148 -145 0
-908 -23 -149 -146 0
-908 29 0
-908 -29 -147 1280 350 0
-908 -29 -148 1280 356 0
-908 -29 -149 1280 362 0
-908 -147 -374 0
-908 -147 -398 0
-908 -147 -422 0
-908 -147 -380 0
-908 -147 -404 0
-908 -147 -428 0
-908 -147 -386 0
-908 -147 -410 0
-908 -147 -434 0
-908 -148 -380 0
-908 -148 -404 0
-908 -148 -428 0
-908 -148 -386 0
-908 -148 -410 0
-908 -148 -434 0
-908 -149 -386 0
-908 -149 -410 0
-908 -149 -434 0
-908 -150 0
-908 44 0
-908 -147 160 0
-908 -148 161 0
-908 -149 162 0
-908 -232 0
-909 227 0
-909 -24 -147 -144 0
-909 -24 -148 -145 0
-909 -24 -149 -146 0
-909 30 0
-909 -30 -147 1281 351 0
-909 -30 -148 1281 357 0
-909 -30 -149 1281 363 0
-909 -147 -375 0
-909 -147 -399 0
-909 -147 -423 0
-909 -147 -381 0
-909 -147 -405 0
-909 -147 -429 0
-909 -147 -387 0
-909 -147 -411 0
-909 -147 -435 0
-909 -148 -381 0
-909 -148 -405 0
-909 -148 -429 0
-909 -148 -387 0
-909 -148 -411 0
-909 -148 -435 0
-909 -149 -387 0
-909 -149 -411 0
-909 -149 -435 0
-909 -150 0
-909 45 0
-909 -147 160 0
-909 -148 161 0
-909 -149 162 0
-909 -232 0
-910 227 0
-910 -25 -147 -144 0
-910 -25 -148 -145 0
-910 -25 -149 -146 0
-910 31 0
-910 -31 -147 1282 352 0
-910 -31 -148 1282 358 0
-910 -31 -149 1282 364 0
-910 -147 -376 0
-910 -147 -400 0
-910 -147 -424 0
-910 -147 -382 0
-910 -147 -406 0
-910 -147 -430 0
-910 -147 -388 0
-910 -147 -412 0
-910 -147 -436 0
-910 -148 -382 0
-910 -148 -406 0
-910 -148 -430 0
-910 -148 -388 0
-910 -148 -412 0
-910 -148 -436 0
-910 -149 -388 0
-910 -149 -412 0
-910 -149 -436 0
-910 -150 0
-910 46 0
-910 -147 160 0
-910 -148 161 0
-910 -149 162 0
-910 -232 0
-911 227 0
-911 -26 -147 -144 0
-911 -26 -148 -145 0
-911 -26 -149 -146 0
-911 32 0
-911 -32 -147 1283 353 0
-911 -32 -148 1283 359 0
-911 -32 -149 1283 365 0
-911 -147 -377 0
-911 -147 -401 0
-911 -147 -425 0
-911 -147 -383 0
-911 -147 -407 0
-911 -147 -431 0
-911 -147 -389 0
-911 -147 -413 0
-911 -147 -437 0
-911 -148 -383 0
-911 -148 -407 0
-911 -148 -431 0
-911 -148 -389 0
-911 -148 -413 0
-911 -148 -437 0
-911 -149 -389 0
-911 -149 -413 0
-911 -149 -437 0
-911 -150 0
-911 47 0
-911 -147 160 0
-911 -148 161 0
-911 -149 162 0
-911 -232 0
-912 227 0
-912 -27 -147 -144 0
-912 -27 -148 -145 0
-912 -27 -149 -146 0
-912 33 0
-912 -33 -147 1284 354 0
-912 -33 -148 1284 360 0
-912 -33 -149 1284 366 0
-912 -147 -378 0
-912 -147 -402 0
-912 -147 -426 0
-912 -147 -384 0
-912 -147 -408 0
-912 -147 -432 0
-912 -147 -390 0
-912 -147 -414 0
-912 -147 -438 0
-912 -148 -384 0
-912 -148 -408 0
-912 -148 -432 0
-912 -148 -390 0
-912 -148 -414 0
-912 -148 -438 0
-912 -149 -390 0
-912 -149 -414 0
-912 -149 -438 0
-912 -150 0
-912 48 0
-912 -147 160 0
-912 -148 161 0
-912 -149 162 0
-912 -232 0
-913 227 0
-913 -22 -151 -144 0
-913 -22 -152 -145 0
-913 -22 -153 -146 0
-913 34 0
-913 -34 -151 1285 349 0
-913 -34 -152 1285 355 0
-913 -34 -153 1285 361 0
-913 -151 -373 0
-913 -151 -397 0
-913 -151 -421 0
-913 -151 -379 0
-913 -151 -403 0
-913 -151 -427 0
-913 -151 -385 0
-913 -151 -409 0
-913 -151 -433 0
-913 -152 -379 0
-913 -152 -403 0
-913 -152 -427 0
-913 -152 -385 0
-913 -152 -409 0
-913 -152 -433 0
-913 -153 -385 0
-913 -153 -409 0
-913 -153 -433 0
-913 -154 0
-913 43 0
-913 -151 160 0
-913 -152 161 0
-913 -153 162 0
-913 -233 0
-914 227 0
-914 -23 -151 -144 0
-914 -23 -152 -145 0
-914 -23 -153 -146 0
-914 34 35 0
-914 -34 -151 1286 350 0
-914 -34 -152 1286 356 0
-914 -34 -153 1286 362 0
-914 -35 -151 1286 350 0
-914 -35 -152 1286 356 0
-914 -35 -153 1286 362 0
-914 -151 -374 0
-914 -151 -398 0
-914 -151 -422 0
-914 -151 -380 0
-914 -151 -404 0
-914 -151 -428 0
-914 -151 -386 0
-914 -151 -410 0
-914 -151 -434 0
-914 -152 -380 0
-914 -152 -404 0
-914 -152 -428 0
-914 -152 -386 0
-914 -152 -410 0
-914 -152 -434 0
-914 -153 -386 0
-914 -153 -410 0
-914 -153 -434 0
-914 -154 0
-914 44 0
-914 -151 160 0
-914 -152 161 0
-914 -153 162 0
-914 -233 0
-915 227 0
-915 -24 -151 -144 0
-915 -24 -152 -145 0
-915 -24 -153 -146 0
-915 35 36 0
-915 -35 -151 1287 351 0
-915 -35 -152 1287 357 0
-915 -35 -153 1287 363 0
-915 -36 -151 1287 351 0
-915 -36 -152 1287 357 0
-915 -36 -153 1287 363 0
-915 -151 -375 0
-915 -151 -399 0
-915 -151 -423 0
-915 -151 -381 0
-915 -151 -405 0
-915 -151 -429 0
-915 -151 -387 0
-915 -151 -411 0
-915 -151 -435 0
-915 -152 -381 0
-915 -152 -405 0
-915 -152 -429 0
-915 -152 -387 0
-915 -152 -411 0
-915 -152 -435 0
-915 -153 -387 0
-915 -153 -411 0
-915 -153 -435 0
-915 -154 0
-915 45 0
-915 -151 160 0
-915 -152 161 0
-915 -153 162 0
-915 -233 0
-916 227 0
-916 -25 -151 -144 0
-916 -25 -152 -145 0
-916 -25 -153 -146 0
-916 36 37 0
-916 -36 -151 1288 352 0
-916 -36 -152 1288 358 0
-916 -36 -153 1288 364 0
-916 -37 -151 1288 352 0
-916 -37 -152 1288 358 0
-916 -37 -153 1288 364 0
-916 -151 -376 0
-916 -151 -400 0
-916 -151 -424 0
-916 -151 -382 0
-916 -151 -406 0
-916 -151 -430 0
-916 -151 -388 0
-916 -151 -412 0
-916 -151 -436 0
-916 -152 -382 0
-916 -152 -406 0
-916 -152 -430 0
-916 -152 -388 0
-916 -152 -412 0
-916 -152 -436 0
-916 -153 -388 0
-916 -153 -412 0
-916 -153 -436 0
-916 -154 0
-916 46 0
-916 -151 160 0
-916 -152 161 0
-916 -153 162 0
-916 -233 0
-917 227 0
-917 -26 -151 -144 0
-917 -26 -152 -145 0
-917 -26 -153 -146 0
-917 37 38 0
-917 -37 -151 1289 353 0
-917 -37 -152 1289 359 0
-917 -37 -153 1289 365 0
-917 -38 -151 1289 353 0
-917 -38 -152 1289 359 0
-917 -38 -153 1289 365 0
-917 -151 -377 0
-917 -151 -401 0
-917 -151 -425 0
-917 -151 -383 0
-917 -151 -407 0
-917 -151 -431 0
-917 -151 -389 0
-917 -151 -413 0
-917 -151 -437 0
-917 -152 -383 0
-917 -152 -407 0
-917 -152 -431 0
-917 -152 -389 0
-917 -152 -413 0
-917 -152 -437 0
-917 -153 -389 0
-917 -153 -413 0
-917 -153 -437 0
-917 -154 0
-917 47 0
-917 -151 160 0
-917 -152 161 0
-917 -153 162 0
-917 -233 0
-918 227 0
-918 -27 -151 -144 0
-918 -27 -152 -145 0
-918 -27 -153 -146 0
-918 38 0
-918 -38 -151 1290 354 0
-918 -38 -152 1290 360 0
-918 -38 -153 1290 366 0
-918 -151 -378 0
-918 -151 -402 0
-918 -151 -426 0
-918 -151 -384 0
-918 -151 -408 0
-918 -151 -432 0
-918 -151 -390 0
-918 -151 -414 0
-918 -151 -438 0
-918 -152 -384 0
-918 -152 -408 0
-918 -152 -432 0
-918 -152 -390 0
-918 -152 -414 0
-918 -152 -438 0
-918 -153 -390 0
-918 -153 -414 0
-918 -153 -438 0
-918 -154 0
-918 48 0
-918 -151 160 0
-918 -152 161 0
-918 -153 162 0
-918 -233 0
-919 227 0
-919 -22 -155 -144 0
-919 -22 -156 -145 0
-919 -22 -157 -146 0
-919 39 0
-919 -39 -155 1291 349 0
-919 -39 -156 1291 355 0
-919 -39 -157 1291 361 0
-919 -155 -373 0
-919 -155 -397 0
-919 -155 -421 0
-919 -155 -379 0
-919 -155 -403 0
-919 -155 -427 0
-919 -155 -385 0
-919 -155 -409 0
-919 -155 -433 0
-919 -156 -379 0
-919 -156 -403 0
-919 -156 -427 0
-919 -156 -385 0
-919 -156 -409 0
-919 -156 -433 0
-919 -157 -385 0
-919 -157 -409 0
-919 -157 -433 0
-919 -158 0
-919 43 0
-919 -155 160 0
-919 -156 161 0
-919 -157 162 0
-919 -234 0
-920 227 0
-920 -23 -155 -144 0
-920 -23 -156 -145 0
-920 -23 -157 -146 0
-920 39 40 0
-920 -39 -155 1292 350 0
-920 -39 -156 1292 356 0
-920 -39 -157 1292 362 0
-920 -40 -155 1292 350 0
-920 -40 -156 1292 356 0
-920 -40 -157 1292 362 0
-920 -155 -374 0
-920 -155 -398 0
-920 -155 -422 0
-920 -155 -380 0
-920 -155 -404 0
-920 -155 -428 0
-920 -155 -386 0
-920 -155 -410 0
-920 -155 -434 0
-920 -156 -380 0
-920 -156 -404 0
-920 -156 -428 0
-920 -156 -386 0
-920 -156 -410 0
-920 -156 -434 0
-920 -157 -386 0
-920 -157 -410 0
-920 -157 -434 0
-920 -158 0
-920 44 0
-920 -155 160 0
-920 -156 161 0
-920 -157 162 0
-920 -234 0
-921 227 0
-921 -24 -155 -144 0
-921 -24 -156 -145 0
-921 -24 -157 -146 0
-921 39 40 41 0
-921 -39 -155 1293 351 0
-921 -39 -156 1293 357 0
-921 -39 -157 1293 363 0
-921 -40 -155 1293 351 0
-921 -40 -156 1293 357 0
-921 -40 -157 1293 363 0
-921 -41 -155 1293 351 0
-921 -41 -156 1293 357 0
-921 -41 -157 1293 363 0
-921 -155 -375 0
-921 -155 -399 0
-921 -155 -423 0
-921 -155 -381 0
-921 -155 -405 0
-921 -155 -429 0
-921 -155 -387 0
-921 -155 -411 0
-921 -155 -435 0
-921 -156 -381 0
-921 -156 -405 0
-921 -156 -429 0
-921 -156 -387 0
-921 -156 -411 0
-921 -156 -435 0
-921 -157 -387 0
-921 -157 -411 0
-921 -157 -435 0
-921 -158 0
-921 45 0
-921 -155 160 0
-921 -156 161 0
-921 -157 162 0
-921 -234 0
-922 227 0
-922 -25 -155 -144 0
-922 -25 -156 -145 0
-922 -25 -157 -146 0
-922 40 41 42 0
-922 -40 -155 1294 352 0
-922 -40 -156 1294 358 0
-922 -40 -157 1294 364 0
-922 -41 -155 1294 352 0
-922 -41 -156 1294 358 0
-922 -41 -157 1294 364 0
-922 -42 -155 1294 352 0
-922 -42 -156 1294 358 0
-922 -42 -157 1294 364 0
-922 -155 -376 0
-922 -155 -400 0
-922 -155 -424 0
-922 -155 -382 0
-922 -155 -406 0
-922 -155 -430 0
-922 -155 -388 0
-922 -155 -412 0
-922 -155 -436 0
-922 -156 -382 0
-922 -156 -406 0
-922 -156 -430 0
-922 -156 -388 0
-922 -156 -412 0
-922 -156 -436 0
-922 -157 -388 0
-922 -157 -412 0
-922 -157 -436 0
-922 -158 0
-922 46 0
-922 -155 160 0
-922 -156 161 0
-922 -157 162 0
-922 -234 0
-923 227 0
-923 -26 -155 -144 0
-923 -26 -156 -145 0
-923 -26 -157 -146 0
-923 41 42 0
-923 -41 -155 1295 353 0
-923 -41 -156 1295 359 0
-923 -41 -157 1295 365 0
-923 -42 -155 1295 353 0
-923 -42 -156 1295 359 0
-923 -42 -157 1295 365 0
-923 -155 -377 0
-923 -155 -401 0
-923 -155 -425 0
-923 -155 -383 0
-923 -155 -407 0
-923 -155 -431 0
-923 -155 -389 0
-923 -155 -413 0
-923 -155 -437 0
-923 -156 -383 0
-923 -156 -407 0
-923 -156 -431 0
-923 -156 -389 0
-923 -156 -413 0
-923 -156 -437 0
-923 -157 -389 0
-923 -157 -413 0
-923 -157 -437 0
-923 -158 0
-923 47 0
-923 -155 160 0
-923 -156 161 0
-923 -157 162 0
-923 -234 0
-924 227 0
-924 -27 -155 -144 0
-924 -27 -156 -145 0
-924 -27 -157 -146 0
-924 42 0
-924 -42 -155 1296 354 0
-924 -42 -156 1296 360 0
-924 -42 -157 1296 366 0
-924 -155 -378 0
-924 -155 -402 0
-924 -155 -426 0
-924 -155 -384 0
-924 -155 -408 0
-924 -155 -432 0
-924 -155 -390 0
-924 -155 -414 0
-924 -155 -438 0
-924 -156 -384 0
-924 -156 -408 0
-924 -156 -432 0
-924 -156 -390 0
-924 -156 -414 0
-924 -156 -438 0
-924 -157 -390 0
-924 -157 -414 0
-924 -157 -438 0
-924 -158 0
-924 48 0
-924 -155 160 0
-924 -156 161 0
-924 -157 162 0
-924 -234 0
-925 227 0
-925 -22 -143 0
-925 -367 0
-925 -391 0
-925 -415 0
-925 -373 0
-925 -397 0
-925 -421 0
-925 -379 0
-925 -403 0
-925 -427 0
-925 -385 0
-925 -409 0
-925 -433 0
-925 43 0
-925 159 0
-926 227 0
-926 -23 -143 0
-926 -368 0
-926 -392 0
-926 -416 0
-926 -374 0
-926 -398 0
-926 -422 0
-926 -380 0
-926 -404 0
-926 -428 0
-926 -386 0
-926 -410 0
-926 -434 0
-926 44 0
-926 159 0
-927 227 0
-927 -24 -143 0
-927 -369 0
-927 -393 0
-927 -417 0
-927 -375 0
-927 -399 0
-927 -423 0
-927 -381 0
-927 -405 0
-927 -429 0
-927 -387 0
-927 -411 0
-927 -435 0
-927 45 0
-927 159 0
-928 227 0
-928 -25 -143 0
-928 -370 0
-928 -394 0
-928 -418 0
-928 -376 0
-928 -400 0
-928 -424 0
-928 -382 0
-928 -406 0
-928 -430 0
-928 -388 0
-928 -412 0
-928 -436 0
-928 46 0
-928 159 0
-929 227 0
-929 -26 -143 0
-929 -371 0
-929 -395 0
-929 -419 0
-929 -377 0
-929 -401 0
-929 -425 0
-929 -383 0
-929 -407 0
-929 -431 0
-929 -389 0
-929 -413 0
-929 -437 0
-929 47 0
-929 159 0
-930 227 0
-930 -27 -143 0
-930 -372 0
-930 -396 0
-930 -420 0
-930 -378 0
-930 -402 0
-930 -426 0
-930 -384 0
-930 -408 0
-930 -432 0
-930 -390 0
-930 -414 0
-930 -438 0
-930 48 0
-930 159 0
-931 228 0
-931 -28 -143 -148 0
-931 -28 -144 -149 0
-931 -28 -145 -150 0
-931 22 0
-931 -22 -143 1273 373 0
-931 -22 -144 1273 379 0
-931 -22 -145 1273 385 0
-931 -143 -349 0
-931 -143 -397 0
-931 -143 -421 0
-931 -143 -355 0
-931 -143 -403 0
-931 -143 -427 0
-931 -143 -361 0
-931 -143 -409 0
-931 -143 -433 0
-931 -144 -355 0
-931 -144 -403 0
-931 -144 -427 0
-931 -144 -361 0
-931 -144 -409 0
-931 -144 -433 0
-931 -145 -361 0
-931 -145 -409 0
-931 -145 -433 0
-931 -146 0
-931 49 0
-931 -143 164 0
-931 -144 165 0
-931 -145 166 0
-931 -231 0
-932 228 0
-932 -29 -143 -148 0
-932 -29 -144 -149 0
-932 -29 -145 -150 0
-932 23 0
-932 -23 -143 1274 374 0
-932 -23 -144 1274 380 0
-932 -23 -145 1274 386 0
-932 -143 -350 0
-932 -143 -398 0
-932 -143 -422 0
-932 -143 -356 0
-932 -143 -404 0
-932 -143 -428 0
-932 -143 -362 0
-932 -143 -410 0
-932 -143 -434 0
-932 -144 -356 0
-932 -144 -404 0
-932 -144 -428 0
-932 -144 -362 0
-932 -144 -410 0
-932 -144 -434 0
-932 -145 -362 0
-932 -145 -410 0
-932 -145 -434 0
-932 -146 0
-932 50 0
-932 -143 164 0
-932 -144 165 0
-932 -145 166 0
-932 -231 0
-933 228 0
-933 -30 -143 -148 0
-933 -30 -144 -149 0
-933 -30 -145 -150 0
-933 24 0
-933 -24 -143 1275 375 0
-933 -24 -144 1275 381 0
-933 -24 -145 1275 387 0
-933 -143 -351 0
-933 -143 -399 0
-933 -143 -423 0
-933 -143 -357 0
-933 -143 -405 0
-933 -143 -429 0
-933 -143 -363 0
-933 -143 -411 0
-933 -143 -435 0
-933 -144 -357 0
-933 -144 -405 0
-933 -144 -429 0
-933 -144 -363 0
-933 -144 -411 0
-933 -144 -435 0
-933 -145 -363 0
-933 -145 -411 0
-933 -145 -435 0
-933 -146 0
-933 51 0
-933 -143 164 0
-933 -144 165 0
-933 -145 166 0
-933 -231 0
-934 228 0
-934 -31 -143 -148 0
-934 -31 -144 -149 0
-934 -31 -145 -150 0
-934 25 0
-934 -25 -143 1276 376 0
-934 -25 -144 1276 382 0
-934 -25 -145 1276 388 0
-934 -143 -352 0
-934 -143 -400 0
-934 -143 -424 0
-934 -143 -358 0
-934 -143 -406 0
-934 -143 -430 0
-934 -143 -364 0
-934 -143 -412 0
-934 -143 -436 0
-934 -144 -358 0
-934 -144 -406 0
-934 -144 -430 0
-934 -144 -364 0
-934 -144 -412 0
-934 -144 -436 0
-934 -145 -364 0
-934 -145 -412 0
-934 -145 -436 0
-934 -146 0
-934 52 0
-934 -143 164 0
-934 -144 165 0
-934 -145 166 0
-934 -231 0
-935 228 0
-935 -32 -143 -148 0
-935 -32 -144 -149 0
-935 -32 -145 -150 0
-935 26 0
-935 -26 -143 1277 377 0
-935 -26 -144 1277 383 0
-935 -26 -145 1277 389 0
-935 -143 -353 0
-935 -143 -401 0
-935 -143 -425 0
-935 -143 -359 0
-935 -143 -407 0
-935 -143 -431 0
-935 -143 -365 0
-935 -143 -413 0
-935 -143 -437 0
-935 -144 -359 0
-935 -144 -407 0
-935 -144 -431 0
-935 -144 -365 0
-935 -144 -413 0
-935 -144 -437 0
-935 -145 -365 0
-935 -145 -413 0
-935 -145 -437 0
-935 -146 0
-935 53 0
-935 -143 164 0
-935 -144 165 0
-935 -145 166 0
-935 -231 0
-936 228 0
-936 -33 -143 -148 0
-936 -33 -144 -149 0
-936 -33 -145 -150 0
-936 27 0
-936 -27 -143 1278 378 0
-936 -27 -144 1278 384 0
-936 -27 -145 1278 390 0
-936 -143 -354 0
-936 -143 -402 0
-936 -143 -426 0
-936 -143 -360 0
-936 -143 -408 0
-936 -143 -432 0
-936 -143 -366 0
-936 -143 -414 0
-936 -143 -438 0
-936 -144 -360 0
-936 -144 -408 0
-936 -144 -432 0
-936 -144 -366 0
-936 -144 -414 0
-936 -144 -438 0
-936 -145 -366 0
-936 -145 -414 0
-936 -145 -438 0
-936 -146 0
-936 54 0
-936 -143 164 0
-936 -144 165 0
-936 -145 166 0
-936 -231 0
-937 228 0
-937 -28 -151 -148 0
-937 -28 -152 -149 0
-937 -28 -153 -150 0
-937 34 0
-937 -34 -151 1285 373 0
-937 -34 -152 1285 379 0
-937 -34 -153 1285 385 0
-937 -151 -349 0
-937 -151 -397 0
-937 -151 -421 0
-937 -151 -355 0
-937 -151 -403 0
-937 -151 -427 0
-937 -151 -361 0
-937 -151 -409 0
-937 -151 -433 0
-937 -152 -355 0
-937 -152 -403 0
-937 -152 -427 0
-937 -152 -361 0
-937 -152 -409 0
-937 -152 -433 0
-937 -153 -361 0
-937 -153 -409 0
-937 -153 -433 0
-937 -154 0
-937 49 0
-937 -151 164 0
-937 -152 165 0
-937 -153 166 0
-937 -233 0
-938 228 0
-938 -29 -151 -148 0
-938 -29 -152 -149 0
-938 -29 -153 -150 0
-938 34 35 0
-938 -34 -151 1286 374 0
-938 -34 -152 1286 380 0
-938 -34 -153 1286 386 0
-938 -35 -151 1286 374 0
-938 -35 -152 1286 380 0
-938 -35 -153 1286 386 0
-938 -151 -350 0
-938 -151 -398 0
-938 -151 -422 0
-938 -151 -356 0
-938 -151 -404 0
-938 -151 -428 0
-938 -151 -362 0
-938 -151 -410 0
-938 -151 -434 0
-938 -152 -356 0
-938 -152 -404 0
-938 -152 -428 0
-938 -152 -362 0
-938 -152 -410 0
-938 -152 -434 0
-938 -153 -362 0
-938 -153 -410 0
-938 -153 -434 0
-938 -154 0
-938 50 0
-938 -151 164 0
-938 -152 165 0
-938 -153 166 0
-938 -233 0
-939 228 0
-939 -30 -151 -148 0
-939 -30 -152 -149 0
-939 -30 -153 -150 0
-939 35 36 0
-939 -35 -151 1287 375 0
-939 -35 -152 1287 381 0
-939 -35 -153 1287 387 0
-939 -36 -151 1287 375 0
-939 -36 -152 1287 381 0
-939 -36 -153 1287 387 0
-939 -151 -351 0
-939 -151 -399 0
-939 -151 -423 0
-939 -151 -357 0
-939 -151 -405 0
-939 -151 -429 0
-939 -151 -363 0
-939 -151 -411 0
-939 -151 -435 0
-939 -152 -357 0
-939 -152 -405 0
-939 -152 -429 0
-939 -152 -363 0
-939 -152 -411 0
-939 -152 -435 0
-939 -153 -363 0
-939 -153 -411 0
-939 -153 -435 0
-939 -154 0
-939 51 0
-939 -151 164 0
-939 -152 165 0
-939 -153 166 0
-939 -233 0
-940 228 0
-940 -31 -151 -148 0
-940 -31 -152 -149 0
-940 -31 -153 -150 0
-940 36 37 0
-940 -36 -151 1288 376 0
-940 -36 -152 1288 382 0
-940 -36 -153 1288 388 0
-940 -37 -151 1288 376 0
-940 -37 -152 1288 382 0
-940 -37 -153 1288 388 0
-940 -151 -352 0
-940 -151 -400 0
-940 -151 -424 0
-940 -151 -358 0
-940 -151 -406 0
-940 -151 -430 0
-940 -151 -364 0
-940 -151 -412 0
-940 -151 -436 0
-940 -152 -358 0
-940 -152 -406 0
-940 -152 -430 0
-940 -152 -364 0
-940 -152 -412 0
-940 -152 -436 0
-940 -153 -364 0
-940 -153 -412 0
-940 -153 -436 0
-940 -154 0
-940 52 0
-940 -151 164 0
-940 -152 165 0
-940 -153 166 0
-940 -233 0
-941 228 0
-941 -32 -151 -148 0
-941 -32 -152 -149 0
-941 -32 -153 -150 0
-941 37 38 0
-941 -37 -151 1289 377 0
-941 -37 -152 1289 383 0
-941 -37 -153 1289 389 0
-941 -38 -151 1289 377 0
-941 -38 -152 1289 383 0
-941 -38 -153 1289 389 0
-941 -151 -353 0
-941 -151 -401 0
-941 -151 -425 0
-941 -151 -359 0
-941 -151 -407 0
-941 -151 -431 0
-941 -151 -365 0
-941 -151 -413 0
-941 -151 -437 0
-941 -152 -359 0
-941 -152 -407 0
-941 -152 -431 0
-941 -152 -365 0
-941 -152 -413 0
-941 -152 -437 0
-941 -153 -365 0
-941 -153 -413 0
-941 -153 -437 0
-941 -154 0
-941 53 0
-941 -151 164 0
-941 -152 165 0
-941 -153 166 0
-941 -233 0
-942 228 0
-942 -33 -151 -148 0
-942 -33 -152 -149 0
-942 -33 -153 -150 0
-942 38 0
-942 -38 -151 1290 378 0
-942 -38 -152 1290 384 0
-942 -38 -153 1290 390 0
-942 -151 -354 0
-942 -151 -402 0
-942 -151 -426 0
-942 -151 -360 0
-942 -151 -408 0
-942 -151 -432 0
-942 -151 -366 0
-942 -151 -414 0
-942 -151 -438 0
-942 -152 -360 0
-942 -152 -408 0
-942 -152 -432 0
-942 -152 -366 0
-942 -152 -414 0
-942 -152 -438 0
-942 -153 -366 0
-942 -153 -414 0
-942 -153 -438 0
-942 -154 0
-942 54 0
-942 -151 164 0
-942 -152 165 0
-942 -153 166 0
-942 -233 0
-943 228 0
-943 -28 -155 -148 0
-943 -28 -156 -149 0
-943 -28 -157 -150 0
-943 39 0
-943 -39 -155 1291 373 0
-943 -39 -156 1291 379 0
-943 -39 -157 1291 385 0
-943 -155 -349 0
-943 -155 -397 0
-943 -155 -421 0
-943 -155 -355 0
-943 -155 -403 0
-943 -155 -427 0
-943 -155 -361 0
-943 -155 -409 0
-943 -155 -433 0
-943 -156 -355 0
-943 -156 -403 0
-943 -156 -427 0
-943 -156 -361 0
-943 -156 -409 0
-943 -156 -433 0
-943 -157 -361 0
-943 -157 -409 0
-943 -157 -433 0
-943 -158 0
-943 49 0
-943 -155 164 0
-943 -156 165 0
-943 -157 166 0
-943 -234 0
-944 228 0
-944 -29 -155 -148 0
-944 -29 -156 -149 0
-944 -29 -157 -150 0
-944 39 40 0
-944 -39 -155 1292 374 0
-944 -39 -156 1292 380 0
-944 -39 -157 1292 386 0
-944 -40 -155 1292 374 0
-944 -40 -156 1292 380 0
-944 -40 -157 1292 386 0
-944 -155 -350 0
-944 -155 -398 0
-944 -155 -422 0
-944 -155 -356 0
-944 -155 -404 0
-944 -155 -428 0
-944 -155 -362 0
-944 -155 -410 0
-944 -155 -434 0
-944 -156 -356 0
-944 -156 -404 0
-944 -156 -428 0
-944 -156 -362 0
-944 -156 -410 0
-944 -156 -434 0
-944 -157 -362 0
-944 -157 -410 0
-944 -157 -434 0
-944 -158 0
-944 50 0
-944 -155 164 0
-944 -156 165 0
-944 -157 166 0
-944 -234 0
-945 228 0
-945 -30 -155 -148 0
-945 -30 -156 -149 0
-945 -30 -157 -150 0
-945 39 40 41 0
-945 -39 -155 1293 375 0
-945 -39 -156 1293 381 0
-945 -39 -157 1293 387 0
-945 -40 -155 1293 375 0
-945 -40 -156 1293 381 0
-945 -40 -157 1293 387 0
-945 -41 -155 1293 375 0
-945 -41 -156 1293 381 0
-945 -41 -157 1293 387 0
-945 -155 -351 0
-945 -155 -399 0
-945 -155 -423 0
-945 -155 -357 0
-945 -155 -405 0
-945 -155 -429 0
-945 -155 -363 0
-945 -155 -411 0
-945 -155 -435 0
-945 -156 -357 0
-945 -156 -405 0
-945 -156 -429 0
-945 -156 -363 0
-945 -156 -411 0
-945 -156 -435 0
-945 -157 -363 0
-945 -157 -411 0
-945 -157 -435 0
-945 -158 0
-945 51 0
-945 -155 164 0
-945 -156 165 0
-945 -157 166 0
-945 -234 0
-946 228 0
-946 -31 -155 -148 0
-946 -31 -156 -149 0
-946 -31 -157 -150 0
-946 40 41 42 0
-946 -40 -155 1294 376 0
-946 -40 -156 1294 382 0
-946 -40 -157 1294 388 0
-946 -41 -155 1294 376 0
-946 -41 -156 1294 382 0
-946 -41 -157 1294 388 0
-946 -42 -155 1294 376 0
-946 -42 -156 1294 382 0
-946 -42 -157 1294 388 0
-946 -155 -352 0
-946 -155 -400 0
-946 -155 -424 0
-946 -155 -358 0
-946 -155 -406 0
-946 -155 -430 0
-946 -155 -364 0
-946 -155 -412 0
-946 -155 -436 0
-946 -156 -358 0
-946 -156 -406 0
-946 -156 -430 0
-946 -156 -364 0
-946 -156 -412 0
-946 -156 -436 0
-946 -157 -364 0
-946 -157 -412 0
-946 -157 -436 0
-946 -158 0
-946 52 0
-946 -155 164 0
-946 -156 165 0
-946 -157 166 0
-946 -234 0
-947 228 0
-947 -32 -155 -148 0
-947 -32 -156 -149 0
-947 -32 -157 -150 0
-947 41 42 0
-947 -41 -155 1295 377 0
-947 -41 -156 1295 383 0
-947 -41 -157 1295 389 0
-947 -42 -155 1295 377 0
-947 -42 -156 1295 383 0
-947 -42 -157 1295 389 0
-947 -155 -353 0
-947 -155 -401 0
-947 -155 -425 0
-947 -155 -359 0
-947 -155 -407 0
-947 -155 -431 0
-947 -155 -365 0
-947 -155 -413 0
-947 -155 -437 0
-947 -156 -359 0
-947 -156 -407 0
-947 -156 -431 0
-947 -156 -365 0
-947 -156 -413 0
-947 -156 -437 0
-947 -157 -365 0
-947 -157 -413 0
-947 -157 -437 0
-947 -158 0
-947 53 0
-947 -155 164 0
-947 -156 165 0
-947 -157 166 0
-947 -234 0
-948 228 0
-948 -33 -155 -148 0
-948 -33 -156 -149 0
-948 -33 -157 -150 0
-948 42 0
-948 -42 -155 1296 378 0
-948 -42 -156 1296 384 0
-948 -42 -157 1296 390 0
-948 -155 -354 0
-948 -155 -402 0
-948 -155 -426 0
-948 -155 -360 0
-948 -155 -408 0
-948 -155 -432 0
-948 -155 -366 0
-948 -155 -414 0
-948 -155 -438 0
-948 -156 -360 0
-948 -156 -408 0
-948 -156 -432 0
-948 -156 -366 0
-948 -156 -414 0
-948 -156 -438 0
-948 -157 -366 0
-948 -157 -414 0
-948 -157 -438 0
-948 -158 0
-948 54 0
-948 -155 164 0
-948 -156 165 0
-948 -157 166 0
-948 -234 0
-949 228 0
-949 -28 -147 0
-949 -343 0
-949 -391 0
-949 -415 0
-949 -349 0
-949 -397 0
-949 -421 0
-949 -355 0
-949 -403 0
-949 -427 0
-949 -361 0
-949 -409 0
-949 -433 0
-949 49 0
-949 163 0
-950 228 0
-950 -29 -147 0
-950 -344 0
-950 -392 0
-950 -416 0
-950 -350 0
-950 -398 0
-950 -422 0
-950 -356 0
-950 -404 0
-950 -428 0
-950 -362 0
-950 -410 0
-950 -434 0
-950 50 0
-950 163 0
-951 228 0
-951 -30 -147 0
-951 -345 0
-951 -393 0
-951 -417 0
-951 -351 0
-951 -399 0
-951 -423 0
-951 -357 0
-951 -405 0
-951 -429 0
-951 -363 0
-951 -411 0
-951 -435 0
-951 51 0
-951 163 0
-952 228 0
-952 -31 -147 0
-952 -346 0
-952 -394 0
-952 -418 0
-952 -352 0
-952 -400 0
-952 -424 0
-952 -358 0
-952 -406 0
-952 -430 0
-952 -364 0
-952 -412 0
-952 -436 0
-952 52 0
-952 163 0
-953 228 0
-953 -32 -147 0
-953 -347 0
-953 -395 0
-953 -419 0
-953 -353 0
-953 -401 0
-953 -425 0
-953 -359 0
-953 -407 0
-953 -431 0
-953 -365 0
-953 -413 0
-953 -437 0
-953 53 0
-953 163 0
-954 228 0
-954 -33 -147 0
-954 -348 0
-954 -396 0
-954 -420 0
-954 -354 0
-954 -402 0
-954 -426 0
-954 -360 0
-954 -408 0
-954 -432 0
-954 -366 0
-954 -414 0
-954 -438 0
-954 54 0
-954 163 0
-955 229 0
-955 -34 -143 -152 0
-955 -34 -144 -153 0
-955 -34 -145 -154 0
-955 22 23 0
-955 -22 -143 1273 397 0
-955 -22 -144 1273 403 0
-955 -22 -145 1273 409 0
-955 -23 -143 1274 398 0
-955 -23 -144 1274 404 0
-955 -23 -145 1274 410 0
-955 -143 -349 0
-955 -143 -373 0
-955 -143 -421 0
-955 -143 -355 0
-955 -143 -379 0
-955 -143 -427 0
-955 -143 -361 0
-955 -143 -385 0
-955 -143 -433 0
-955 -143 -350 0
-955 -143 -374 0
-955 -143 -422 0
-955 -143 -356 0
-955 -143 -380 0
-955 -143 -428 0
-955 -143 -362 0
-955 -143 -386 0
-955 -143 -434 0
-955 -144 -355 0
-955 -144 -379 0
-955 -144 -427 0
-955 -144 -361 0
-955 -144 -385 0
-955 -144 -433 0
-955 -144 -356 0
-955 -144 -380 0
-955 -144 -428 0
-955 -144 -362 0
-955 -144 -386 0
-955 -144 -434 0
-955 -145 -361 0
-955 -145 -385 0
-955 -145 -433 0
-955 -145 -362 0
-955 -145 -386 0
-955 -145 -434 0
-955 -146 0
-955 55 0
-955 -143 168 0
-955 -144 169 0
-955 -145 170 0
-955 -231 0
-956 229 0
-956 -35 -143 -152 0
-956 -35 -144 -153 0
-956 -35 -145 -154 0
-956 23 24 0
-956 -23 -143 1274 398 0
-956 -23 -144 1274 404 0
-956 -23 -145 1274 410 0
-956 -24 -143 1275 399 0
-956 -24 -144 1275 405 0
-956 -24 -145 1275 411 0
-956 -143 -350 0
-956 -143 -374 0
-956 -143 -422 0
-956 -143 -356 0
-956 -143 -380 0
-956 -143 -428 0
-956 -143 -362 0
-956 -143 -386 0
-956 -143 -434 0
-956 -143 -351 0
-956 -143 -375 0
-956 -143 -423 0
-956 -143 -357 0
-956 -143 -381 0
-956 -143 -429 0
-956 -143 -363 0
-956 -143 -387 0
-956 -143 -435 0
-956 -144 -356 0
-956 -144 -380 0
-956 -144 -428 0
-956 -144 -362 0
-956 -144 -386 0
-956 -144 -434 0
-956 -144 -357 0
-956 -144 -381 0
-956 -144 -429 0
-956 -144 -363 0
-956 -144 -387 0
-956 -144 -435 0
-956 -145 -362 0
-956 -145 -386 0
-956 -145 -434 0
-956 -145 -363 0
-956 -145 -387 0
-956 -145 -435 0
-956 -146 0
-956 56 0
-956 -143 168 0
-956 -144 169 0
-956 -145 170 0
-956 -231 0
-957 229 0
-957 -36 -143 -152 0
-957 -36 -144 -153 0
-957 -36 -145 -154 0
-957 24 25 0
-957 -24 -143 1275 399 0
-957 -24 -144 1275 405 0
-957 -24 -145 1275 411 0
-957 -25 -143 1276 400 0
-957 -25 -144 1276 406 0
-957 -25 -145 1276 412 0
-957 -143 -351 0
-957 -143 -375 0
-957 -143 -423 0
-957 -143 -357 0
-957 -143 -381 0
-957 -143 -429 0
-957 -143 -363 0
-957 -143 -387 0
-957 -143 -435 0
-957 -143 -352 0
-957 -143 -376 0
-957 -143 -424 0
-957 -143 -358 0
-957 -143 -382 0
-957 -143 -430 0
-957 -143 -364 0
-957 -143 -388 0
-957 -143 -436 0
-957 -144 -357 0
-957 -144 -381 0
-957 -144 -429 0
-957 -144 -363 0
-957 -144 -387 0
-957 -144 -435 0
-957 -144 -358 0
-957 -144 -382 0
-957 -144 -430 0
-957 -144 -364 0
-957 -144 -388 0
-957 -144 -436 0
-957 -145 -363 0
-957 -145 -387 0
-957 -145 -435 0
-957 -145 -364 0
-957 -145 -388 0
-957 -145 -436 0
-957 -146 0
-957 57 0
-957 -143 168 0
-957 -144 169 0
-957 -145 170 0
-957 -231 0
-958 229 0
-958 -37 -143 -152 0
-958 -37 -144 -153 0
-958 -37 -145 -154 0
-958 25 26 0
-958 -25 -143 1276 400 0
-958 -25 -144 1276 406 0
-958 -25 -145 1276 412 0
-958 -26 -143 1277 401 0
-958 -26 -144 1277 407 0
-958 -26 -145 1277 413 0
-958 -143 -352 0
-958 -143 -376 0
-958 -143 -424 0
-958 -143 -358 0
-958 -143 -382 0
-958 -143 -430 0
-958 -143 -364 0
-958 -143 -388 0
-958 -143 -436 0
-958 -143 -353 0
-958 -143 -377 0
-958 -143 -425 0
-958 -143 -359 0
-958 -143 -383 0
-958 -143 -431 0
-958 -143 -365 0
-958 -143 -389 0
-958 -143 -437 0
-958 -144 -358 0
-958 -144 -382 0
-958 -144 -430 0
-958 -144 -364 0
-958 -144 -388 0
-958 -144 -436 0
-958 -144 -359 0
-958 -144 -383 0
-958 -144 -431 0
-958 -144 -365 0
-958 -144 -389 0
-958 -144 -437 0
-958 -145 -364 0
-958 -145 -388 0
-958 -145 -436 0
-958 -145 -365 0
-958 -145 -389 0
-958 -145 -437 0
-958 -146 0
-958 58 0
-958 -143 168 0
-958 -144 169 0
-958 -145 170 0
-958 -231 0
-959 229 0
-959 -38 -143 -152 0
-959 -38 -144 -153 0
-959 -38 -145 -154 0
-959 26 27 0
-959 -26 -143 1277 401 0
-959 -26 -144 1277 407 0
-959 -26 -145 1277 413 0
-959 -27 -143 1278 402 0
-959 -27 -144 1278 408 0
-959 -27 -145 1278 414 0
-959 -143 -353 0
-959 -143 -377 0
-959 -143 -425 0
-959 -143 -359 0
-959 -143 -383 0
-959 -143 -431 0
-959 -143 -365 0
-959 -143 -389 0
-959 -143 -437 0
-959 -143 -354 0
-959 -143 -378 0
-959 -143 -426 0
-959 -143 -360 0
-959 -143 -384 0
-959 -143 -432 0
-959 -143 -366 0
-959 -143 -390 0
-959 -143 -438 0
-959 -144 -359 0
-959 -144 -383 0
-959 -144 -431 0
-959 -144 -365 0
-959 -144 -389 0
-959 -144 -437 0
-959 -144 -360 0
-959 -144 -384 0
-959 -144 -432 0
-959 -144 -366 0
-959 -144 -390 0
-959 -144 -438 0
-959 -145 -365 0
-959 -145 -389 0
-959 -145 -437 0
-959 -145 -366 0
-959 -145 -390 0
-959 -145 -438 0
-959 -146 0
-959 59 0
-959 -143 168 0
-959 -144 169 0
-959 -145 170 0
-959 -231 0
-960 229 0
-960 -34 -147 -152 0
-960 -34 -148 -153 0
-960 -34 -149 -154 0
-960 28 29 0
-960 -28 -147 1279 397 0
-960 -28 -148 1279 403 0
-960 -28 -149 1279 409 0
-960 -29 -147 1280 398 0
-960 -29 -148 1280 404 0
-960 -29 -149 1280 410 0
-960 -147 -349 0
-960 -147 -373 0
-960 -147 -421 0
-960 -147 -355 0
-960 -147 -379 0
-960 -147 -427 0
-960 -147 -361 0
-960 -147 -385 0
-960 -147 -433 0
-960 -147 -350 0
-960 -147 -374 0
-960 -147 -422 0
-960 -147 -356 0
-960 -147 -380 0
-960 -147 -428 0
-960 -147 -362 0
-960 -147 -386 0
-960 -147 -434 0
-960 -148 -355 0
-960 -148 -379 0
-960 -148 -427 0
-960 -148 -361 0
-960 -148 -385 0
-960 -148 -433 0
-960 -148 -356 0
-960 -148 -380 0
-960 -148 -428 0
-960 -148 -362 0
-960 -148 -386 0
-960 -148 -434 0
-960 -149 -361 0
-960 -149 -385 0
-960 -149 -433 0
-960 -149 -362 0
-960 -149 -386 0
-960 -149 -434 0
-960 -150 0
-960 55 0
-960 -147 168 0
-960 -148 169 0
-960 -149 170 0
-960 -232 0
-961 229 0
-961 -35 -147 -152 0
-961 -35 -148 -153 0
-961 -35 -149 -154 0
-961 29 30 0
-961 -29 -147 1280 398 0
-961 -29 -148 1280 404 0
-961 -29 -149 1280 410 0
-961 -30 -147 1281 399 0
-961 -30 -148 1281 405 0
-961 -30 -149 1281 411 0
-961 -147 -350 0
-961 -147 -374 0
-961 -147 -422 0
-961 -147 -356 0
-961 -147 -380 0
-961 -147 -428 0
-961 -147 -362 0
-961 -147 -386 0
-961 -147 -434 0
-961 -147 -351 0
-961 -147 -375 0
-961 -147 -423 0
-961 -147 -357 0
-961 -147 -381 0
-961 -147 -429 0
-961 -147 -363 0
-961 -147 -387 0
-961 -147 -435 0
-961 -148 -356 0
-961 -148 -380 0
-961 -148 -428 0
-961 -148 -362 0
-961 -148 -386 0
-961 -148 -434 0
-961 -148 -357 0
-961 -148 -381 0
-961 -148 -429 0
-961 -148 -363 0
-961 -148 -387 0
-961 -148 -435 0
-961 -149 -362 0
-961 -149 -386 0
-961 -149 -434 0
-961 -149 -363 0
-961 -149 -387 0
-961 -149 -435 0
-961 -150 0
-961 56 0
-961 -147 168 0
-961 -148 169 0
-961 -149 170 0
-961 -232 0
-962 229 0
-962 -36 -147 -152 0
-962 -36 -148 -153 0
-962 -36 -149 -154 0
-962 30 31 0
-962 -30 -147 1281 399 0
-962 -30 -148 1281 405 0
-962 -30 -149 1281 411 0
-962 -31 -147 1282 400 0
-962 -31 -148 1282 406 0
-962 -31 -149 1282 412 0
-962 -147 -351 0
-962 -147 -375 0
-962 -147 -423 0
-962 -147 -357 0
-962 -147 -381 0
-962 -147 -429 0
-962 -147 -363 0
-962 -147 -387 0
-962 -147 -435 0
-962 -147 -352 0
-962 -147 -376 0
-962 -147 -424 0
-962 -147 -358 0
-962 -147 -382 0
-962 -147 -430 0
-962 -147 -364 0
-962 -147 -388 0
-962 -147 -436 0
-962 -148 -357 0
-962 -148 -381 0
-962 -148 -429 0
-962 -148 -363 0
-962 -148 -387 0
-962 -148 -435 0
-962 -148 -358 0
-962 -148 -382 0
-962 -148 -430 0
-962 -148 -364 0
-962 -148 -388 0
-962 -148 -436 0
-962 -149 -363 0
-962 -149 -387 0
-962 -149 -435 0
-962 -149 -364 0
-962 -149 -388 0
-962 -149 -436 0
-962 -150 0
-962 57 0
-962 -147 168 0
-962 -148 169 0
-962 -149 170 0
-962 -232 0
-963 229 0
-963 -37 -147 -152 0
-963 -37 -148 -153 0
-963 -37 -149 -154 0
-963 31 32 0
-963 -31 -147 1282 400 0
-963 -31 -148 1282 406 0
-963 -31 -149 1282 412 0
-963 -32 -147 1283 401 0
-963 -32 -148 1283 407 0
-963 -32 -149 1283 413 0
-963 -147 -352 0
-963 -147 -376 0
-963 -147 -424 0
-963 -147 -358 0
-963 -147 -382 0
-963 -147 -430 0
-963 -147 -364 0
-963 -147 -388 0
-963 -147 -436 0
-963 -147 -353 0
-963 -147 -377 0
-963 -147 -425 0
-963 -147 -359 0
-963 -147 -383 0
-963 -147 -431 0
-963 -147 -365 0
-963 -147 -389 0
-963 -147 -437 0
-963 -148 -358 0
-963 -148 -382 0
-963 -148 -430 0
-963 -148 -364 0
-963 -148 -388 0
-963 -148 -436 0
-963 -148 -359 0
-963 -148 -383 0
-963 -148 -431 0
-963 -148 -365 0
-963 -148 -389 0
-963 -148 -437 0
-963 -149 -364 0
-963 -149 -388 0
-963 -149 -436 0
-963 -149 -365 0
-963 -149 -389 0
-963 -149 -437 0
-963 -150 0
-963 58 0
-963 -147 168 0
-963 -148 169 0
-963 -149 170 0
-963 -232 0
-964 229 0
-964 -38 -147 -152 0
-964 -38 -148 -153 0
-964 -38 -149 -154 0
-964 32 33 0
-964 -32 -147 1283 401 0
-964 -32 -148 1283 407 0
-964 -32 -149 1283 413 0
-964 -33 -147 1284 402 0
-964 -33 -148 1284 408 0
-964 -33 -149 1284 414 0
-964 -147 -353 0
-964 -147 -377 0
-964 -147 -425 0
-964 -147 -359 0
-964 -147 -383 0
-964 -147 -431 0
-964 -147 -365 0
-964 -147 -389 0
-964 -147 -437 0
-964 -147 -354 0
-964 -147 -378 0
-964 -147 -426 0
-964 -147 -360 0
-964 -147 -384 0
-964 -147 -432 0
-964 -147 -366 0
-964 -147 -390 0
-964 -147 -438 0
-964 -148 -359 0
-964 -148 -383 0
-964 -148 -431 0
-964 -148 -365 0
-964 -148 -389 0
-964 -148 -437 0
-964 -148 -360 0
-964 -148 -384 0
-964 -148 -432 0
-964 -148 -366 0
-964 -148 -390 0
-964 -148 -438 0
-964 -149 -365 0
-964 -149 -389 0
-964 -149 -437 0
-964 -149 -366 0
-964 -149 -390 0
-964 -149 -438 0
-964 -150 0
-964 59 0
-964 -147 168 0
-964 -148 169 0
-964 -149 170 0
-964 -232 0
-965 229 0
-965 -34 -155 -152 0
-965 -34 -156 -153 0
-965 -34 -157 -154 0
-965 39 40 0
-965 -39 -155 1291 397 0
-965 -39 -156 1291 403 0
-965 -39 -157 1291 409 0
-965 -39 -155 1292 398 0
-965 -39 -156 1292 404 0
-965 -39 -157 1292 410 0
-965 -40 -155 1292 398 0
-965 -40 -156 1292 404 0
-965 -40 -157 1292 410 0
-965 -155 -349 0
-965 -155 -373 0
-965 -155 -421 0
-965 -155 -355 0
-965 -155 -379 0
-965 -155 -427 0
-965 -155 -361 0
-965 -155 -385 0
-965 -155 -433 0
-965 -155 -350 0
-965 -155 -374 0
-965 -155 -422 0
-965 -155 -356 0
-965 -155 -380 0
-965 -155 -428 0
-965 -155 -362 0
-965 -155 -386 0
-965 -155 -434 0
-965 -156 -355 0
-965 -156 -379 0
-965 -156 -427 0
-965 -156 -361 0
-965 -156 -385 0
-965 -156 -433 0
-965 -156 -356 0
-965 -156 -380 0
-965 -156 -428 0
-965 -156 -362 0
-965 -156 -386 0
-965 -156 -434 0
-965 -157 -361 0
-965 -157 -385 0
-965 -157 -433 0
-965 -157 -362 0
-965 -157 -386 0
-965 -157 -434 0
-965 -158 0
-965 55 0
-965 -155 168 0
-965 -156 169 0
-965 -157 170 0
-965 -234 0
-966 229 0
-966 -35 -155 -152 0
-966 -35 -156 -153 0
-966 -35 -157 -154 0
-966 39 40 41 0
-966 -39 -155 1292 398 0
-966 -39 -156 1292 404 0
-966 -39 -157 1292 410 0
-966 -39 -155 1293 399 0
-966 -39 -156 1293 405 0
-966 -39 -157 1293 411 0
-966 -40 -155 1292 398 0
-966 -40 -156 1292 404 0
-966 -40 -157 1292 410 0
-966 -40 -155 1293 399 0
-966 -40 -156 1293 405 0
-966 -40 -157 1293 411 0
-966 -41 -155 1293 399 0
-966 -41 -156 1293 405 0
-966 -41 -157 1293 411 0
-966 -155 -350 0
-966 -155 -374 0
-966 -155 -422 0
-966 -155 -356 0
-966 -155 -380 0
-966 -155 -428 0
-966 -155 -362 0
-966 -155 -386 0
-966 -155 -434 0
-966 -155 -351 0
-966 -155 -375 0
-966 -155 -423 0
-966 -155 -357 0
-966 -155 -381 0
-966 -155 -429 0
-966 -155 -363 0
-966 -155 -387 0
-966 -155 -435 0
-966 -156 -356 0
-966 -156 -380 0
-966 -156 -428 0
-966 -156 -362 0
-966 -156 -386 0
-966 -156 -434 0
-966 -156 -357 0
-966 -156 -381 0
-966 -156 -429 0
-966 -156 -363 0
-966 -156 -387 0
-966 -156 -435 0
-966 -157 -362 0
-966 -157 -386 0
-966 -157 -434 0
-966 -157 -363 0
-966 -157 -387 0
-966 -157 -435 0
-966 -158 0
-966 56 0
-966 -155 168 0
-966 -156 169 0
-966 -157 170 0
-966 -234 0
-967 229 0
-967 -36 -155 -152 0
-967 -36 -156 -153 0
-967 -36 -157 -154 0
-967 39 40 41 42 0
-967 -39 -155 1293 399 0
-967 -39 -156 1293 405 0
-967 -39 -157 1293 411 0
-967 -40 -155 1293 399 0
-967 -40 -156 1293 405 0
-967 -40 -157 1293 411 0
-967 -40 -155 1294 400 0
-967 -40 -156 1294 406 0
-967 -40 -157 1294 412 0
-967 -41 -155 1293 399 0
-967 -41 -156 1293 405 0
-967 -41 -157 1293 411 0
-967 -41 -155 1294 400 0
-967 -41 -156 1294 406 0
-967 -41 -157 1294 412 0
-967 -42 -155 1294 400 0
-967 -42 -156 1294 406 0
-967 -42 -157 1294 412 0
-967 -155 -351 0
-967 -155 -375 0
-967 -155 -423 0
-967 -155 -357 0
-967 -155 -381 0
-967 -155 -429 0
-967 -155 -363 0
-967 -155 -387 0
-967 -155 -435 0
-967 -155 -352 0
-967 -155 -376 0
-967 -155 -424 0
-967 -155 -358 0
-967 -155 -382 0
-967 -155 -430 0
-967 -155 -364 0
-967 -155 -388 0
-967 -155 -436 0
-967 -156 -357 0
-967 -156 -381 0
-967 -156 -429 0
-967 -156 -363 0
-967 -156 -387 0
-967 -156 -435 0
-967 -156 -358 0
-967 -156 -382 0
-967 -156 -430 0
-967 -156 -364 0
-967 -156 -388 0
-967 -156 -436 0
-967 -157 -363 0
-967 -157 -387 0
-967 -157 -435 0
-967 -157 -364 0
-967 -157 -388 0
-967 -157 -436 0
-967 -158 0
-967 57 0
-967 -155 168 0
-967 -156 169 0
-967 -157 170 0
-967 -234 0
-968 229 0
-968 -37 -155 -152 0
-968 -37 -156 -153 0
-968 -37 -157 -154 0
-968 40 41 42 0
-968 -40 -155 1294 400 0
-968 -40 -156 1294 406 0
-968 -40 -157 1294 412 0
-968 -41 -155 1294 400 0
-968 -41 -156 1294 406 0
-968 -41 -157 1294 412 0
-968 -41 -155 1295 401 0
-968 -41 -156 1295 407 0
-968 -41 -157 1295 413 0
-968 -42 -155 1294 400 0
-968 -42 -156 1294 406 0
-968 -42 -157 1294 412 0
-968 -42 -155 1295 401 0
-968 -42 -156 1295 407 0
-968 -42 -157 1295 413 0
-968 -155 -352 0
-968 -155 -376 0
-968 -155 -424 0
-968 -155 -358 0
-968 -155 -382 0
-968 -155 -430 0
-968 -155 -364 0
-968 -155 -388 0
-968 -155 -436 0
-968 -155 -353 0
-968 -155 -377 0
-968 -155 -425 0
-968 -155 -359 0
-968 -155 -383 0
-968 -155 -431 0
-968 -155 -365 0
-968 -155 -389 0
-968 -155 -437 0
-968 -156 -358 0
-968 -156 -382 0
-968 -156 -430 0
-968 -156 -364 0
-968 -156 -388 0
-968 -156 -436 0
-968 -156 -359 0
-968 -156 -383 0
-968 -156 -431 0
-968 -156 -365 0
-968 -156 -389 0
-968 -156 -437 0
-968 -157 -364 0
-968 -157 -388 0
-968 -157 -436 0
-968 -157 -365 0
-968 -157 -389 0
-968 -157 -437 0
-968 -158 0
-968 58 0
-968 -155 168 0
-968 -156 169 0
-968 -157 170 0
-968 -234 0
-969 229 0
-969 -38 -155 -152 0
-969 -38 -156 -153 0
-969 -38 -157 -154 0
-969 41 42 0
-969 -41 -155 1295 401 0
-969 -41 -156 1295 407 0
-969 -41 -157 1295 413 0
-969 -42 -155 1295 401 0
-969 -42 -156 1295 407 0
-969 -42 -157 1295 413 0
-969 -42 -155 1296 402 0
-969 -42 -156 1296 408 0
-969 -42 -157 1296 414 0
-969 -155 -353 0
-969 -155 -377 0
-969 -155 -425 0
-969 -155 -359 0
-969 -155 -383 0
-969 -155 -431 0
-969 -155 -365 0
-969 -155 -389 0
-969 -155 -437 0
-969 -155 -354 0
-969 -155 -378 0
-969 -155 -426 0
-969 -155 -360 0
-969 -155 -384 0
-969 -155 -432 0
-969 -155 -366 0
-969 -155 -390 0
-969 -155 -438 0
-969 -156 -359 0
-969 -156 -383 0
-969 -156 -431 0
-969 -156 -365 0
-969 -156 -389 0
-969 -156 -437 0
-969 -156 -360 0
-969 -156 -384 0
-969 -156 -432 0
-969 -156 -366 0
-969 -156 -390 0
-969 -156 -438 0
-969 -157 -365 0
-969 -157 -389 0
-969 -157 -437 0
-969 -157 -366 0
-969 -157 -390 0
-969 -157 -438 0
-969 -158 0
-969 59 0
-969 -155 168 0
-969 -156 169 0
-969 -157 170 0
-969 -234 0
-970 229 0
-970 -34 -151 0
-970 -343 0
-970 -367 0
-970 -415 0
-970 -349 0
-970 -373 0
-970 -421 0
-970 -355 0
-970 -379 0
-970 -427 0
-970 -361 0
-970 -385 0
-970 -433 0
-970 -344 0
-970 -368 0
-970 -416 0
-970 -350 0
-970 -374 0
-970 -422 0
-970 -356 0
-970 -380 0
-970 -428 0
-970 -362 0
-970 -386 0
-970 -434 0
-970 55 0
-970 167 0
-971 229 0
-971 -35 -151 0
-971 -344 0
-971 -368 0
-971 -416 0
-971 -350 0
-971 -374 0
-971 -422 0
-971 -356 0
-971 -380 0
-971 -428 0
-971 -362 0
-971 -386 0
-971 -434 0
-971 -345 0
-971 -369 0
-971 -417 0
-971 -351 0
-971 -375 0
-971 -423 0
-971 -357 0
-971 -381 0
-971 -429 0
-971 -363 0
-971 -387 0
-971 -435 0
-971 56 0
-971 167 0
-972 229 0
-972 -36 -151 0
-972 -345 0
-972 -369 0
-972 -417 0
-972 -351 0
-972 -375 0
-972 -423 0
-972 -357 0
-972 -381 0
-972 -429 0
-972 -363 0
-972 -387 0
-972 -435 0
-972 -346 0
-972 -370 0
-972 -418 0
-972 -352 0
-972 -376 0
-972 -424 0
-972 -358 0
-972 -382 0
-972 -430 0
-972 -364 0
-972 -388 0
-972 -436 0
-972 57 0
-972 167 0
-973 229 0
-973 -37 -151 0
-973 -346 0
-973 -370 0
-973 -418 0
-973 -352 0
-973 -376 0
-973 -424 0
-973 -358 0
-973 -382 0
-973 -430 0
-973 -364 0
-973 -388 0
-973 -436 0
-973 -347 0
-973 -371 0
-973 -419 0
-973 -353 0
-973 -377 0
-973 -425 0
-973 -359 0
-973 -383 0
-973 -431 0
-973 -365 0
-973 -389 0
-973 -437 0
-973 58 0
-973 167 0
-974 229 0
-974 -38 -151 0
-974 -347 0
-974 -371 0
-974 -419 0
-974 -353 0
-974 -377 0
-974 -425 0
-974 -359 0
-974 -383 0
-974 -431 0
-974 -365 0
-974 -389 0
-974 -437 0
-974 -348 0
-974 -372 0
-974 -420 0
-974 -354 0
-974 -378 0
-974 -426 0
-974 -360 0
-974 -384 0
-974 -432 0
-974 -366 0
-974 -390 0
-974 -438 0
-974 59 0
-974 167 0
-975 230 0
-975 -39 -143 -156 0
-975 -39 -144 -157 0
-975 -39 -145 -158 0
-975 22 23 24 0
-975 -22 -143 1273 421 0
-975 -22 -144 1273 427 0
-975 -22 -145 1273 433 0
-975 -23 -143 1274 422 0
-975 -23 -144 1274 428 0
-975 -23 -145 1274 434 0
-975 -24 -143 1275 423 0
-975 -24 -144 1275 429 0
-975 -24 -145 1275 435 0
-975 -143 -349 0
-975 -143 -373 0
-975 -143 -397 0
-975 -143 -355 0
-975 -143 -379 0
-975 -143 -403 0
-975 -143 -361 0
-975 -143 -385 0
-975 -143 -409 0
-975 -143 -350 0
-975 -143 -374 0
-975 -143 -398 0
-975 -143 -356 0
-975 -143 -380 0
-975 -143 -404 0
-975 -143 -362 0
-975 -143 -386 0
-975 -143 -410 0
-975 -143 -351 0
-975 -143 -375 0
-975 -143 -399 0
-975 -143 -357 0
-975 -143 -381 0
-975 -143 -405 0
-975 -143 -363 0
-975 -143 -387 0
-975 -143 -411 0
-975 -144 -355 0
-975 -144 -379 0
-975 -144 -403 0
-975 -144 -361 0
-975 -144 -385 0
-975 -144 -409 0
-975 -144 -356 0
-975 -144 -380 0
-975 -144 -404 0
-975 -144 -362 0
-975 -144 -386 0
-975 -144 -410 0
-975 -144 -357 0
-975 -144 -381 0
-975 -144 -405 0
-975 -144 -363 0
-975 -144 -387 0
-975 -144 -411 0
-975 -145 -361 0
-975 -145 -385 0
-975 -145 -409 0
-975 -145 -362 0
-975 -145 -386 0
-975 -145 -410 0
-975 -145 -363 0
-975 -145 -387 0
-975 -145 -411 0
-975 -146 0
-975 60 0
-975 -143 172 0
-975 -144 173 0
-975 -145 174 0
-975 -231 0
-976 230 0
-976 -40 -143 -156 0
-976 -40 -144 -157 0
-976 -40 -145 -158 0
-976 23 24 25 0
-976 -23 -143 1274 422 0
-976 -23 -144 1274 428 0
-976 -23 -145 1274 434 0
-976 -24 -143 1275 423 0
-976 -24 -144 1275 429 0
-976 -24 -145 1275 435 0
-976 -25 -143 1276 424 0
-976 -25 -144 1276 430 0
-976 -25 -145 1276 436 0
-976 -143 -350 0
-976 -143 -374 0
-976 -143 -398 0
-976 -143 -356 0
-976 -143 -380 0
-976 -143 -404 0
-976 -143 -362 0
-976 -143 -386 0
-976 -143 -410 0
-976 -143 -351 0
-976 -143 -375 0
-976 -143 -399 0
-976 -143 -357 0
-976 -143 -381 0
-976 -143 -405 0
-976 -143 -363 0
-976 -143 -387 0
-976 -143 -411 0
-976 -143 -352 0
-976 -143 -376 0
-976 -143 -400 0
-976 -143 -358 0
-976 -143 -382 0
-976 -143 -406 0
-976 -143 -364 0
-976 -143 -388 0
-976 -143 -412 0
-976 -144 -356 0
-976 -144 -380 0
-976 -144 -404 0
-976 -144 -362 0
-976 -144 -386 0
-976 -144 -410 0
-976 -144 -357 0
-976 -144 -381 0
-976 -144 -405 0
-976 -144 -363 0
-976 -144 -387 0
-976 -144 -411 0
-976 -144 -358 0
-976 -144 -382 0
-976 -144 -406 0
-976 -144 -364 0
-976 -144 -388 0
-976 -144 -412 0
-976 -145 -362 0
-976 -145 -386 0
-976 -145 -410 0
-976 -145 -363 0
-976 -145 -387 0
-976 -145 -411 0
-976 -145 -364 0
-976 -145 -388 0
-976 -145 -412 0
-976 -146 0
-976 61 0
-976 -143 172 0
-976 -144 173 0
-976 -145 174 0
-976 -231 0
-977 230 0
-977 -41 -143 -156 0
-977 -41 -144 -157 0
-977 -41 -145 -158 0
-977 24 25 26 0
-977 -24 -143 1275 423 0
-977 -24 -144 1275 429 0
-977 -24 -145 1275 435 0
-977 -25 -143 1276 424 0
-977 -25 -144 1276 430 0
-977 -25 -145 1276 436 0
-977 -26 -143 1277 425 0
-977 -26 -144 1277 431 0
-977 -26 -145 1277 437 0
-977 -143 -351 0
-977 -143 -375 0
-977 -143 -399 0
-977 -143 -357 0
-977 -143 -381 0
-977 -143 -405 0
-977 -143 -363 0
-977 -143 -387 0
-977 -143 -411 0
-977 -143 -352 0
-977 -143 -376 0
-977 -143 -400 0
-977 -143 -358 0
-977 -143 -382 0
-977 -143 -406 0
-977 -143 -364 0
-977 -143 -388 0
-977 -143 -412 0
-977 -143 -353 0
-977 -143 -377 0
-977 -143 -401 0
-977 -143 -359 0
-977 -143 -383 0
-977 -143 -407 0
-977 -143 -365 0
-977 -143 -389 0
-977 -143 -413 0
-977 -144 -357 0
-977 -144 -381 0
-977 -144 -405 0
-977 -144 -363 0
-977 -144 -387 0
-977 -144 -411 0
-977 -144 -358 0
-977 -144 -382 0
-977 -144 -406 0
-977 -144 -364 0
-977 -144 -388 0
-977 -144 -412 0
-977 -144 -359 0
-977 -144 -383 0
-977 -144 -407 0
-977 -144 -365 0
-977 -144 -389 0
-977 -144 -413 0
-977 -145 -363 0
-977 -145 -387 0
-977 -145 -411 0
-977 -145 -364 0
-977 -145 -388 0
-977 -145 -412 0
-977 -145 -365 0
-977 -145 -389 0
-977 -145 -413 0
-977 -146 0
-977 62 0
-977 -143 172 0
-977 -144 173 0
-977 -145 174 0
-977 -231 0
-978 230 0
-978 -42 -143 -156 0
-978 -42 -144 -157 0
-978 -42 -145 -158 0
-978 25 26 27 0
-978 -25 -143 1276 424 0
-978 -25 -144 1276 430 0
-978 -25 -145 1276 436 0
-978 -26 -143 1277 425 0
-978 -26 -144 1277 431 0
-978 -26 -145 1277 437 0
-978 -27 -143 1278 426 0
-978 -27 -144 1278 432 0
-978 -27 -145 1278 438 0
-978 -143 -352 0
-978 -143 -376 0
-978 -143 -400 0
-978 -143 -358 0
-978 -143 -382 0
-978 -143 -406 0
-978 -143 -364 0
-978 -143 -388 0
-978 -143 -412 0
-978 -143 -353 0
-978 -143 -377 0
-978 -143 -401 0
-978 -143 -359 0
-978 -143 -383 0
-978 -143 -407 0
-978 -143 -365 0
-978 -143 -389 0
-978 -143 -413 0
-978 -143 -354 0
-978 -143 -378 0
-978 -143 -402 0
-978 -143 -360 0
-978 -143 -384 0
-978 -143 -408 0
-978 -143 -366 0
-978 -143 -390 0
-978 -143 -414 0
-978 -144 -358 0
-978 -144 -382 0
-978 -144 -406 0
-978 -144 -364 0
-978 -144 -388 0
-978 -144 -412 0
-978 -144 -359 0
-978 -144 -383 0
-978 -144 -407 0
-978 -144 -365 0
-978 -144 -389 0
-978 -144 -413 0
-978 -144 -360 0
-978 -144 -384 0
-978 -144 -408 0
-978 -144 -366 0
-978 -144 -390 0
-978 -144 -414 0
-978 -145 -364 0
-978 -145 -388 0
-978 -145 -412 0
-978 -145 -365 0
-978 -145 -389 0
-978 -145 -413 0
-978 -145 -366 0
-978 -145 -390 0
-978 -145 -414 0
-978 -146 0
-978 63 0
-978 -143 172 0
-978 -144 173 0
-978 -145 174 0
-978 -231 0
-979 230 0
-979 -39 -147 -156 0
-979 -39 -148 -157 0
-979 -39 -149 -158 0
-979 28 29 30 0
-979 -28 -147 1279 421 0
-979 -28 -148 1279 427 0
-979 -28 -149 1279 433 0
-979 -29 -147 1280 422 0
-979 -29 -148 1280 428 0
-979 -29 -149 1280 434 0
-979 -30 -147 1281 423 0
-979 -30 -148 1281 429 0
-979 -30 -149 1281 435 0
-979 -147 -349 0
-979 -147 -373 0
-979 -147 -397 0
-979 -147 -355 0
-979 -147 -379 0
-979 -147 -403 0
-979 -147 -361 0
-979 -147 -385 0
-979 -147 -409 0
-979 -147 -350 0
-979 -147 -374 0
-979 -147 -398 0
-979 -147 -356 0
-979 -147 -380 0
-979 -147 -404 0
-979 -147 -362 0
-979 -147 -386 0
-979 -147 -410 0
-979 -147 -351 0
-979 -147 -375 0
-979 -147 -399 0
-979 -147 -357 0
-979 -147 -381 0
-979 -147 -405 0
-979 -147 -363 0
-979 -147 -387 0
-979 -147 -411 0
-979 -148 -355 0
-979 -148 -379 0
-979 -148 -403 0
-979 -148 -361 0
-979 -148 -385 0
-979 -148 -409 0
-979 -148 -356 0
-979 -148 -380 0
-979 -148 -404 0
-979 -148 -362 0
-979 -148 -386 0
-979 -148 -410 0
-979 -148 -357 0
-979 -148 -381 0
-979 -148 -405 0
-979 -148 -363 0
-979 -148 -387 0
-979 -148 -411 0
-979 -149 -361 0
-979 -149 -385 0
-979 -149 -409 0
-979 -149 -362 0
-979 -149 -386 0
-979 -149 -410 0
-979 -149 -363 0
-979 -149 -387 0
-979 -149 -411 0
-979 -150 0
-979 60 0
-979 -147 172 0
-979 -148 173 0
-979 -149 174 0
-979 -232 0
-980 230 0
-980 -40 -147 -156 0
-980 -40 -148 -157 0
-980 -40 -149 -158 0
-980 29 30 31 0
-980 -29 -147 1280 422 0
-980 -29 -148 1280 428 0
-980 -29 -149 1280 434 0
-980 -30 -147 1281 423 0
-980 -30 -148 1281 429 0
-980 -30 -149 1281 435 0
-980 -31 -147 1282 424 0
-980 -31 -148 1282 430 0
-980 -31 -149 1282 436 0
-980 -147 -350 0
-980 -147 -374 0
-980 -147 -398 0
-980 -147 -356 0
-980 -147 -380 0
-980 -147 -404 0
-980 -147 -362 0
-980 -147 -386 0
-980 -147 -410 0
-980 -147 -351 0
-980 -147 -375 0
-980 -147 -399 0
-980 -147 -357 0
-980 -147 -381 0
-980 -147 -405 0
-980 -147 -363 0
-980 -147 -387 0
-980 -147 -411 0
-980 -147 -352 0
-980 -147 -376 0
-980 -147 -400 0
-980 -147 -358 0
-980 -147 -382 0
-980 -147 -406 0
-980 -147 -364 0
-980 -147 -388 0
-980 -147 -412 0
-980 -148 -356 0
-980 -148 -380 0
-980 -148 -404 0
-980 -148 -362 0
-980 -148 -386 0
-980 -148 -410 0
-980 -148 -357 0
-980 -148 -381 0
-980 -148 -405 0
-980 -148 -363 0
-980 -148 -387 0
-980 -148 -411 0
-980 -148 -358 0
-980 -148 -382 0
-980 -148 -406 0
-980 -148 -364 0
-980 -148 -388 0
-980 -148 -412 0
-980 -149 -362 0
-980 -149 -386 0
-980 -149 -410 0
-980 -149 -363 0
-980 -149 -387 0
-980 -149 -411 0
-980 -149 -364 0
-980 -149 -388 0
-980 -149 -412 0
-980 -150 0
-980 61 0
-980 -147 172 0
-980 -148 173 0
-980 -149 174 0
-980 -232 0
-981 230 0
-981 -41 -147 -156 0
-981 -41 -148 -157 0
-981 -41 -149 -158 0
-981 30 31 32 0
-981 -30 -147 1281 423 0
-981 -30 -148 1281 429 0
-981 -30 -149 1281 435 0
-981 -31 -147 1282 424 0
-981 -31 -148 1282 430 0
-981 -31 -149 1282 436 0
-981 -32 -147 1283 425 0
-981 -32 -148 1283 431 0
-981 -32 -149 1283 437 0
-981 -147 -351 0
-981 -147 -375 0
-981 -147 -399 0
-981 -147 -357 0
-981 -147 -381 0
-981 -147 -405 0
-981 -147 -363 0
-981 -147 -387 0
-981 -147 -411 0
-981 -147 -352 0
-981 -147 -376 0
-981 -147 -400 0
-981 -147 -358 0
-981 -147 -382 0
-981 -147 -406 0
-981 -147 -364 0
-981 -147 -388 0
-981 -147 -412 0
-981 -147 -353 0
-981 -147 -377 0
-981 -147 -401 0
-981 -147 -359 0
-981 -147 -383 0
-981 -147 -407 0
-981 -147 -365 0
-981 -147 -389 0
-981 -147 -413 0
-981 -148 -357 0
-981 -148 -381 0
-981 -148 -405 0
-981 -148 -363 0
-981 -148 -387 0
-981 -148 -411 0
-981 -148 -358 0
-981 -148 -382 0
-981 -148 -406 0
-981 -148 -364 0
-981 -148 -388 0
-981 -148 -412 0
-981 -148 -359 0
-981 -148 -383 0
-981 -148 -407 0
-981 -148 -365 0
-981 -148 -389 0
-981 -148 -413 0
-981 -149 -363 0
-981 -149 -387 0
-981 -149 -411 0
-981 -149 -364 0
-981 -149 -388 0
-981 -149 -412 0
-981 -149 -365 0
-981 -149 -389 0
-981 -149 -413 0
-981 -150 0
-981 62 0
-981 -147 172 0
-981 -148 173 0
-981 -149 174 0
-981 -232 0
-982 230 0
-982 -42 -147 -156 0
-982 -42 -148 -157 0
-982 -42 -149 -158 0
-982 31 32 33 0
-982 -31 -147 1282 424 0
-982 -31 -148 1282 430 0
-982 -31 -149 1282 436 0
-982 -32 -147 1283 425 0
-982 -32 -148 1283 431 0
-982 -32 -149 1283 437 0
-982 -33 -147 1284 426 0
-982 -33 -148 1284 432 0
-982 -33 -149 1284 438 0
-982 -147 -352 0
-982 -147 -376 0
-982 -147 -400 0
-982 -147 -358 0
-982 -147 -382 0
-982 -147 -406 0
-982 -147 -364 0
-982 -147 -388 0
-982 -147 -412 0
-982 -147 -353 0
-982 -147 -377 0
-982 -147 -401 0
-982 -147 -359 0
-982 -147 -383 0
-982 -147 -407 0
-982 -147 -365 0
-982 -147 -389 0
-982 -147 -413 0
-982 -147 -354 0
-982 -147 -378 0
-982 -147 -402 0
-982 -147 -360 0
-982 -147 -384 0
-982 -147 -408 0
-982 -147 -366 0
-982 -147 -390 0
-982 -147 -414 0
-982 -148 -358 0
-982 -148 -382 0
-982 -148 -406 0
-982 -148 -364 0
-982 -148 -388 0
-982 -148 -412 0
-982 -148 -359 0
-982 -148 -383 0
-982 -148 -407 0
-982 -148 -365 0
-982 -148 -389 0
-982 -148 -413 0
-982 -148 -360 0
-982 -148 -384 0
-982 -148 -408 0
-982 -148 -366 0
-982 -148 -390 0
-982 -148 -414 0
-982 -149 -364 0
-982 -149 -388 0
-982 -149 -412 0
-982 -149 -365 0
-982 -149 -389 0
-982 -149 -413 0
-982 -149 -366 0
-982 -149 -390 0
-982 -149 -414 0
-982 -150 0
-982 63 0
-982 -147 172 0
-982 -148 173 0
-982 -149 174 0
-982 -232 0
-983 230 0
-983 -39 -151 -156 0
-983 -39 -152 -157 0
-983 -39 -153 -158 0
-983 34 35 36 0
-983 -34 -151 1285 421 0
-983 -34 -152 1285 427 0
-983 -34 -153 1285 433 0
-983 -34 -151 1286 422 0
-983 -34 -152 1286 428 0
-983 -34 -153 1286 434 0
-983 -35 -151 1286 422 0
-983 -35 -152 1286 428 0
-983 -35 -153 1286 434 0
-983 -35 -151 1287 423 0
-983 -35 -152 1287 429 0
-983 -35 -153 1287 435 0
-983 -36 -151 1287 423 0
-983 -36 -152 1287 429 0
-983 -36 -153 1287 435 0
-983 -151 -349 0
-983 -151 -373 0
-983 -151 -397 0
-983 -151 -355 0
-983 -151 -379 0
-983 -151 -403 0
-983 -151 -361 0
-983 -151 -385 0
-983 -151 -409 0
-983 -151 -350 0
-983 -151 -374 0
-983 -151 -398 0
-983 -151 -356 0
-983 -151 -380 0
-983 -151 -404 0
-983 -151 -362 0
-983 -151 -386 0
-983 -151 -410 0
-983 -151 -351 0
-983 -151 -375 0
-983 -151 -399 0
-983 -151 -357 0
-983 -151 -381 0
-983 -151 -405 0
-983 -151 -363 0
-983 -151 -387 0
-983 -151 -411 0
-983 -152 -355 0
-983 -152 -379 0
-983 -152 -403 0
-983 -152 -361 0
-983 -152 -385 0
-983 -152 -409 0
-983 -152 -356 0
-983 -152 -380 0
-983 -152 -404 0
-983 -152 -362 0
-983 -152 -386 0
-983 -152 -410 0
-983 -152 -357 0
-983 -152 -381 0
-983 -152 -405 0
-983 -152 -363 0
-983 -152 -387 0
-983 -152 -411 0
-983 -153 -361 0
-983 -153 -385 0
-983 -153 -409 0
-983 -153 -362 0
-983 -153 -386 0
-983 -153 -410 0
-983 -153 -363 0
-983 -153 -387 0
-983 -153 -411 0
-983 -154 0
-983 60 0
-983 -151 172 0
-983 -152 173 0
-983 -153 174 0
-983 -233 0
-984 230 0
-984 -40 -151 -156 0
-984 -40 -152 -157 0
-984 -40 -153 -158 0
-984 34 35 36 37 0
-984 -34 -151 1286 422 0
-984 -34 -152 1286 428 0
-984 -34 -153 1286 434 0
-984 -35 -151 1286 422 0
-984 -35 -152 1286 428 0
-984 -35 -153 1286 434 0
-984 -35 -151 1287 423 0
-984 -35 -152 1287 429 0
-984 -35 -153 1287 435 0
-984 -36 -151 1287 423 0
-984 -36 -152 1287 429 0
-984 -36 -153 1287 435 0
-984 -36 -151 1288 424 0
-984 -36 -152 1288 430 0
-984 -36 -153 1288 436 0
-984 -37 -151 1288 424 0
-984 -37 -152 1288 430 0
-984 -37 -153 1288 436 0
-984 -151 -350 0
-984 -151 -374 0
-984 -151 -398 0
-984 -151 -356 0
-984 -151 -380 0
-984 -151 -404 0
-984 -151 -362 0
-984 -151 -386 0
-984 -151 -410 0
-984 -151 -351 0
-984 -151 -375 0
-984 -151 -399 0
-984 -151 -357 0
-984 -151 -381 0
-984 -151 -405 0
-984 -151 -363 0
-984 -151 -387 0
-984 -151 -411 0
-984 -151 -352 0
-984 -151 -376 0
-984 -151 -400 0
-984 -151 -358 0
-984 -151 -382 0
-984 -151 -406 0
-984 -151 -364 0
-984 -151 -388 0
-984 -151 -412 0
-984 -152 -356 0
-984 -152 -380 0
-984 -152 -404 0
-984 -152 -362 0
-984 -152 -386 0
-984 -152 -410 0
-984 -152 -357 0
-984 -152 -381 0
-984 -152 -405 0
-984 -152 -363 0
-984 -152 -387 0
-984 -152 -411 0
-984 -152 -358 0
-984 -152 -382 0
-984 -152 -406 0
-984 -152 -364 0
-984 -152 -388 0
-984 -152 -412 0
-984 -153 -362 0
-984 -153 -386 0
-984 -153 -410 0
-984 -153 -363 0
-984 -153 -387 0
-984 -153 -411 0
-984 -153 -364 0
-984 -153 -388 0
-984 -153 -412 0
-984 -154 0
-984 61 0
-984 -151 172 0
-984 -152 173 0
-984 -153 174 0
-984 -233 0
-985 230 0
-985 -41 -151 -156 0
-985 -41 -152 -157 0
-985 -41 -153 -158 0
-985 35 36 37 38 0
-985 -35 -151 1287 423 0
-985 -35 -152 1287 429 0
-985 -35 -153 1287 435 0
-985 -36 -151 1287 423 0
-985 -36 -152 1287 429 0
-985 -36 -153 1287 435 0
-985 -36 -151 1288 424 0
-985 -36 -152 1288 430 0
-985 -36 -153 1288 436 0
-985 -37 -151 1288 424 0
-985 -37 -152 1288 430 0
-985 -37 -153 1288 436 0
-985 -37 -151 1289 425 0
-985 -37 -152 1289 431 0
-985 -37 -153 1289 437 0
-985 -38 -151 1289 425 0
-985 -38 -152 1289 431 0
-985 -38 -153 1289 437 0
-985 -151 -351 0
-985 -151 -375 0
-985 -151 -399 0
-985 -151 -357 0
-985 -151 -381 0
-985 -151 -405 0
-985 -151 -363 0
-985 -151 -387 0
-985 -151 -411 0
-985 -151 -352 0
-985 -151 -376 0
-985 -151 -400 0
-985 -151 -358 0
-985 -151 -382 0
-985 -151 -406 0
-985 -151 -364 0
-985 -151 -388 0
-985 -151 -412 0
-985 -151 -353 0
-985 -151 -377 0
-985 -151 -401 0
-985 -151 -359 0
-985 -151 -383 0
-985 -151 -407 0
-985 -151 -365 0
-985 -151 -389 0
-985 -151 -413 0
-985 -152 -357 0
-985 -152 -381 0
-985 -152 -405 0
-985 -152 -363 0
-985 -152 -387 0
-985 -152 -411 0
-985 -152 -358 0
-985 -152 -382 0
-985 -152 -406 0
-985 -152 -364 0
-985 -152 -388 0
-985 -152 -412 0
-985 -152 -359 0
-985 -152 -383 0
-985 -152 -407 0
-985 -152 -365 0
-985 -152 -389 0
-985 -152 -413 0
-985 -153 -363 0
-985 -153 -387 0
-985 -153 -411 0
-985 -153 -364 0
-985 -153 -388 0
-985 -153 -412 0
-985 -153 -365 0
-985 -153 -389 0
-985 -153 -413 0
-985 -154 0
-985 62 0
-985 -151 172 0
-985 -152 173 0
-985 -153 174 0
-985 -233 0
-986 230 0
-986 -42 -151 -156 0
-986 -42 -152 -157 0
-986 -42 -153 -158 0
-986 36 37 38 0
-986 -36 -151 1288 424 0
-986 -36 -152 1288 430 0
-986 -36 -153 1288 436 0
-986 -37 -151 1288 424 0
-986 -37 -152 1288 430 0
-986 -37 -153 1288 436 0
-986 -37 -151 1289 425 0
-986 -37 -152 1289 431 0
-986 -37 -153 1289 437 0
-986 -38 -151 1289 425 0
-986 -38 -152 1289 431 0
-986 -38 -153 1289 437 0
-986 -38 -151 1290 426 0
-986 -38 -152 1290 432 0
-986 -38 -153 1290 438 0
-986 -151 -352 0
-986 -151 -376 0
-986 -151 -400 0
-986 -151 -358 0
-986 -151 -382 0
-986 -151 -406 0
-986 -151 -364 0
-986 -151 -388 0
-986 -151 -412 0
-986 -151 -353 0
-986 -151 -377 0
-986 -151 -401 0
-986 -151 -359 0
-986 -151 -383 0
-986 -151 -407 0
-986 -151 -365 0
-986 -151 -389 0
-986 -151 -413 0
-986 -151 -354 0
-986 -151 -378 0
-986 -151 -402 0
-986 -151 -360 0
-986 -151 -384 0
-986 -151 -408 0
-986 -151 -366 0
-986 -151 -390 0
-986 -151 -414 0
-986 -152 -358 0
-986 -152 -382 0
-986 -152 -406 0
-986 -152 -364 0
-986 -152 -388 0
-986 -152 -412 0
-986 -152 -359 0
-986 -152 -383 0
-986 -152 -407 0
-986 -152 -365 0
-986 -152 -389 0
-986 -152 -413 0
-986 -152 -360 0
-986 -152 -384 0
-986 -152 -408 0
-986 -152 -366 0
-986 -152 -390 0
-986 -152 -414 0
-986 -153 -364 0
-986 -153 -388 0
-986 -153 -412 0
-986 -153 -365 0
-986 -153 -389 0
-986 -153 -413 0
-986 -153 -366 0
-986 -153 -390 0
-986 -153 -414 0
-986 -154 0
-986 63 0
-986 -151 172 0
-986 -152 173 0
-986 -153 174 0
-986 -233 0
-987 230 0
-987 -39 -155 0
-987 -343 0
-987 -367 0
-987 -391 0
-987 -349 0
-987 -373 0
-987 -397 0
-987 -355 0
-987 -379 0
-987 -403 0
-987 -361 0
-987 -385 0
-987 -409 0
-987 -344 0
-987 -368 0
-987 -392 0
-987 -350 0
-987 -374 0
-987 -398 0
-987 -356 0
-987 -380 0
-987 -404 0
-987 -362 0
-987 -386 0
-987 -410 0
-987 -345 0
-987 -369 0
-987 -393 0
-987 -351 0
-987 -375 0
-987 -399 0
-987 -357 0
-987 -381 0
-987 -405 0
-987 -363 0
-987 -387 0
-987 -411 0
-987 60 0
-987 171 0
-988 230 0
-988 -40 -155 0
-988 -344 0
-988 -368 0
-988 -392 0
-988 -350 0
-988 -374 0
-988 -398 0
-988 -356 0
-988 -380 0
-988 -404 0
-988 -362 0
-988 -386 0
-988 -410 0
-988 -345 0
-988 -369 0
-988 -393 0
-988 -351 0
-988 -375 0
-988 -399 0
-988 -357 0
-988 -381 0
-988 -405 0
-988 -363 0
-988 -387 0
-988 -411 0
-988 -346 0
-988 -370 0
-988 -394 0
-988 -352 0
-988 -376 0
-988 -400 0
-988 -358 0
-988 -382 0
-988 -406 0
-988 -364 0
-988 -388 0
-988 -412 0
-988 61 0
-988 171 0
-989 230 0
-989 -41 -155 0
-989 -345 0
-989 -369 0
-989 -393 0
-989 -351 0
-989 -375 0
-989 -399 0
-989 -357 0
-989 -381 0
-989 -405 0
-989 -363 0
-989 -387 0
-989 -411 0
-989 -346 0
-989 -370 0
-989 -394 0
-989 -352 0
-989 -376 0
-989 -400 0
-989 -358 0
-989 -382 0
-989 -406 0
-989 -364 0
-989 -388 0
-989 -412 0
-989 -347 0
-989 -371 0
-989 -395 0
-989 -353 0
-989 -377 0
-989 -401 0
-989 -359 0
-989 -383 0
-989 -407 0
-989 -365 0
-989 -389 0
-989 -413 0
-989 62 0
-989 171 0
-990 230 0
-990 -42 -155 0
-990 -346 0
-990 -370 0
-990 -394 0
-990 -352 0
-990 -376 0
-990 -400 0
-990 -358 0
-990 -382 0
-990 -406 0
-990 -364 0
-990 -388 0
-990 -412 0
-990 -347 0
-990 -371 0
-990 -395 0
-990 -353 0
-990 -377 0
-990 -401 0
-990 -359 0
-990 -383 0
-990 -407 0
-990 -365 0
-990 -389 0
-990 -413 0
-990 -348 0
-990 -372 0
-990 -396 0
-990 -354 0
-990 -378 0
-990 -402 0
-990 -360 0
-990 -384 0
-990 -408 0
-990 -366 0
-990 -390 0
-990 -414 0
-990 63 0
-990 171 0
22 -43 907 908 909 910 911 912 913 914 915 916 917 918 919 920 921 922 923 924 925 926 927 928 929 930 0
-22 43 907 908 909 910 911 912 913 914 915 916 917 918 919 920 921 922 923 924 925 926 927 928 929 930 0
23 -44 907 908 909 910 911 912 913 914 915 916 917 918 919 920 921 922 923 924 925 926 927 928 929 930 0
-23 44 907 908 909 910 911 912 913 914 915 916 917 918 919 920 921 922 923 924 925 926 927 928 929 930 0
24 -45 907 908 909 910 911 912 913 914 915 916 917 918 919 920 921 922 923 924 925 926 927 928 929 930 0
-24 45 907 908 909 910 911 912 913 914 915 916 917 918 919 920 921 922 923 924 925 926 927 928 929 930 0
25 -46 907 908 909 910 911 912 913 914 915 916 917 918 919 920 921 922 923 924 925 926 927 928 929 930 0
-25 46 907 908 909 910 911 912 913 914 915 916 917 918 919 920 921 922 923 924 925 926 927 928 929 930 0
26 -47 907 908 909 910 911 912 913 914 915 916 917 918 919 920 921 922 923 924 925 926 927 928 929 930 0
-26 47 907 908 909 910 911 912 913 914 915 916 917 918 919 920 921 922 923 924 925 926 927 928 929 930 0
27 -48 907 908 909 910 911 912 913 914 915 916 917 918 919 920 921 922 923 924 925 926 927 928 929 930 0
-27 48 907 908 909 910 911 912 913 914 915 916 917 918 919 920 921 922 923 924 925 926 927 928 929 930 0
143 -159 907 908 909 910 911 912 913 914 915 916 917 918 919 920 921 922 923 924 925 926 927 928 929 930 0
-143 159 907 908 909 910 911 912 913 914 915 916 917 918 919 920 921 922 923 924 925 926 927 928 929 930 0
144 -160 907 908 909 910 911 912 913 914 915 916 917 918 919 920 921 922 923 924 925 926 927 928 929 930 0
-144 160 907 908 909 910 911 912 913 914 915 916 917 918 919 920 921 922 923 924 925 926 927 928 929 930 0
145 -161 907 908 909 910 911 912 913 914 915 916 917 918 919 920 921 922 923 924 925 926 927 928 929 930 0
-145 161 907 908 909 910 911 912 913 914 915 916 917 918 919 920 921 922 923 924 925 926 927 928 929 930 0
146 -162 907 908 909 910 911 912 913 914 915 916 917 918 919 920 921 922 923 924 925 926 927 928 929 930 0
-146 162 907 908 909 910 911 912 913 914 915 916 917 918 919 920 921 922 923 924 925 926 927 928 929 930 0
28 -49 931 932 933 934 935 936 937 938 939 940 941 942 943 944 945 946 947 948 949 950 951 952 953 954 0
-28 49 931 932 933 934 935 936 937 938 939 940 941 942 943 944 945 946 947 948 949 950 951 952 953 954 0
29 -50 931 932 933 934 935 936 937 938 939 940 941 942 943 944 945 946 947 948 949 950 951 952 953 954 0
-29 50 931 932 933 934 935 936 937 938 939 940 941 942 943 944 945 946 947 948 949 950 951 952 953 954 0
30 -51 931 932 933 934 935 936 937 938 939 940 941 942 943 944 945 946 947 948 949 950 951 952 953 954 0
-30 51 931 932 933 934 935 936 937 938 939 940 941 942 943 944 945 946 947 948 949 950 951 952 953 954 0
31 -52 931 932 933 934 935 936 937 938 939 940 941 942 943 944 945 946 947 948 949 950 951 952 953 954 0
-31 52 931 932 933 934 935 936 937 938 939 940 941 942 943 944 945 946 947 948 949 950 951 952 953 954 0
32 -53 931 932 933 934 935 936 937 938 939 940 941 942 943 944 945 946 947 948 949 950 951 952 953 954 0
-32 53 931 932 933 934 935 936 937 938 939 940 941 942 943 944 945 946 947 948 949 950 951 952 953 954 0
33 -54 931 932 933 934 935 936 937 938 939 940 941 942 943 944 945 946 947 948 949 950 951 952 953 954 0
-33 54 931 932 933 934 935 936 937 938 939 940 941 942 943 944 945 946 947 948 949 950 951 952 953 954 0
147 -163 931 932 933 934 935 936 937 938 939 940 941 942 943 944 945 946 947 948 949 950 951 952 953 954 0
-147 163 931 932 933 934 935 936 937 938 939 940 941 942 943 944 945 946 947 948 949 950 951 952 953 954 0
148 -164 931 932 933 934 935 936 937 938 939 940 941 942 943 944 945 946 947 948 949 950 951 952 953 954 0
-148 164 931 932 933 934 935 936 937 938 939 940 941 942 943 944 945 946 947 948 949 950 951 952 953 954 0
149 -165 931 932 933 934 935 936 937 938 939 940 941 942 943 944 945 946 947 948 949 950 951 952 953 954 0
-149 165 931 932 933 934 935 936 937 938 939 940 941 942 943 944 945 946 947 948 949 950 951 952 953 954 0
150 -166 931 932 933 934 935 936 937 938 939 940 941 942 943 944 945 946 947 948 949 950 951 952 953 954 0
-150 166 931 932 933 934 935 936 937 938 939 940 941 942 943 944 945 946 947 948 949 950 951 952 953 954 0
34 -55 955 956 957 958 959 960 961 962 963 964 965 966 967 968 969 970 971 972 973 974 0
-34 55 955 956 957 958 959 960 961 962 963 964 965 966 967 968 969 970 971 972 973 974 0
35 -56 955 956 957 958 959 960 961 962 963 964 965 966 967 968 969 970 971 972 973 974 0
-35 56 955 956 957 958 959 960 961 962 963 964 965 966 967 968 969 970 971 972 973 974 0
36 -57 955 956 957 958 959 960 961 962 963 964 965 966 967 968 969 970 971 972 973 974 0
-36 57 955 956 957 958 959 960 961 962 963 964 965 966 967 968 969 970 971 972 973 974 0
37 -58 955 956 957 958 959 960 961 962 963 964 965 966 967 968 969 970 971 972 973 974 0
-37 58 955 956 957 958 959 960 961 962 963 964 965 966 967 968 969 970 971 972 973 974 0
38 -59 955 956 957 958 959 960 961 962 963 964 965 966 967 968 969 970 971 972 973 974 0
-38 59 955 956 957 958 959 960 961 962 963 964 965 966 967 968 969 970 971 972 973 974 0
151 -167 955 956 957 958 959 960 961 962 963 964 965 966 967 968 969 970 971 972 973 974 0
-151 167 955 956 957 958 959 960 961 962 963 964 965 966 967 968 969 970 971 972 973 974 0
152 -168 955 956 957 958 959 960 961 962 963 964 965 966 967 968 969 970 971 972 973 974 0
-152 168 955 956 957 958 959 960 961 962 963 964 965 966 967 968 969 970 971 972 973 974 0
153 -169 955 956 957 958 959 960 961 962 963 964 965 966 967 968 969 970 971 972 973 974 0
-153 169 955 956 957 958 959 960 961 962 963 964 965 966 967 968 969 970 971 972 973 974 0
154 -170 955 956 957 958 959 960 961 962 963 964 965 966 967 968 969 970 971 972 973 974 0
-154 170 955 956 957 958 959 960 961 962 963 964 965 966 967 968 969 970 971 972 973 974 0
39 -60 975 976 977 978 979 980 981 982 983 984 985 986 987 988 989 990 0
-39 60 975 976 977 978 979 980 981 982 983 984 985 986 987 988 989 990 0
40 -61 975 976 977 978 979 980 981 982 983 984 985 986 987 988 989 990 0
-40 61 975 976 977 978 979 980 981 982 983 984 985 986 987 988 989 990 0
41 -62 975 976 977 978 979 980 981 982 983 984 985 986 987 988 989 990 0
-41 62 975 976 977 978 979 980 981 982 983 984 985 986 987 988 989 990 0
42 -63 975 976 977 978 979 980 981 982 983 984 985 986 987 988 989 990 0
-42 63 975 976 977 978 979 980 981 982 983 984 985 986 987 988 989 990 0
155 -171 975 976 977 978 979 980 981 982 983 984 985 986 987 988 989 990 0
-155 171 975 976 977 978 979 980 981 982 983 984 985 986 987 988 989 990 0
156 -172 975 976 977 978 979 980 981 982 983 984 985 986 987 988 989 990 0
-156 172 975 976 977 978 979 980 981 982 983 984 985 986 987 988 989 990 0
157 -173 975 976 977 978 979 980 981 982 983 984 985 986 987 988 989 990 0
-157 173 975 976 977 978 979 980 981 982 983 984 985 986 987 988 989 990 0
158 -174 975 976 977 978 979 980 981 982 983 984 985 986 987 988 989 990 0
-158 174 975 976 977 978 979 980 981 982 983 984 985 986 987 988 989 990 0
907 908 909 910 911 912 913 914 915 916 917 918 919 920 921 922 923 924 925 926 927 928 929 930 931 932 933 934 935 936 937 938 939 940 941 942 943 944 945 946 947 948 949 950 951 952 953 954 955 956 957 958 959 960 961 962 963 964 965 966 967 968 969 970 971 972 973 974 975 976 977 978 979 980 981 982 983 984 985 986 987 988 989 990 0
-907 -908 0
-907 -909 0
-907 -910 0
-907 -911 0
-907 -912 0
-907 -913 0
-907 -914 0
-907 -915 0
-907 -916 0
-907 -917 0
-907 -918 0
-907 -919 0
-907 -920 0
-907 -921 0
-907 -922 0
-907 -923 0
-907 -924 0
-907 -925 0
-907 -926 0
-907 -927 0
-907 -928 0
-907 -929 0
-907 -930 0
-907 -931 0
-907 -932 0
-907 -933 0
-907 -934 0
-907 -935 0
-907 -936 0
-907 -937 0
-907 -938 0
-907 -939 0
-907 -940 0
-907 -941 0
-907 -942 0
-907 -943 0
-907 -944 0
-907 -945 0
-907 -946 0
-907 -947 0
-907 -948 0
-907 -949 0
-907 -950 0
-907 -951 0
-907 -952 0
-907 -953 0
-907 -954 0
-907 -955 0
-907 -956 0
-907 -957 0
-907 -958 0
-907 -959 0
-907 -960 0
-907 -961 0
-907 -962 0
-907 -963 0
-907 -964 0
-907 -965 0
-907 -966 0
-907 -967 0
-907 -968 0
-907 -969 0
-907 -970 0
-907 -971 0
-907 -972 0
-907 -973 0
-907 -974 0
-907 -975 0
-907 -976 0
-907 -977 0
-907 -978 0
-907 -979 0
-907 -980 0
-907 -981 0
-907 -982 0
-907 -983 0
-907 -984 0
-907 -985 0
-907 -986 0
-907 -987 0
-907 -988 0
-907 -989 0
-907 -990 0
-908 -909 0
-908 -910 0
-908 -911 0
-908 -912 0
-908 -913 0
-908 -914 0
-908 -915 0
-908 -916 0
-908 -917 0
-908 -918 0
-908 -919 0
-908 -920 0
-908 -921 0
-908 -922 0
-908 -923 0
-908 -924 0
-908 -925 0
-908 -926 0
-908 -927 0
-908 -928 0
-908 -929 0
-908 -930 0
-908 -931 0
-908 -932 0
-908 -933 0
-908 -934 0
-908 -935 0
-908 -936 0
-908 -937 0
-908 -938 0
-908 -939 0
-908 -940 0
-908 -941 0
-908 -942 0
-908 -943 0
-908 -944 0
-908 -945 0
-908 -946 0
-908 -947 0
-908 -948 0
-908 -949 0
-908 -950 0
-908 -951 0
-908 -952 0
-908 -953 0
-908 -954 0
-908 -955 0
-908 -956 0
-908 -957 0
-908 -958 0
-908 -959 0
-908 -960 0
-908 -961 0
-908 -962 0
-908 -963 0
-908 -964 0
-908 -965 0
-908 -966 0
-908 -967 0
-908 -968 0
-908 -969 0
-908 -970 0
-908 -971 0
-908 -972 0
-908 -973 0
-908 -974 0
-908 -975 0
-908 -976 0
-908 -977 0
-908 -978 0
-908 -979 0
-908 -980 0
-908 -981 0
-908 -982 0
-908 -983 0
-908 -984 0
-908 -985 0
-908 -986 0
-908 -987 0
-908 -988 0
-908 -989 0
-908 -990 0
-909 -910 0
-909 -911 0
-909 -912 0
-909 -913 0
-909 -914 0
-909 -915 0
-909 -916 0
-909 -917 0
-909 -918 0
-909 -919 0
-909 -920 0
-909 -921 0
-909 -922 0
-909 -923 0
-909 -924 0
-909 -925 0
-909 -926 0
-909 -927 0
-909 -928 0
-909 -929 0
-909 -930 0
-909 -931 0
-909 -932 0
-909 -933 0
-909 -934 0
-909 -935 0
-909 -936 0
-909 -937 0
-909 -938 0
-909 -939 0
-909 -940 0
-909 -941 0
-909 -942 0
-909 -943 0
-909 -944 0
-909 -945 0
-909 -946 0
-909 -947 0
-909 -948 0
-909 -949 0
-909 -950 0
-909 -951 0
-909 -952 0
-909 -953 0
-909 -954 0
-909 -955 0
-909 -956 0
-909 -957 0
-909 -958 0
-909 -959 0
-909 -960 0
-909 -961 0
-909 -962 0
-909 -963 0
-909 -964 0
-909 -965 0
-909 -966 0
-909 -967 0
-909 -968 0
-909 -969 0
-909 -970 0
-909 -971 0
-909 -972 0
-909 -973 0
-909 -974 0
-909 -975 0
-909 -976 0
-909 -977 0
-909 -978 0
-909 -979 0
-909 -980 0
-909 -981 0
-909 -982 0
-909 -983 0
-909 -984 0
-909 -985 0
-909 -986 0
-909 -987 0
-909 -988 0
-909 -989 0
-909 -990 0
-910 -911 0
-910 -912 0
-910 -913 0
-910 -914 0
-910 -915 0
-910 -916 0
-910 -917 0
-910 -918 0
-910 -919 0
-910 -920 0
-910 -921 0
-910 -922 0
-910 -923 0
-910 -924 0
-910 -925 0
-910 -926 0
-910 -927 0
-910 -928 0
-910 -929 0
-910 -930 0
-910 -931 0
-910 -932 0
-910 -933 0
-910 -934 0
-910 -935 0
-910 -936 0
-910 -937 0
-910 -938 0
-910 -939 0
-910 -940 0
-910 -941 0
-910 -942 0
-910 -943 0
-910 -944 0
-910 -945 0
-910 -946 0
-910 -947 0
-910 -948 0
-910 -949 0
-910 -950 0
-910 -951 0
-910 -952 0
-910 -953 0
-910 -954 0
-910 -955 0
-910 -956 0
-910 -957 0
-910 -958 0
-910 -959 0
-910 -960 0
-910 -961 0
-910 -962 0
-910 -963 0
-910 -964 0
-910 -965 0
-910 -966 0
-910 -967 0
-910 -968 0
-910 -969 0
-910 -970 0
-910 -971 0
-910 -972 0
-910 -973 0
-910 -974 0
-910 -975 0
-910 -976 0
-910 -977 0
-910 -978 0
-910 -979 0
-910 -980 0
-910 -981 0
-910 -982 0
-910 -983 0
-910 -984 0
-910 -985 0
-910 -986 0
-910 -987 0
-910 -988 0
-910 -989 0
-910 -990 0
-911 -912 0
-911 -913 0
-911 -914 0
-911 -915 0
-911 -916 0
-911 -917 0
-911 -918 0
-911 -919 0
-911 -920 0
-911 -921 0
-911 -922 0
-911 -923 0
-911 -924 0
-911 -925 0
-911 -926 0
-911 -927 0
-911 -928 0
-911 -929 0
-911 -930 0
-911 -931 0
-911 -932 0
-911 -933 0
-911 -934 0
-911 -935 0
-911 -936 0
-911 -937 0
-911 -938 0
-911 -939 0
-911 -940 0
-911 -941 0
-911 -942 0
-911 -943 0
-911 -944 0
-911 -945 0
-911 -946 0
-911 -947 0
-911 -948 0
-911 -949 0
-911 -950 0
-911 -951 0
-911 -952 0
-911 -953 0
-911 -954 0
-911 -955 0
-911 -956 0
-911 -957 0
-911 -958 0
-911 -959 0
-911 -960 0
-911 -961 0
-911 -962 0
-911 -963 0
-911 -964 0
-911 -965 0
-911 -966 0
-911 -967 0
-911 -968 0
-911 -969 0
-911 -970 0
-911 -971 0
-911 -972 0
-911 -973 0
-911 -974 0
-911 -975 0
-911 -976 0
-911 -977 0
-911 -978 0
-911 -979 0
-911 -980 0
-911 -981 0
-911 -982 0
-911 -983 0
-911 -984 0
-911 -985 0
-911 -986 0
-911 -987 0
-911 -988 0
-911 -989 0
-911 -990 0
-912 -913 0
-912 -914 0
-912 -915 0
-912 -916 0
-912 -917 0
-912 -918 0
-912 -919 0
-912 -920 0
-912 -921 0
-912 -922 0
-912 -923 0
-912 -924 0
-912 -925 0
-912 -926 0
-912 -927 0
-912 -928 0
-912 -929 0
-912 -930 0
-912 -931 0
-912 -932 0
-912 -933 0
-912 -934 0
-912 -935 0
-912 -936 0
-912 -937 0
-912 -938 0
-912 -939 0
-912 -940 0
-912 -941 0
-912 -942 0
-912 -943 0
-912 -944 0
-912 -945 0
-912 -946 0
-912 -947 0
-912 -948 0
-912 -949 0
-912 -950 0
-912 -951 0
-912 -952 0
-912 -953 0
-912 -954 0
-912 -955 0
-912 -956 0
-912 -957 0
-912 -958 0
-912 -959 0
-912 -960 0
-912 -961 0
-912 -962 0
-912 -963 0
-912 -964 0
-912 -965 0
-912 -966 0
-912 -967 0
-912 -968 0
-912 -969 0
-912 -970 0
-912 -971 0
-912 -972 0
-912 -973 0
-912 -974 0
-912 -975 0
-912 -976 0
-912 -977 0
-912 -978 0
-912 -979 0
-912 -980 0
-912 -981 0
-912 -982 0
-912 -983 0
-912 -984 0
-912 -985 0
-912 -986 0
-912 -987 0
-912 -988 0
-912 -989 0
-912 -990 0
-913 -914 0
-913 -915 0
-913 -916 0
-913 -917 0
-913 -918 0
-913 -919 0
-913 -920 0
-913 -921 0
-913 -922 0
-913 -923 0
-913 -924 0
-913 -925 0
-913 -926 0
-913 -927 0
-913 -928 0
-913 -929 0
-913 -930 0
-913 -931 0
-913 -932 0
-913 -933 0
-913 -934 0
-913 -935 0
-913 -936 0
-913 -937 0
-913 -938 0
-913 -939 0
-913 -940 0
-913 -941 0
-913 -942 0
-913 -943 0
-913 -944 0
-913 -945 0
-913 -946 0
-913 -947 0
-913 -948 0
-913 -949 0
-913 -950 0
-913 -951 0
-913 -952 0
-913 -953 0
-913 -954 0
-913 -955 0
-913 -956 0
-913 -957 0
-913 -958 0
-913 -959 0
-913 -960 0
-913 -961 0
-913 -962 0
-913 -963 0
-913 -964 0
-913 -965 0
-913 -966 0
-913 -967 0
-913 -968 0
-913 -969 0
-913 -970 0
-913 -971 0
-913 -972 0
-913 -973 0
-913 -974 0
-913 -975 0
-913 -976 0
-913 -977 0
-913 -978 0
-913 -979 0
-913 -980 0
-913 -981 0
-913 -982 0
-913 -983 0
-913 -984 0
-913 -985 0
-913 -986 0
-913 -987 0
-913 -988 0
-913 -989 0
-913 -990 0
-914 -915 0
-914 -916 0
-914 -917 0
-914 -918 0
-914 -919 0
-914 -920 0
-914 -921 0
-914 -922 0
-914 -923 0
-914 -924 0
-914 -925 0
-914 -926 0
-914 -927 0
-914 -928 0
-914 -929 0
-914 -930 0
-914 -931 0
-914 -932 0
-914 -933 0
-914 -934 0
-914 -935 0
-914 -936 0
-914 -937 0
-914 -938 0
-914 -939 0
-914 -940 0
-914 -941 0
-914 -942 0
-914 -943 0
-914 -944 0
-914 -945 0
-914 -946 0
-914 -947 0
-914 -948 0
-914 -949 0
-914 -950 0
-914 -951 0
-914 -952 0
-914 -953 0
-914 -954 0
-914 -955 0
-914 -956 0
-914 -957 0
-914 -958 0
-914 -959 0
-914 -960 0
-914 -961 0
-914 -962 0
-914 -963 0
-914 -964 0
-914 -965 0
-914 -966 0
-914 -967 0
-914 -968 0
-914 -969 0
-914 -970 0
-914 -971 0
-914 -972 0
-914 -973 0
-914 -974 0
-914 -975 0
-914 -976 0
-914 -977 0
-914 -978 0
-914 -979 0
-914 -980 0
-914 -981 0
-914 -982 0
-914 -983 0
-914 -984 0
-914 -985 0
-914 -986 0
-914 -987 0
-914 -988 0
-914 -989 0
-914 -990 0
-915 -916 0
-915 -917 0
-915 -918 0
-915 -919 0
-915 -920 0
-915 -921 0
-915 -922 0
-915 -923 0
-915 -924 0
-915 -925 0
-915 -926 0
-915 -927 0
-915 -928 0
-915 -929 0
-915 -930 0
-915 -931 0
-915 -932 0
-915 -933 0
-915 -934 0
-915 -935 0
-915 -936 0
-915 -937 0
-915 -938 0
-915 -939 0
-915 -940 0
-915 -941 0
-915 -942 0
-915 -943 0
-915 -944 0
-915 -945 0
-915 -946 0
-915 -947 0
-915 -948 0
-915 -949 0
-915 -950 0
-915 -951 0
-915 -952 0
-915 -953 0
-915 -954 0
-915 -955 0
-915 -956 0
-915 -957 0
-915 -958 0
-915 -959 0
-915 -960 0
-915 -961 0
-915 -962 0
-915 -963 0
-915 -964 0
-915 -965 0
-915 -966 0
-915 -967 0
-915 -968 0
-915 -969 0
-915 -970 0
-915 -971 0
-915 -972 0
-915 -973 0
-915 -974 0
-915 -975 0
-915 -976 0
-915 -977 0
-915 -978 0
-915 -979 0
-915 -980 0
-915 -981 0
-915 -982 0
-915 -983 0
-915 -984 0
-915 -985 0
-915 -986 0
-915 -987 0
-915 -988 0
-915 -989 0
-915 -990 0
-916 -917 0
-916 -918 0
-916 -919 0
-916 -920 0
-916 -921 0
-916 -922 0
-916 -923 0
-916 -924 0
-916 -925 0
-916 -926 0
-916 -927 0
-916 -928 0
-916 -929 0
-916 -930 0
-916 -931 0
-916 -932 0
-916 -933 0
-916 -934 0
-916 -935 0
-916 -936 0
-916 -937 0
-916 -938 0
-916 -939 0
-916 -940 0
-916 -941 0
-916 -942 0
-916 -943 0
-916 -944 0
-916 -945 0
-916 -946 0
-916 -947 0
-916 -948 0
-916 -949 0
-916 -950 0
-916 -951 0
-916 -952 0
-916 -953 0
-916 -954 0
-916 -955 0
-916 -956 0
-916 -957 0
-916 -958 0
-916 -959 0
-916 -960 0
-916 -961 0
-916 -962 0
-916 -963 0
-916 -964 0
-916 -965 0
-916 -966 0
-916 -967 0
-916 -968 0
-916 -969 0
-916 -970 0
-916 -971 0
-916 -972 0
-916 -973 0
-916 -974 0
-916 -975 0
-916 -976 0
-916 -977 0
-916 -978 0
-916 -979 0
-916 -980 0
-916 -981 0
-916 -982 0
-916 -983 0
-916 -984 0
-916 -985 0
-916 -986 0
-916 -987 0
-916 -988 0
-916 -989 0
-916 -990 0
-917 -918 0
-917 -919 0
-917 -920 0
-917 -921 0
-917 -922 0
-917 -923 0
-917 -924 0
-917 -925 0
-917 -926 0
-917 -927 0
-917 -928 0
-917 -929 0
-917 -930 0
-917 -931 0
-917 -932 0
-917 -933 0
-917 -934 0
-917 -935 0
-917 -936 0
-917 -937 0
-917 -938 0
-917 -939 0
-917 -940 0
-917 -941 0
-917 -942 0
-917 -943 0
-917 -944 0
-917 -945 0
-917 -946 0
-917 -947 0
-917 -948 0
-917 -949 0
-917 -950 0
-917 -951 0
-917 -952 0
-917 -953 0
-917 -954 0
-917 -955 0
-917 -956 0
-917 -957 0
-917 -958 0
-917 -959 0
-917 -960 0
-917 -961 0
-917 -962 0
-917 -963 0
-917 -964 0
-917 -965 0
-917 -966 0
-917 -967 0
-917 -968 0
-917 -969 0
-917 -970 0
-917 -971 0
-917 -972 0
-917 -973 0
-917 -974 0
-917 -975 0
-917 -976 0
-917 -977 0
-917 -978 0
-917 -979 0
-917 -980 0
-917 -981 0
-917 -982 0
-917 -983 0
-917 -984 0
-917 -985 0
-917 -986 0
-917 -987 0
-917 -988 0
-917 -989 0
-917 -990 0
-918 -919 0
-918 -920 0
-918 -921 0
-918 -922 0
-918 -923 0
-918 -924 0
-918 -925 0
-918 -926 0
-918 -927 0
-918 -928 0
-918 -929 0
-918 -930 0
-918 -931 0
-918 -932 0
-918 -933 0
-918 -934 0
-918 -935 0
-918 -936 0
-918 -937 0
-918 -938 0
-918 -939 0
-918 -940 0
-918 -941 0
-918 -942 0
-918 -943 0
-918 -944 0
-918 -945 0
-918 -946 0
-918 -947 0
-918 -948 0
-918 -949 0
-918 -950 0
-918 -951 0
-918 -952 0
-918 -953 0
-918 -954 0
-918 -955 0
-918 -956 0
-918 -957 0
-918 -958 0
-918 -959 0
-918 -960 0
-918 -961 0
-918 -962 0
-918 -963 0
-918 -964 0
-918 -965 0
-918 -966 0
-918 -967 0
-918 -968 0
-918 -969 0
-918 -970 0
-918 -971 0
-918 -972 0
-918 -973 0
-918 -974 0
-918 -975 0
-918 -976 0
-918 -977 0
-918 -978 0
-918 -979 0
-918 -980 0
-918 -981 0
-918 -982 0
-918 -983 0
-918 -984 0
-918 -985 0
-918 -986 0
-918 -987 0
-918 -988 0
-918 -989 0
-918 -990 0
-919 -920 0
-919 -921 0
-919 -922 0
-919 -923 0
-919 -924 0
-919 -925 0
-919 -926 0
-919 -927 0
-919 -928 0
-919 -929 0
-919 -930 0
-919 -931 0
-919 -932 0
-919 -933 0
-919 -934 0
-919 -935 0
-919 -936 0
-919 -937 0
-919 -938 0
-919 -939 0
-919 -940 0
-919 -941 0
-919 -942 0
-919 -943 0
-919 -944 0
-919 -945 0
-919 -946 0
-919 -947 0
-919 -948 0
-919 -949 0
-919 -950 0
-919 -951 0
-919 -952 0
-919 -953 0
-919 -954 0
-919 -955 0
-919 -956 0
-919 -957 0
-919 -958 0
-919 -959 0
-919 -960 0
-919 -961 0
-919 -962 0
-919 -963 0
-919 -964 0
-919 -965 0
-919 -966 0
-919 -967 0
-919 -968 0
-919 -969 0
-919 -970 0
-919 -971 0
-919 -972 0
-919 -973 0
-919 -974 0
-919 -975 0
-919 -976 0
-919 -977 0
-919 -978 0
-919 -979 0
-919 -980 0
-919 -981 0
-919 -982 0
-919 -983 0
-919 -984 0
-919 -985 0
-919 -986 0
-919 -987 0
-919 -988 0
-919 -989 0
-919 -990 0
-920 -921 0
-920 -922 0
-920 -923 0
-920 -924 0
-920 -925 0
-920 -926 0
-920 -927 0
-920 -928 0
-920 -929 0
-920 -930 0
-920 -931 0
-920 -932 0
-920 -933 0
-920 -934 0
-920 -935 0
-920 -936 0
-920 -937 0
-920 -938 0
-920 -939 0
-920 -940 0
-920 -941 0
-920 -942 0
-920 -943 0
-920 -944 0
-920 -945 0
-920 -946 0
-920 -947 0
-920 -948 0
-920 -949 0
-920 -950 0
-920 -951 0
-920 -952 0
-920 -953 0
-920 -954 0
-920 -955 0
-920 -956 0
-920 -957 0
-920 -958 0
-920 -959 0
-920 -960 0
-920 -961 0
-920 -962 0
-920 -963 0
-920 -964 0
-920 -965 0
-920 -966 0
-920 -967 0
-920 -968 0
-920 -969 0
-920 -970 0
-920 -971 0
-920 -972 0
-920 -973 0
-920 -974 0
-920 -975 0
-920 -976 0
-920 -977 0
-920 -978 0
-920 -979 0
-920 -980 0
-920 -981 0
-920 -982 0
-920 -983 0
-920 -984 0
-920 -985 0
-920 -986 0
-920 -987 0
-920 -988 0
-920 -989 0
-920 -990 0
-921 -922 0
-921 -923 0
-921 -924 0
-921 -925 0
-921 -926 0
-921 -927 0
-921 -928 0
-921 -929 0
-921 -930 0
-921 -931 0
-921 -932 0
-921 -933 0
-921 -934 0
-921 -935 0
-921 -936 0
-921 -937 0
-921 -938 0
-921 -939 0
-921 -940 0
-921 -941 0
-921 -942 0
-921 -943 0
-921 -944 0
-921 -945 0
-921 -946 0
-921 -947 0
-921 -948 0
-921 -949 0
-921 -950 0
-921 -951 0
-921 -952 0
-921 -953 0
-921 -954 0
-921 -955 0
-921 -956 0
-921 -957 0
-921 -958 0
-921 -959 0
-921 -960 0
-921 -961 0
-921 -962 0
-921 -963 0
-921 -964 0
-921 -965 0
-921 -966 0
-921 -967 0
-921 -968 0
-921 -969 0
-921 -970 0
-921 -971 0
-921 -972 0
-921 -973 0
-921 -974 0
-921 -975 0
-921 -976 0
-921 -977 0
-921 -978 0
-921 -979 0
-921 -980 0
-921 -981 0
-921 -982 0
-921 -983 0
-921 -984 0
-921 -985 0
-921 -986 0
-921 -987 0
-921 -988 0
-921 -989 0
-921 -990 0
-922 -923 0
-922 -924 0
-922 -925 0
-922 -926 0
-922 -927 0
-922 -928 0
-922 -929 0
-922 -930 0
-922 -931 0
-922 -932 0
-922 -933 0
-922 -934 0
-922 -935 0
-922 -936 0
-922 -937 0
-922 -938 0
-922 -939 0
-922 -940 0
-922 -941 0
-922 -942 0
-922 -943 0
-922 -944 0
-922 -945 0
-922 -946 0
-922 -947 0
-922 -948 0
-922 -949 0
-922 -950 0
-922 -951 0
-922 -952 0
-922 -953 0
-922 -954 0
-922 -955 0
-922 -956 0
-922 -957 0
-922 -958 0
-922 -959 0
-922 -960 0
-922 -961 0
-922 -962 0
-922 -963 0
-922 -964 0
-922 -965 0
-922 -966 0
-922 -967 0
-922 -968 0
-922 -969 0
-922 -970 0
-922 -971 0
-922 -972 0
-922 -973 0
-922 -974 0
-922 -975 0
-922 -976 0
-922 -977 0
-922 -978 0
-922 -979 0
-922 -980 0
-922 -981 0
-922 -982 0
-922 -983 0
-922 -984 0
-922 -985 0
-922 -986 0
-922 -987 0
-922 -988 0
-922 -989 0
-922 -990 0
-923 -924 0
-923 -925 0
-923 -926 0
-923 -927 0
-923 -928 0
-923 -929 0
-923 -930 0
-923 -931 0
-923 -932 0
-923 -933 0
-923 -934 0
-923 -935 0
-923 -936 0
-923 -937 0
-923 -938 0
-923 -939 0
-923 -940 0
-923 -941 0
-923 -942 0
-923 -943 0
-923 -944 0
-923 -945 0
-923 -946 0
-923 -947 0
-923 -948 0
-923 -949 0
-923 -950 0
-923 -951 0
-923 -952 0
-923 -953 0
-923 -954 0
-923 -955 0
-923 -956 0
-923 -957 0
-923 -958 0
-923 -959 0
-923 -960 0
-923 -961 0
-923 -962 0
-923 -963 0
-923 -964 0
-923 -965 0
-923 -966 0
-923 -967 0
-923 -968 0
-923 -969 0
-923 -970 0
-923 -971 0
-923 -972 0
-923 -973 0
-923 -974 0
-923 -975 0
-923 -976 0
-923 -977 0
-923 -978 0
-923 -979 0
-923 -980 0
-923 -981 0
-923 -982 0
-923 -983 0
-923 -984 0
-923 -985 0
-923 -986 0
-923 -987 0
-923 -988 0
-923 -989 0
-923 -990 0
-924 -925 0
-924 -926 0
-924 -927 0
-924 -928 0
-924 -929 0
-924 -930 0
-924 -931 0
-924 -932 0
-924 -933 0
-924 -934 0
-924 -935 0
-924 -936 0
-924 -937 0
-924 -938 0
-924 -939 0
-924 -940 0
-924 -941 0
-924 -942 0
-924 -943 0
-924 -944 0
-924 -945 0
-924 -946 0
-924 -947 0
-924 -948 0
-924 -949 0
-924 -950 0
-924 -951 0
-924 -952 0
-924 -953 0
-924 -954 0
-924 -955 0
-924 -956 0
-924 -957 0
-924 -958 0
-924 -959 0
-924 -960 0
-924 -961 0
-924 -962 0
-924 -963 0
-924 -964 0
-924 -965 0
-924 -966 0
-924 -967 0
-924 -968 0
-924 -969 0
-924 -970 0
-924 -971 0
-924 -972 0
-924 -973 0
-924 -974 0
-924 -975 0
-924 -976 0
-924 -977 0
-924 -978 0
-924 -979 0
-924 -980 0
-924 -981 0
-924 -982 0
-924 -983 0
-924 -984 0
-924 -985 0
-924 -986 0
-924 -987 0
-924 -988 0
-924 -989 0
-924 -990 0
-925 -926 0
-925 -927 0
-925 -928 0
-925 -929 0
-925 -930 0
-925 -931 0
-925 -932 0
-925 -933 0
-925 -934 0
-925 -935 0
-925 -936 0
-925 -937 0
-925 -938 0
-925 -939 0
-925 -940 0
-925 -941 0
-925 -942 0
-925 -943 0
-925 -944 0
-925 -945 0
-925 -946 0
-925 -947 0
-925 -948 0
-925 -949 0
-925 -950 0
-925 -951 0
-925 -952 0
-925 -953 0
-925 -954 0
-925 -955 0
-925 -956 0
-925 -957 0
-925 -958 0
-925 -959 0
-925 -960 0
-925 -961 0
-925 -962 0
-925 -963 0
-925 -964 0
-925 -965 0
-925 -966 0
-925 -967 0
-925 -968 0
-925 -969 0
-925 -970 0
-925 -971 0
-925 -972 0
-925 -973 0
-925 -974 0
-925 -975 0
-925 -976 0
-925 -977 0
-925 -978 0
-925 -979 0
-925 -980 0
-925 -981 0
-925 -982 0
-925 -983 0
-925 -984 0
-925 -985 0
-925 -986 0
-925 -987 0
-925 -988 0
-925 -989 0
-925 -990 0
-926 -927 0
-926 -928 0
-926 -929 0
-926 -930 0
-926 -931 0
-926 -932 0
-926 -933 0
-926 -934 0
-926 -935 0
-926 -936 0
-926 -937 0
-926 -938 0
-926 -939 0
-926 -940 0
-926 -941 0
-926 -942 0
-926 -943 0
-926 -944 0
-926 -945 0
-926 -946 0
-926 -947 0
-926 -948 0
-926 -949 0
-926 -950 0
-926 -951 0
-926 -952 0
-926 -953 0
-926 -954 0
-926 -955 0
-926 -956 0
-926 -957 0
-926 -958 0
-926 -959 0
-926 -960 0
-926 -961 0
-926 -962 0
-926 -963 0
-926 -964 0
-926 -965 0
-926 -966 0
-926 -967 0
-926 -968 0
-926 -969 0
-926 -970 0
-926 -971 0
-926 -972 0
-926 -973 0
-926 -974 0
-926 -975 0
-926 -976 0
-926 -977 0
-926 -978 0
-926 -979 0
-926 -980 0
-926 -981 0
-926 -982 0
-926 -983 0
-926 -984 0
-926 -985 0
-926 -986 0
-926 -987 0
-926 -988 0
-926 -989 0
-926 -990 0
-927 -928 0
-927 -929 0
-927 -930 0
-927 -931 0
-927 -932 0
-927 -933 0
-927 -934 0
-927 -935 0
-927 -936 0
-927 -937 0
-927 -938 0
-927 -939 0
-927 -940 0
-927 -941 0
-927 -942 0
-927 -943 0
-927 -944 0
-927 -945 0
-927 -946 0
-927 -947 0
-927 -948 0
-927 -949 0
-927 -950 0
-927 -951 0
-927 -952 0
-927 -953 0
-927 -954 0
-927 -955 0
-927 -956 0
-927 -957 0
-927 -958 0
-927 -959 0
-927 -960 0
-927 -961 0
-927 -962 0
-927 -963 0
-927 -964 0
-927 -965 0
-927 -966 0
-927 -967 0
-927 -968 0
-927 -969 0
-927 -970 0
-927 -971 0
-927 -972 0
-927 -973 0
-927 -974 0
-927 -975 0
-927 -976 0
-927 -977 0
-927 -978 0
-927 -979 0
-927 -980 0
-927 -981 0
-927 -982 0
-927 -983 0
-927 -984 0
-927 -985 0
-927 -986 0
-927 -987 0
-927 -988 0
-927 -989 0
-927 -990 0
-928 -929 0
-928 -930 0
-928 -931 0
-928 -932 0
-928 -933 0
-928 -934 0
-928 -935 0
-928 -936 0
-928 -937 0
-928 -938 0
-928 -939 0
-928 -940 0
-928 -941 0
-928 -942 0
-928 -943 0
-928 -944 0
-928 -945 0
-928 -946 0
-928 -947 0
-928 -948 0
-928 -949 0
-928 -950 0
-928 -951 0
-928 -952 0
-928 -953 0
-928 -954 0
-928 -955 0
-928 -956 0
-928 -957 0
-928 -958 0
-928 -959 0
-928 -960 0
-928 -961 0
-928 -962 0
-928 -963 0
-928 -964 0
-928 -965 0
-928 -966 0
-928 -967 0
-928 -968 0
-928 -969 0
-928 -970 0
-928 -971 0
-928 -972 0
-928 -973 0
-928 -974 0
-928 -975 0
-928 -976 0
-928 -977 0
-928 -978 0
-928 -979 0
-928 -980 0
-928 -981 0
-928 -982 0
-928 -983 0
-928 -984 0
-928 -985 0
-928 -986 0
-928 -987 0
-928 -988 0
-928 -989 0
-928 -990 0
-929 -930 0
-929 -931 0
-929 -932 0
-929 -933 0
-929 -934 0
-929 -935 0
-929 -936 0
-929 -937 0
-929 -938 0
-929 -939 0
-929 -940 0
-929 -941 0
-929 -942 0
-929 -943 0
-929 -944 0
-929 -945 0
-929 -946 0
-929 -947 0
-929 -948 0
-929 -949 0
-929 -950 0
-929 -951 0
-929 -952 0
-929 -953 0
-929 -954 0
-929 -955 0
-929 -956 0
-929 -957 0
-929 -958 0
-929 -959 0
-929 -960 0
-929 -961 0
-929 -962 0
-929 -963 0
-929 -964 0
-929 -965 0
-929 -966 0
-929 -967 0
-929 -968 0
-929 -969 0
-929 -970 0
-929 -971 0
-929 -972 0
-929 -973 0
-929 -974 0
-929 -975 0
-929 -976 0
-929 -977 0
-929 -978 0
-929 -979 0
-929 -980 0
-929 -981 0
-929 -982 0
-929 -983 0
-929 -984 0
-929 -985 0
-929 -986 0
-929 -987 0
-929 -988 0
-929 -989 0
-929 -990 0
-930 -931 0
-930 -932 0
-930 -933 0
-930 -934 0
-930 -935 0
-930 -936 0
-930 -937 0
-930 -938 0
-930 -939 0
-930 -940 0
-930 -941 0
-930 -942 0
-930 -943 0
-930 -944 0
-930 -945 0
-930 -946 0
-930 -947 0
-930 -948 0
-930 -949 0
-930 -950 0
-930 -951 0
-930 -952 0
-930 -953 0
-930 -954 0
-930 -955 0
-930 -956 0
-930 -957 0
-930 -958 0
-930 -959 0
-930 -960 0
-930 -961 0
-930 -962 0
-930 -963 0
-930 -964 0
-930 -965 0
-930 -966 0
-930 -967 0
-930 -968 0
-930 -969 0
-930 -970 0
-930 -971 0
-930 -972 0
-930 -973 0
-930 -974 0
-930 -975 0
-930 -976 0
-930 -977 0
-930 -978 0
-930 -979 0
-930 -980 0
-930 -981 0
-930 -982 0
-930 -983 0
-930 -984 0
-930 -985 0
-930 -986 0
-930 -987 0
-930 -988 0
-930 -989 0
-930 -990 0
-931 -932 0
-931 -933 0
-931 -934 0
-931 -935 0
-931 -936 0
-931 -937 0
-931 -938 0
-931 -939 0
-931 -940 0
-931 -941 0
-931 -942 0
-931 -943 0
-931 -944 0
-931 -945 0
-931 -946 0
-931 -947 0
-931 -948 0
-931 -949 0
-931 -950 0
-931 -951 0
-931 -952 0
-931 -953 0
-931 -954 0
-931 -955 0
-931 -956 0
-931 -957 0
-931 -958 0
-931 -959 0
-931 -960 0
-931 -961 0
-931 -962 0
-931 -963 0
-931 -964 0
-931 -965 0
-931 -966 0
-931 -967 0
-931 -968 0
-931 -969 0
-931 -970 0
-931 -971 0
-931 -972 0
-931 -973 0
-931 -974 0
-931 -975 0
-931 -976 0
-931 -977 0
-931 -978 0
-931 -979 0
-931 -980 0
-931 -981 0
-931 -982 0
-931 -983 0
-931 -984 0
-931 -985 0
-931 -986 0
-931 -987 0
-931 -988 0
-931 -989 0
-931 -990 0
-932 -933 0
-932 -934 0
-932 -935 0
-932 -936 0
-932 -937 0
-932 -938 0
-932 -939 0
-932 -940 0
-932 -941 0
-932 -942 0
-932 -943 0
-932 -944 0
-932 -945 0
-932 -946 0
-932 -947 0
-932 -948 0
-932 -949 0
-932 -950 0
-932 -951 0
-932 -952 0
-932 -953 0
-932 -954 0
-932 -955 0
-932 -956 0
-932 -957 0
-932 -958 0
-932 -959 0
-932 -960 0
-932 -961 0
-932 -962 0
-932 -963 0
-932 -964 0
-932 -965 0
-932 -966 0
-932 -967 0
-932 -968 0
-932 -969 0
-932 -970 0
-932 -971 0
-932 -972 0
-932 -973 0
-932 -974 0
-932 -975 0
-932 -976 0
-932 -977 0
-932 -978 0
-932 -979 0
-932 -980 0
-932 -981 0
-932 -982 0
-932 -983 0
-932 -984 0
-932 -985 0
-932 -986 0
-932 -987 0
-932 -988 0
-932 -989 0
-932 -990 0
-933 -934 0
-933 -935 0
-933 -936 0
-933 -937 0
-933 -938 0
-933 -939 0
-933 -940 0
-933 -941 0
-933 -942 0
-933 -943 0
-933 -944 0
-933 -945 0
-933 -946 0
-933 -947 0
-933 -948 0
-933 -949 0
-933 -950 0
-933 -951 0
-933 -952 0
-933 -953 0
-933 -954 0
-933 -955 0
-933 -956 0
-933 -957 0
-933 -958 0
-933 -959 0
-933 -960 0
-933 -961 0
-933 -962 0
-933 -963 0
-933 -964 0
-933 -965 0
-933 -966 0
-933 -967 0
-933 -968 0
-933 -969 0
-933 -970 0
-933 -971 0
-933 -972 0
-933 -973 0
-933 -974 0
-933 -975 0
-933 -976 0
-933 -977 0
-933 -978 0
-933 -979 0
-933 -980 0
-933 -981 0
-933 -982 0
-933 -983 0
-933 -984 0
-933 -985 0
-933 -986 0
-933 -987 0
-933 -988 0
-933 -989 0
-933 -990 0
-934 -935 0
-934 -936 0
-934 -937 0
-934 -938 0
-934 -939 0
-934 -940 0
-934 -941 0
-934 -942 0
-934 -943 0
-934 -944 0
-934 -945 0
-934 -946 0
-934 -947 0
-934 -948 0
-934 -949 0
-934 -950 0
-934 -951 0
-934 -952 0
-934 -953 0
-934 -954 0
-934 -955 0
-934 -956 0
-934 -957 0
-934 -958 0
-934 -959 0
-934 -960 0
-934 -961 0
-934 -962 0
-934 -963 0
-934 -964 0
-934 -965 0
-934 -966 0
-934 -967 0
-934 -968 0
-934 -969 0
-934 -970 0
-934 -971 0
-934 -972 0
-934 -973 0
-934 -974 0
-934 -975 0
-934 -976 0
-934 -977 0
-934 -978 0
-934 -979 0
-934 -980 0
-934 -981 0
-934 -982 0
-934 -983 0
-934 -984 0
-934 -985 0
-934 -986 0
-934 -987 0
-934 -988 0
-934 -989 0
-934 -990 0
-935 -936 0
-935 -937 0
-935 -938 0
-935 -939 0
-935 -940 0
-935 -941 0
-935 -942 0
-935 -943 0
-935 -944 0
-935 -945 0
-935 -946 0
-935 -947 0
-935 -948 0
-935 -949 0
-935 -950 0
-935 -951 0
-935 -952 0
-935 -953 0
-935 -954 0
-935 -955 0
-935 -956 0
-935 -957 0
-935 -958 0
-935 -959 0
-935 -960 0
-935 -961 0
-935 -962 0
-935 -963 0
-935 -964 0
-935 -965 0
-935 -966 0
-935 -967 0
-935 -968 0
-935 -969 0
-935 -970 0
-935 -971 0
-935 -972 0
-935 -973 0
-935 -974 0
-935 -975 0
-935 -976 0
-935 -977 0
-935 -978 0
-935 -979 0
-935 -980 0
-935 -981 0
-935 -982 0
-935 -983 0
-935 -984 0
-935 -985 0
-935 -986 0
-935 -987 0
-935 -988 0
-935 -989 0
-935 -990 0
-936 -937 0
-936 -938 0
-936 -939 0
-936 -940 0
-936 -941 0
-936 -942 0
-936 -943 0
-936 -944 0
-936 -945 0
-936 -946 0
-936 -947 0
-936 -948 0
-936 -949 0
-936 -950 0
-936 -951 0
-936 -952 0
-936 -953 0
-936 -954 0
-936 -955 0
-936 -956 0
-936 -957 0
-936 -958 0
-936 -959 0
-936 -960 0
-936 -961 0
-936 -962 0
-936 -963 0
-936 -964 0
-936 -965 0
-936 -966 0
-936 -967 0
-936 -968 0
-936 -969 0
-936 -970 0
-936 -971 0
-936 -972 0
-936 -973 0
-936 -974 0
-936 -975 0
-936 -976 0
-936 -977 0
-936 -978 0
-936 -979 0
-936 -980 0
-936 -981 0
-936 -982 0
-936 -983 0
-936 -984 0
-936 -985 0
-936 -986 0
-936 -987 0
-936 -988 0
-936 -989 0
-936 -990 0
-937 -938 0
-937 -939 0
-937 -940 0
-937 -941 0
-937 -942 0
-937 -943 0
-937 -944 0
-937 -945 0
-937 -946 0
-937 -947 0
-937 -948 0
-937 -949 0
-937 -950 0
-937 -951 0
-937 -952 0
-937 -953 0
-937 -954 0
-937 -955 0
-937 -956 0
-937 -957 0
-937 -958 0
-937 -959 0
-937 -960 0
-937 -961 0
-937 -962 0
-937 -963 0
-937 -964 0
-937 -965 0
-937 -966 0
-937 -967 0
-937 -968 0
-937 -969 0
-937 -970 0
-937 -971 0
-937 -972 0
-937 -973 0
-937 -974 0
-937 -975 0
-937 -976 0
-937 -977 0
-937 -978 0
-937 -979 0
-937 -980 0
-937 -981 0
-937 -982 0
-937 -983 0
-937 -984 0
-937 -985 0
-937 -986 0
-937 -987 0
-937 -988 0
-937 -989 0
-937 -990 0
-938 -939 0
-938 -940 0
-938 -941 0
-938 -942 0
-938 -943 0
-938 -944 0
-938 -945 0
-938 -946 0
-938 -947 0
-938 -948 0
-938 -949 0
-938 -950 0
-938 -951 0
-938 -952 0
-938 -953 0
-938 -954 0
-938 -955 0
-938 -956 0
-938 -957 0
-938 -958 0
-938 -959 0
-938 -960 0
-938 -961 0
-938 -962 0
-938 -963 0
-938 -964 0
-938 -965 0
-938 -966 0
-938 -967 0
-938 -968 0
-938 -969 0
-938 -970 0
-938 -971 0
-938 -972 0
-938 -973 0
-938 -974 0
-938 -975 0
-938 -976 0
-938 -977 0
-938 -978 0
-938 -979 0
-938 -980 0
-938 -981 0
-938 -982 0
-938 -983 0
-938 -984 0
-938 -985 0
-938 -986 0
-938 -987 0
-938 -988 0
-938 -989 0
-938 -990 0
-939 -940 0
-939 -941 0
-939 -942 0
-939 -943 0
-939 -944 0
-939 -945 0
-939 -946 0
-939 -947 0
-939 -948 0
-939 -949 0
-939 -950 0
-939 -951 0
-939 -952 0
-939 -953 0
-939 -954 0
-939 -955 0
-939 -956 0
-939 -957 0
-939 -958 0
-939 -959 0
-939 -960 0
-939 -961 0
-939 -962 0
-939 -963 0
-939 -964 0
-939 -965 0
-939 -966 0
-939 -967 0
-939 -968 0
-939 -969 0
-939 -970 0
-939 -971 0
-939 -972 0
-939 -973 0
-939 -974 0
-939 -975 0
-939 -976 0
-939 -977 0
-939 -978 0
-939 -979 0
-939 -980 0
-939 -981 0
-939 -982 0
-939 -983 0
-939 -984 0
-939 -985 0
-939 -986 0
-939 -987 0
-939 -988 0
-939 -989 0
-939 -990 0
-940 -941 0
-940 -942 0
-940 -943 0
-940 -944 0
-940 -945 0
-940 -946 0
-940 -947 0
-940 -948 0
-940 -949 0
-940 -950 0
-940 -951 0
-940 -952 0
-940 -953 0
-940 -954 0
-940 -955 0
-940 -956 0
-940 -957 0
-940 -958 0
-940 -959 0
-940 -960 0
-940 -961 0
-940 -962 0
-940 -963 0
-940 -964 0
-940 -965 0
-940 -966 0
-940 -967 0
-940 -968 0
-940 -969 0
-940 -970 0
-940 -971 0
-940 -972 0
-940 -973 0
-940 -974 0
-940 -975 0
-940 -976 0
-940 -977 0
-940 -978 0
-940 -979 0
-940 -980 0
-940 -981 0
-940 -982 0
-940 -983 0
-940 -984 0
-940 -985 0
-940 -986 0
-940 -987 0
-940 -988 0
-940 -989 0
-940 -990 0
-941 -942 0
-941 -943 0
-941 -944 0
-941 -945 0
-941 -946 0
-941 -947 0
-941 -948 0
-941 -949 0
-941 -950 0
-941 -951 0
-941 -952 0
-941 -953 0
-941 -954 0
-941 -955 0
-941 -956 0
-941 -957 0
-941 -958 0
-941 -959 0
-941 -960 0
-941 -961 0
-941 -962 0
-941 -963 0
-941 -964 0
-941 -965 0
-941 -966 0
-941 -967 0
-941 -968 0
-941 -969 0
-941 -970 0
-941 -971 0
-941 -972 0
-941 -973 0
-941 -974 0
-941 -975 0
-941 -976 0
-941 -977 0
-941 -978 0
-941 -979 0
-941 -980 0
-941 -981 0
-941 -982 0
-941 -983 0
-941 -984 0
-941 -985 0
-941 -986 0
-941 -987 0
-941 -988 0
-941 -989 0
-941 -990 0
-942 -943 0
-942 -944 0
-942 -945 0
-942 -946 0
-942 -947 0
-942 -948 0
-942 -949 0
-942 -950 0
-942 -951 0
-942 -952 0
-942 -953 0
-942 -954 0
-942 -955 0
-942 -956 0
-942 -957 0
-942 -958 0
-942 -959 0
-942 -960 0
-942 -961 0
-942 -962 0
-942 -963 0
-942 -964 0
-942 -965 0
-942 -966 0
-942 -967 0
-942 -968 0
-942 -969 0
-942 -970 0
-942 -971 0
-942 -972 0
-942 -973 0
-942 -974 0
-942 -975 0
-942 -976 0
-942 -977 0
-942 -978 0
-942 -979 0
-942 -980 0
-942 -981 0
-942 -982 0
-942 -983 0
-942 -984 0
-942 -985 0
-942 -986 0
-942 -987 0
-942 -988 0
-942 -989 0
-942 -990 0
-943 -944 0
-943 -945 0
-943 -946 0
-943 -947 0
-943 -948 0
-943 -949 0
-943 -950 0
-943 -951 0
-943 -952 0
-943 -953 0
-943 -954 0
-943 -955 0
-943 -956 0
-943 -957 0
-943 -958 0
-943 -959 0
-943 -960 0
-943 -961 0
-943 -962 0
-943 -963 0
-943 -964 0
-943 -965 0
-943 -966 0
-943 -967 0
-943 -968 0
-943 -969 0
-943 -970 0
-943 -971 0
-943 -972 0
-943 -973 0
-943 -974 0
-943 -975 0
-943 -976 0
-943 -977 0
-943 -978 0
-943 -979 0
-943 -980 0
-943 -981 0
-943 -982 0
-943 -983 0
-943 -984 0
-943 -985 0
-943 -986 0
-943 -987 0
-943 -988 0
-943 -989 0
-943 -990 0
-944 -945 0
-944 -946 0
-944 -947 0
-944 -948 0
-944 -949 0
-944 -950 0
-944 -951 0
-944 -952 0
-944 -953 0
-944 -954 0
-944 -955 0
-944 -956 0
-944 -957 0
-944 -958 0
-944 -959 0
-944 -960 0
-944 -961 0
-944 -962 0
-944 -963 0
-944 -964 0
-944 -965 0
-944 -966 0
-944 -967 0
-944 -968 0
-944 -969 0
-944 -970 0
-944 -971 0
-944 -972 0
-944 -973 0
-944 -974 0
-944 -975 0
-944 -976 0
-944 -977 0
-944 -978 0
-944 -979 0
-944 -980 0
-944 -981 0
-944 -982 0
-944 -983 0
-944 -984 0
-944 -985 0
-944 -986 0
-944 -987 0
-944 -988 0
-944 -989 0
-944 -990 0
-945 -946 0
-945 -947 0
-945 -948 0
-945 -949 0
-945 -950 0
-945 -951 0
-945 -952 0
-945 -953 0
-945 -954 0
-945 -955 0
-945 -956 0
-945 -957 0
-945 -958 0
-945 -959 0
-945 -960 0
-945 -961 0
-945 -962 0
-945 -963 0
-945 -964 0
-945 -965 0
-945 -966 0
-945 -967 0
-945 -968 0
-945 -969 0
-945 -970 0
-945 -971 0
-945 -972 0
-945 -973 0
-945 -974 0
-945 -975 0
-945 -976 0
-945 -977 0
-945 -978 0
-945 -979 0
-945 -980 0
-945 -981 0
-945 -982 0
-945 -983 0
-945 -984 0
-945 -985 0
-945 -986 0
-945 -987 0
-945 -988 0
-945 -989 0
-945 -990 0
-946 -947 0
-946 -948 0
-946 -949 0
-946 -950 0
-946 -951 0
-946 -952 0
-946 -953 0
-946 -954 0
-946 -955 0
-946 -956 0
-946 -957 0
-946 -958 0
-946 -959 0
-946 -960 0
-946 -961 0
-946 -962 0
-946 -963 0
-946 -964 0
-946 -965 0
-946 -966 0
-946 -967 0
-946 -968 0
-946 -969 0
-946 -970 0
-946 -971 0
-946 -972 0
-946 -973 0
-946 -974 0
-946 -975 0
-946 -976 0
-946 -977 0
-946 -978 0
-946 -979 0
-946 -980 0
-946 -981 0
-946 -982 0
-946 -983 0
-946 -984 0
-946 -985 0
-946 -986 0
-946 -987 0
-946 -988 0
-946 -989 0
-946 -990 0
-947 -948 0
-947 -949 0
-947 -950 0
-947 -951 0
-947 -952 0
-947 -953 0
-947 -954 0
-947 -955 0
-947 -956 0
-947 -957 0
-947 -958 0
-947 -959 0
-947 -960 0
-947 -961 0
-947 -962 0
-947 -963 0
-947 -964 0
-947 -965 0
-947 -966 0
-947 -967 0
-947 -968 0
-947 -969 0
-947 -970 0
-947 -971 0
-947 -972 0
-947 -973 0
-947 -974 0
-947 -975 0
-947 -976 0
-947 -977 0
-947 -978 0
-947 -979 0
-947 -980 0
-947 -981 0
-947 -982 0
-947 -983 0
-947 -984 0
-947 -985 0
-947 -986 0
-947 -987 0
-947 -988 0
-947 -989 0
-947 -990 0
-948 -949 0
-948 -950 0
-948 -951 0
-948 -952 0
-948 -953 0
-948 -954 0
-948 -955 0
-948 -956 0
-948 -957 0
-948 -958 0
-948 -959 0
-948 -960 0
-948 -961 0
-948 -962 0
-948 -963 0
-948 -964 0
-948 -965 0
-948 -966 0
-948 -967 0
-948 -968 0
-948 -969 0
-948 -970 0
-948 -971 0
-948 -972 0
-948 -973 0
-948 -974 0
-948 -975 0
-948 -976 0
-948 -977 0
-948 -978 0
-948 -979 0
-948 -980 0
-948 -981 0
-948 -982 0
-948 -983 0
-948 -984 0
-948 -985 0
-948 -986 0
-948 -987 0
-948 -988 0
-948 -989 0
-948 -990 0
-949 -950 0
-949 -951 0
-949 -952 0
-949 -953 0
-949 -954 0
-949 -955 0
-949 -956 0
-949 -957 0
-949 -958 0
-949 -959 0
-949 -960 0
-949 -961 0
-949 -962 0
-949 -963 0
-949 -964 0
-949 -965 0
-949 -966 0
-949 -967 0
-949 -968 0
-949 -969 0
-949 -970 0
-949 -971 0
-949 -972 0
-949 -973 0
-949 -974 0
-949 -975 0
-949 -976 0
-949 -977 0
-949 -978 0
-949 -979 0
-949 -980 0
-949 -981 0
-949 -982 0
-949 -983 0
-949 -984 0
-949 -985 0
-949 -986 0
-949 -987 0
-949 -988 0
-949 -989 0
-949 -990 0
-950 -951 0
-950 -952 0
-950 -953 0
-950 -954 0
-950 -955 0
-950 -956 0
-950 -957 0
-950 -958 0
-950 -959 0
-950 -960 0
-950 -961 0
-950 -962 0
-950 -963 0
-950 -964 0
-950 -965 0
-950 -966 0
-950 -967 0
-950 -968 0
-950 -969 0
-950 -970 0
-950 -971 0
-950 -972 0
-950 -973 0
-950 -974 0
-950 -975 0
-950 -976 0
-950 -977 0
-950 -978 0
-950 -979 0
-950 -980 0
-950 -981 0
-950 -982 0
-950 -983 0
-950 -984 0
-950 -985 0
-950 -986 0
-950 -987 0
-950 -988 0
-950 -989 0
-950 -990 0
-951 -952 0
-951 -953 0
-951 -954 0
-951 -955 0
-951 -956 0
-951 -957 0
-951 -958 0
-951 -959 0
-951 -960 0
-951 -961 0
-951 -962 0
-951 -963 0
-951 -964 0
-951 -965 0
-951 -966 0
-951 -967 0
-951 -968 0
-951 -969 0
-951 -970 0
-951 -971 0
-951 -972 0
-951 -973 0
-951 -974 0
-951 -975 0
-951 -976 0
-951 -977 0
-951 -978 0
-951 -979 0
-951 -980 0
-951 -981 0
-951 -982 0
-951 -983 0
-951 -984 0
-951 -985 0
-951 -986 0
-951 -987 0
-951 -988 0
-951 -989 0
-951 -990 0
-952 -953 0
-952 -954 0
-952 -955 0
-952 -956 0
-952 -957 0
-952 -958 0
-952 -959 0
-952 -960 0
-952 -961 0
-952 -962 0
-952 -963 0
-952 -964 0
-952 -965 0
-952 -966 0
-952 -967 0
-952 -968 0
-952 -969 0
-952 -970 0
-952 -971 0
-952 -972 0
-952 -973 0
-952 -974 0
-952 -975 0
-952 -976 0
-952 -977 0
-952 -978 0
-952 -979 0
-952 -980 0
-952 -981 0
-952 -982 0
-952 -983 0
-952 -984 0
-952 -985 0
-952 -986 0
-952 -987 0
-952 -988 0
-952 -989 0
-952 -990 0
-953 -954 0
-953 -955 0
-953 -956 0
-953 -957 0
-953 -958 0
-953 -959 0
-953 -960 0
-953 -961 0
-953 -962 0
-953 -963 0
-953 -964 0
-953 -965 0
-953 -966 0
-953 -967 0
-953 -968 0
-953 -969 0
-953 -970 0
-953 -971 0
-953 -972 0
-953 -973 0
-953 -974 0
-953 -975 0
-953 -976 0
-953 -977 0
-953 -978 0
-953 -979 0
-953 -980 0
-953 -981 0
-953 -982 0
-953 -983 0
-953 -984 0
-953 -985 0
-953 -986 0
-953 -987 0
-953 -988 0
-953 -989 0
-953 -990 0
-954 -955 0
-954 -956 0
-954 -957 0
-954 -958 0
-954 -959 0
-954 -960 0
-954 -961 0
-954 -962 0
-954 -963 0
-954 -964 0
-954 -965 0
-954 -966 0
-954 -967 0
-954 -968 0
-954 -969 0
-954 -970 0
-954 -971 0
-954 -972 0
-954 -973 0
-954 -974 0
-954 -975 0
-954 -976 0
-954 -977 0
-954 -978 0
-954 -979 0
-954 -980 0
-954 -981 0
-954 -982 0
-954 -983 0
-954 -984 0
-954 -985 0
-954 -986 0
-954 -987 0
-954 -988 0
-954 -989 0
-954 -990 0
-955 -956 0
-955 -957 0
-955 -958 0
-955 -959 0
-955 -960 0
-955 -961 0
-955 -962 0
-955 -963 0
-955 -964 0
-955 -965 0
-955 -966 0
-955 -967 0
-955 -968 0
-955 -969 0
-955 -970 0
-955 -971 0
-955 -972 0
-955 -973 0
-955 -974 0
-955 -975 0
-955 -976 0
-955 -977 0
-955 -978 0
-955 -979 0
-955 -980 0
-955 -981 0
-955 -982 0
-955 -983 0
-955 -984 0
-955 -985 0
-955 -986 0
-955 -987 0
-955 -988 0
-955 -989 0
-955 -990 0
-956 -957 0
-956 -958 0
-956 -959 0
-956 -960 0
-956 -961 0
-956 -962 0
-956 -963 0
-956 -964 0
-956 -965 0
-956 -966 0
-956 -967 0
-956 -968 0
-956 -969 0
-956 -970 0
-956 -971 0
-956 -972 0
-956 -973 0
-956 -974 0
-956 -975 0
-956 -976 0
-956 -977 0
-956 -978 0
-956 -979 0
-956 -980 0
-956 -981 0
-956 -982 0
-956 -983 0
-956 -984 0
-956 -985 0
-956 -986 0
-956 -987 0
-956 -988 0
-956 -989 0
-956 -990 0
-957 -958 0
-957 -959 0
-957 -960 0
-957 -961 0
-957 -962 0
-957 -963 0
-957 -964 0
-957 -965 0
-957 -966 0
-957 -967 0
-957 -968 0
-957 -969 0
-957 -970 0
-957 -971 0
-957 -972 0
-957 -973 0
-957 -974 0
-957 -975 0
-957 -976 0
-957 -977 0
-957 -978 0
-957 -979 0
-957 -980 0
-957 -981 0
-957 -982 0
-957 -983 0
-957 -984 0
-957 -985 0
-957 -986 0
-957 -987 0
-957 -988 0
-957 -989 0
-957 -990 0
-958 -959 0
-958 -960 0
-958 -961 0
-958 -962 0
-958 -963 0
-958 -964 0
-958 -965 0
-958 -966 0
-958 -967 0
-958 -968 0
-958 -969 0
-958 -970 0
-958 -971 0
-958 -972 0
-958 -973 0
-958 -974 0
-958 -975 0
-958 -976 0
-958 -977 0
-958 -978 0
-958 -979 0
-958 -980 0
-958 -981 0
-958 -982 0
-958 -983 0
-958 -984 0
-958 -985 0
-958 -986 0
-958 -987 0
-958 -988 0
-958 -989 0
-958 -990 0
-959 -960 0
-959 -961 0
-959 -962 0
-959 -963 0
-959 -964 0
-959 -965 0
-959 -966 0
-959 -967 0
-959 -968 0
-959 -969 0
-959 -970 0
-959 -971 0
-959 -972 0
-959 -973 0
-959 -974 0
-959 -975 0
-959 -976 0
-959 -977 0
-959 -978 0
-959 -979 0
-959 -980 0
-959 -981 0
-959 -982 0
-959 -983 0
-959 -984 0
-959 -985 0
-959 -986 0
-959 -987 0
-959 -988 0
-959 -989 0
-959 -990 0
-960 -961 0
-960 -962 0
-960 -963 0
-960 -964 0
-960 -965 0
-960 -966 0
-960 -967 0
-960 -968 0
-960 -969 0
-960 -970 0
-960 -971 0
-960 -972 0
-960 -973 0
-960 -974 0
-960 -975 0
-960 -976 0
-960 -977 0
-960 -978 0
-960 -979 0
-960 -980 0
-960 -981 0
-960 -982 0
-960 -983 0
-960 -984 0
-960 -985 0
-960 -986 0
-960 -987 0
-960 -988 0
-960 -989 0
-960 -990 0
-961 -962 0
-961 -963 0
-961 -964 0
-961 -965 0
-961 -966 0
-961 -967 0
-961 -968 0
-961 -969 0
-961 -970 0
-961 -971 0
-961 -972 0
-961 -973 0
-961 -974 0
-961 -975 0
-961 -976 0
-961 -977 0
-961 -978 0
-961 -979 0
-961 -980 0
-961 -981 0
-961 -982 0
-961 -983 0
-961 -984 0
-961 -985 0
-961 -986 0
-961 -987 0
-961 -988 0
-961 -989 0
-961 -990 0
-962 -963 0
-962 -964 0
-962 -965 0
-962 -966 0
-962 -967 0
-962 -968 0
-962 -969 0
-962 -970 0
-962 -971 0
-962 -972 0
-962 -973 0
-962 -974 0
-962 -975 0
-962 -976 0
-962 -977 0
-962 -978 0
-962 -979 0
-962 -980 0
-962 -981 0
-962 -982 0
-962 -983 0
-962 -984 0
-962 -985 0
-962 -986 0
-962 -987 0
-962 -988 0
-962 -989 0
-962 -990 0
-963 -964 0
-963 -965 0
-963 -966 0
-963 -967 0
-963 -968 0
-963 -969 0
-963 -970 0
-963 -971 0
-963 -972 0
-963 -973 0
-963 -974 0
-963 -975 0
-963 -976 0
-963 -977 0
-963 -978 0
-963 -979 0
-963 -980 0
-963 -981 0
-963 -982 0
-963 -983 0
-963 -984 0
-963 -985 0
-963 -986 0
-963 -987 0
-963 -988 0
-963 -989 0
-963 -990 0
-964 -965 0
-964 -966 0
-964 -967 0
-964 -968 0
-964 -969 0
-964 -970 0
-964 -971 0
-964 -972 0
-964 -973 0
-964 -974 0
-964 -975 0
-964 -976 0
-964 -977 0
-964 -978 0
-964 -979 0
-964 -980 0
-964 -981 0
-964 -982 0
-964 -983 0
-964 -984 0
-964 -985 0
-964 -986 0
-964 -987 0
-964 -988 0
-964 -989 0
-964 -990 0
-965 -966 0
-965 -967 0
-965 -968 0
-965 -969 0
-965 -970 0
-965 -971 0
-965 -972 0
-965 -973 0
-965 -974 0
-965 -975 0
-965 -976 0
-965 -977 0
-965 -978 0
-965 -979 0
-965 -980 0
-965 -981 0
-965 -982 0
-965 -983 0
-965 -984 0
-965 -985 0
-965 -986 0
-965 -987 0
-965 -988 0
-965 -989 0
-965 -990 0
-966 -967 0
-966 -968 0
-966 -969 0
-966 -970 0
-966 -971 0
-966 -972 0
-966 -973 0
-966 -974 0
-966 -975 0
-966 -976 0
-966 -977 0
-966 -978 0
-966 -979 0
-966 -980 0
-966 -981 0
-966 -982 0
-966 -983 0
-966 -984 0
-966 -985 0
-966 -986 0
-966 -987 0
-966 -988 0
-966 -989 0
-966 -990 0
-967 -968 0
-967 -969 0
-967 -970 0
-967 -971 0
-967 -972 0
-967 -973 0
-967 -974 0
-967 -975 0
-967 -976 0
-967 -977 0
-967 -978 0
-967 -979 0
-967 -980 0
-967 -981 0
-967 -982 0
-967 -983 0
-967 -984 0
-967 -985 0
-967 -986 0
-967 -987 0
-967 -988 0
-967 -989 0
-967 -990 0
-968 -969 0
-968 -970 0
-968 -971 0
-968 -972 0
-968 -973 0
-968 -974 0
-968 -975 0
-968 -976 0
-968 -977 0
-968 -978 0
-968 -979 0
-968 -980 0
-968 -981 0
-968 -982 0
-968 -983 0
-968 -984 0
-968 -985 0
-968 -986 0
-968 -987 0
-968 -988 0
-968 -989 0
-968 -990 0
-969 -970 0
-969 -971 0
-969 -972 0
-969 -973 0
-969 -974 0
-969 -975 0
-969 -976 0
-969 -977 0
-969 -978 0
-969 -979 0
-969 -980 0
-969 -981 0
-969 -982 0
-969 -983 0
-969 -984 0
-969 -985 0
-969 -986 0
-969 -987 0
-969 -988 0
-969 -989 0
-969 -990 0
-970 -971 0
-970 -972 0
-970 -973 0
-970 -974 0
-970 -975 0
-970 -976 0
-970 -977 0
-970 -978 0
-970 -979 0
-970 -980 0
-970 -981 0
-970 -982 0
-970 -983 0
-970 -984 0
-970 -985 0
-970 -986 0
-970 -987 0
-970 -988 0
-970 -989 0
-970 -990 0
-971 -972 0
-971 -973 0
-971 -974 0
-971 -975 0
-971 -976 0
-971 -977 0
-971 -978 0
-971 -979 0
-971 -980 0
-971 -981 0
-971 -982 0
-971 -983 0
-971 -984 0
-971 -985 0
-971 -986 0
-971 -987 0
-971 -988 0
-971 -989 0
-971 -990 0
-972 -973 0
-972 -974 0
-972 -975 0
-972 -976 0
-972 -977 0
-972 -978 0
-972 -979 0
-972 -980 0
-972 -981 0
-972 -982 0
-972 -983 0
-972 -984 0
-972 -985 0
-972 -986 0
-972 -987 0
-972 -988 0
-972 -989 0
-972 -990 0
-973 -974 0
-973 -975 0
-973 -976 0
-973 -977 0
-973 -978 0
-973 -979 0
-973 -980 0
-973 -981 0
-973 -982 0
-973 -983 0
-973 -984 0
-973 -985 0
-973 -986 0
-973 -987 0
-973 -988 0
-973 -989 0
-973 -990 0
-974 -975 0
-974 -976 0
-974 -977 0
-974 -978 0
-974 -979 0
-974 -980 0
-974 -981 0
-974 -982 0
-974 -983 0
-974 -984 0
-974 -985 0
-974 -986 0
-974 -987 0
-974 -988 0
-974 -989 0
-974 -990 0
-975 -976 0
-975 -977 0
-975 -978 0
-975 -979 0
-975 -980 0
-975 -981 0
-975 -982 0
-975 -983 0
-975 -984 0
-975 -985 0
-975 -986 0
-975 -987 0
-975 -988 0
-975 -989 0
-975 -990 0
-976 -977 0
-976 -978 0
-976 -979 0
-976 -980 0
-976 -981 0
-976 -982 0
-976 -983 0
-976 -984 0
-976 -985 0
-976 -986 0
-976 -987 0
-976 -988 0
-976 -989 0
-976 -990 0
-977 -978 0
-977 -979 0
-977 -980 0
-977 -981 0
-977 -982 0
-977 -983 0
-977 -984 0
-977 -985 0
-977 -986 0
-977 -987 0
-977 -988 0
-977 -989 0
-977 -990 0
-978 -979 0
-978 -980 0
-978 -981 0
-978 -982 0
-978 -983 0
-978 -984 0
-978 -985 0
-978 -986 0
-978 -987 0
-978 -988 0
-978 -989 0
-978 -990 0
-979 -980 0
-979 -981 0
-979 -982 0
-979 -983 0
-979 -984 0
-979 -985 0
-979 -986 0
-979 -987 0
-979 -988 0
-979 -989 0
-979 -990 0
-980 -981 0
-980 -982 0
-980 -983 0
-980 -984 0
-980 -985 0
-980 -986 0
-980 -987 0
-980 -988 0
-980 -989 0
-980 -990 0
-981 -982 0
-981 -983 0
-981 -984 0
-981 -985 0
-981 -986 0
-981 -987 0
-981 -988 0
-981 -989 0
-981 -990 0
-982 -983 0
-982 -984 0
-982 -985 0
-982 -986 0
-982 -987 0
-982 -988 0
-982 -989 0
-982 -990 0
-983 -984 0
-983 -985 0
-983 -986 0
-983 -987 0
-983 -988 0
-983 -989 0
-983 -990 0
-984 -985 0
-984 -986 0
-984 -987 0
-984 -988 0
-984 -989 0
-984 -990 0
-985 -986 0
-985 -987 0
-985 -988 0
-985 -989 0
-985 -990 0
-986 -987 0
-986 -988 0
-986 -989 0
-986 -990 0
-987 -988 0
-987 -989 0
-987 -990 0
-988 -989 0
-988 -990 0
-989 -990 0
-991 231 0
-991 -43 -163 -160 0
-991 -43 -164 -161 0
-991 -43 -165 -162 0
-991 49 0
-991 -49 -163 1303 445 0
-991 -49 -164 1303 451 0
-991 -49 -165 1303 457 0
-991 -163 -469 0
-991 -163 -493 0
-991 -163 -517 0
-991 -163 -475 0
-991 -163 -499 0
-991 -163 -523 0
-991 -163 -481 0
-991 -163 -505 0
-991 -163 -529 0
-991 -164 -475 0
-991 -164 -499 0
-991 -164 -523 0
-991 -164 -481 0
-991 -164 -505 0
-991 -164 -529 0
-991 -165 -481 0
-991 -165 -505 0
-991 -165 -529 0
-991 -166 0
-991 64 0
-991 -163 176 0
-991 -164 177 0
-991 -165 178 0
-991 -236 0
-992 231 0
-992 -44 -163 -160 0
-992 -44 -164 -161 0
-992 -44 -165 -162 0
-992 50 0
-992 -50 -163 1304 446 0
-992 -50 -164 1304 452 0
-992 -50 -165 1304 458 0
-992 -163 -470 0
-992 -163 -494 0
-992 -163 -518 0
-992 -163 -476 0
-992 -163 -500 0
-992 -163 -524 0
-992 -163 -482 0
-992 -163 -506 0
-992 -163 -530 0
-992 -164 -476 0
-992 -164 -500 0
-992 -164 -524 0
-992 -164 -482 0
-992 -164 -506 0
-992 -164 -530 0
-992 -165 -482 0
-992 -165 -506 0
-992 -165 -530 0
-992 -166 0
-992 65 0
-992 -163 176 0
-992 -164 177 0
-992 -165 178 0
-992 -236 0
-993 231 0
-993 -45 -163 -160 0
-993 -45 -164 -161 0
-993 -45 -165 -162 0
-993 51 0
-993 -51 -163 1305 447 0
-993 -51 -164 1305 453 0
-993 -51 -165 1305 459 0
-993 -163 -471 0
-993 -163 -495 0
-993 -163 -519 0
-993 -163 -477 0
-993 -163 -501 0
-993 -163 -525 0
-993 -163 -483 0
-993 -163 -507 0
-993 -163 -531 0
-993 -164 -477 0
-993 -164 -501 0
-993 -164 -525 0
-993 -164 -483 0
-993 -164 -507 0
-993 -164 -531 0
-993 -165 -483 0
-993 -165 -507 0
-993 -165 -531 0
-993 -166 0
-993 66 0
-993 -163 176 0
-993 -164 177 0
-993 -165 178 0
-993 -236 0
-994 231 0
-994 -46 -163 -160 0
-994 -46 -164 -161 0
-994 -46 -165 -162 0
-994 52 0
-994 -52 -163 1306 448 0
-994 -52 -164 1306 454 0
-994 -52 -165 1306 460 0
-994 -163 -472 0
-994 -163 -496 0
-994 -163 -520 0
-994 -163 -478 0
-994 -163 -502 0
-994 -163 -526 0
-994 -163 -484 0
-994 -163 -508 0
-994 -163 -532 0
-994 -164 -478 0
-994 -164 -502 0
-994 -164 -526 0
-994 -164 -484 0
-994 -164 -508 0
-994 -164 -532 0
-994 -165 -484 0
-994 -165 -508 0
-994 -165 -532 0
-994 -166 0
-994 67 0
-994 -163 176 0
-994 -164 177 0
-994 -165 178 0
-994 -236 0
-995 231 0
-995 -47 -163 -160 0
-995 -47 -164 -161 0
-995 -47 -165 -162 0
-995 53 0
-995 -53 -163 1307 449 0
-995 -53 -164 1307 455 0
-995 -53 -165 1307 461 0
-995 -163 -473 0
-995 -163 -497 0
-995 -163 -521 0
-995 -163 -479 0
-995 -163 -503 0
-995 -163 -527 0
-995 -163 -485 0
-995 -163 -509 0
-995 -163 -533 0
-995 -164 -479 0
-995 -164 -503 0
-995 -164 -527 0
-995 -164 -485 0
-995 -164 -509 0
-995 -164 -533 0
-995 -165 -485 0
-995 -165 -509 0
-995 -165 -533 0
-995 -166 0
-995 68 0
-995 -163 176 0
-995 -164 177 0
-995 -165 178 0
-995 -236 0
-996 231 0
-996 -48 -163 -160 0
-996 -48 -164 -161 0
-996 -48 -165 -162 0
-996 54 0
-996 -54 -163 1308 450 0
-996 -54 -164 1308 456 0
-996 -54 -165 1308 462 0
-996 -163 -474 0
-996 -163 -498 0
-996 -163 -522 0
-996 -163 -480 0
-996 -163 -504 0
-996 -163 -528 0
-996 -163 -486 0
-996 -163 -510 0
-996 -163 -534 0
-996 -164 -480 0
-996 -164 -504 0
-996 -164 -528 0
-996 -164 -486 0
-996 -164 -510 0
-996 -164 -534 0
-996 -165 -486 0
-996 -165 -510 0
-996 -165 -534 0
-996 -166 0
-996 69 0
-996 -163 176 0
-996 -164 177 0
-996 -165 178 0
-996 -236 0
-997 231 0
-997 -43 -167 -160 0
-997 -43 -168 -161 0
-997 -43 -169 -162 0
-997 55 0
-997 -55 -167 1309 445 0
-997 -55 -168 1309 451 0
-997 -55 -169 1309 457 0
-997 -167 -469 0
-997 -167 -493 0
-997 -167 -517 0
-997 -167 -475 0
-997 -167 -499 0
-997 -167 -523 0
-997 -167 -481 0
-997 -167 -505 0
-997 -167 -529 0
-997 -168 -475 0
-997 -168 -499 0
-997 -168 -523 0
-997 -168 -481 0
-997 -168 -505 0
-997 -168 -529 0
-997 -169 -481 0
-997 -169 -505 0
-997 -169 -529 0
-997 -170 0
-997 64 0
-997 -167 176 0
-997 -168 177 0
-997 -169 178 0
-997 -237 0
-998 231 0
-998 -44 -167 -160 0
-998 -44 -168 -161 0
-998 -44 -169 -162 0
-998 55 56 0
-998 -55 -167 1310 446 0
-998 -55 -168 1310 452 0
-998 -55 -169 1310 458 0
-998 -56 -167 1310 446 0
-998 -56 -168 1310 452 0
-998 -56 -169 1310 458 0
-998 -167 -470 0
-998 -167 -494 0
-998 -167 -518 0
-998 -167 -476 0
-998 -167 -500 0
-998 -167 -524 0
-998 -167 -482 0
-998 -167 -506 0
-998 -167 -530 0
-998 -168 -476 0
-998 -168 -500 0
-998 -168 -524 0
-998 -168 -482 0
-998 -168 -506 0
-998 -168 -530 0
-998 -169 -482 0
-998 -169 -506 0
-998 -169 -530 0
-998 -170 0
-998 65 0
-998 -167 176 0
-998 -168 177 0
-998 -169 178 0
-998 -237 0
-999 231 0
-999 -45 -167 -160 0
-999 -45 -168 -161 0
-999 -45 -169 -162 0
-999 56 57 0
-999 -56 -167 1311 447 0
-999 -56 -168 1311 453 0
-999 -56 -169 1311 459 0
-999 -57 -167 1311 447 0
-999 -57 -168 1311 453 0
-999 -57 -169 1311 459 0
-999 -167 -471 0
-999 -167 -495 0
-999 -167 -519 0
-999 -167 -477 0
-999 -167 -501 0
-999 -167 -525 0
-999 -167 -483 0
-999 -167 -507 0
-999 -167 -531 0
-999 -168 -477 0
-999 -168 -501 0
-999 -168 -525 0
-999 -168 -483 0
-999 -168 -507 0
-999 -168 -531 0
-999 -169 -483 0
-999 -169 -507 0
-999 -169 -531 0
-999 -170 0
-999 66 0
-999 -167 176 0
-999 -168 177 0
-999 -169 178 0
-999 -237 0
-1000 231 0
-1000 -46 -167 -160 0
-1000 -46 -168 -161 0
-1000 -46 -169 -162 0
-1000 57 58 0
-1000 -57 -167 1312 448 0
-1000 -57 -168 1312 454 0
-1000 -57 -169 1312 460 0
-1000 -58 -167 1312 448 0
-1000 -58 -168 1312 454 0
-1000 -58 -169 1312 460 0
-1000 -167 -472 0
-1000 -167 -496 0
-1000 -167 -520 0
-1000 -167 -478 0
-1000 -167 -502 0
-1000 -167 -526 0
-1000 -167 -484 0
-1000 -167 -508 0
-1000 -167 -532 0
-1000 -168 -478 0
-1000 -168 -502 0
-1000 -168 -526 0
-1000 -168 -484 0
-1000 -168 -508 0
-1000 -168 -532 0
-1000 -169 -484 0
-1000 -169 -508 0
-1000 -169 -532 0
-1000 -170 0
-1000 67 0
-1000 -167 176 0
-1000 -168 177 0
-1000 -169 178 0
-1000 -237 0
-1001 231 0
-1001 -47 -167 -160 0
-1001 -47 -168 -161 0
-1001 -47 -169 -162 0
-1001 58 59 0
-1001 -58 -167 1313 449 0
-1001 -58 -168 1313 455 0
-1001 -58 -169 1313 461 0
-1001 -59 -167 1313 449 0
-1001 -59 -168 1313 455 0
-1001 -59 -169 1313 461 0
-1001 -167 -473 0
-1001 -167 -497 0
-1001 -167 -521 0
-1001 -167 -479 0
-1001 -167 -503 0
-1001 -167 -527 0
-1001 -167 -485 0
-1001 -167 -509 0
-1001 -167 -533 0
-1001 -168 -479 0
-1001 -168 -503 0
-1001 -168 -527 0
-1001 -168 -485 0
-1001 -168 -509 0
-1001 -168 -533 0
-1001 -169 -485 0
-1001 -169 -509 0
-1001 -169 -533 0
-1001 -170 0
-1001 68 0
-1001 -167 176 0
-1001 -168 177 0
-1001 -169 178 0
-1001 -237 0
-1002 231 0
-1002 -48 -167 -160 0
-1002 -48 -168 -161 0
-1002 -48 -169 -162 0
-1002 59 0
-1002 -59 -167 1314 450 0
-1002 -59 -168 1314 456 0
-1002 -59 -169 1314 462 0
-1002 -167 -474 0
-1002 -167 -498 0
-1002 -167 -522 0
-1002 -167 -480 0
-1002 -167 -504 0
-1002 -167 -528 0
-1002 -167 -486 0
-1002 -167 -510 0
-1002 -167 -534 0
-1002 -168 -480 0
-1002 -168 -504 0
-1002 -168 -528 0
-1002 -168 -486 0
-1002 -168 -510 0
-1002 -168 -534 0
-1002 -169 -486 0
-1002 -169 -510 0
-1002 -169 -534 0
-1002 -170 0
-1002 69 0
-1002 -167 176 0
-1002 -168 177 0
-1002 -169 178 0
-1002 -237 0
-1003 231 0
-1003 -43 -171 -160 0
-1003 -43 -172 -161 0
-1003 -43 -173 -162 0
-1003 60 0
-1003 -60 -171 1315 445 0
-1003 -60 -172 1315 451 0
-1003 -60 -173 1315 457 0
-1003 -171 -469 0
-1003 -171 -493 0
-1003 -171 -517 0
-1003 -171 -475 0
-1003 -171 -499 0
-1003 -171 -523 0
-1003 -171 -481 0
-1003 -171 -505 0
-1003 -171 -529 0
-1003 -172 -475 0
-1003 -172 -499 0
-1003 -172 -523 0
-1003 -172 -481 0
-1003 -172 -505 0
-1003 -172 -529 0
-1003 -173 -481 0
-1003 -173 -505 0
-1003 -173 -529 0
-1003 -174 0
-1003 64 0
-1003 -171 176 0
-1003 -172 177 0
-1003 -173 178 0
-1003 -238 0
-1004 231 0
-1004 -44 -171 -160 0
-1004 -44 -172 -161 0
-1004 -44 -173 -162 0
-1004 60 61 0
-1004 -60 -171 1316 446 0
-1004 -60 -172 1316 452 0
-1004 -60 -173 1316 458 0
-1004 -61 -171 1316 446 0
-1004 -61 -172 1316 452 0
-1004 -61 -173 1316 458 0
-1004 -171 -470 0
-1004 -171 -494 0
-1004 -171 -518 0
-1004 -171 -476 0
-1004 -171 -500 0
-1004 -171 -524 0
-1004 -171 -482 0
-1004 -171 -506 0
-1004 -171 -530 0
-1004 -172 -476 0
-1004 -172 -500 0
-1004 -172 -524 0
-1004 -172 -482 0
-1004 -172 -506 0
-1004 -172 -530 0
-1004 -173 -482 0
-1004 -173 -506 0
-1004 -173 -530 0
-1004 -174 0
-1004 65 0
-1004 -171 176 0
-1004 -172 177 0
-1004 -173 178 0
-1004 -238 0
-1005 231 0
-1005 -45 -171 -160 0
-1005 -45 -172 -161 0
-1005 -45 -173 -162 0
-1005 60 61 62 0
-1005 -60 -171 1317 447 0
-1005 -60 -172 1317 453 0
-1005 -60 -173 1317 459 0
-1005 -61 -171 1317 447 0
-1005 -61 -172 1317 453 0
-1005 -61 -173 1317 459 0
-1005 -62 -171 1317 447 0
-1005 -62 -172 1317 453 0
-1005 -62 -173 1317 459 0
-1005 -171 -471 0
-1005 -171 -495 0
-1005 -171 -519 0
-1005 -171 -477 0
-1005 -171 -501 0
-1005 -171 -525 0
-1005 -171 -483 0
-1005 -171 -507 0
-1005 -171 -531 0
-1005 -172 -477 0
-1005 -172 -501 0
-1005 -172 -525 0
-1005 -172 -483 0
-1005 -172 -507 0
-1005 -172 -531 0
-1005 -173 -483 0
-1005 -173 -507 0
-1005 -173 -531 0
-1005 -174 0
-1005 66 0
-1005 -171 176 0
-1005 -172 177 0
-1005 -173 178 0
-1005 -238 0
-1006 231 0
-1006 -46 -171 -160 0
-1006 -46 -172 -161 0
-1006 -46 -173 -162 0
-1006 61 62 63 0
-1006 -61 -171 1318 448 0
-1006 -61 -172 1318 454 0
-1006 -61 -173 1318 460 0
-1006 -62 -171 1318 448 0
-1006 -62 -172 1318 454 0
-1006 -62 -173 1318 460 0
-1006 -63 -171 1318 448 0
-1006 -63 -172 1318 454 0
-1006 -63 -173 1318 460 0
-1006 -171 -472 0
-1006 -171 -496 0
-1006 -171 -520 0
-1006 -171 -478 0
-1006 -171 -502 0
-1006 -171 -526 0
-1006 -171 -484 0
-1006 -171 -508 0
-1006 -171 -532 0
-1006 -172 -478 0
-1006 -172 -502 0
-1006 -172 -526 0
-1006 -172 -484 0
-1006 -172 -508 0
-1006 -172 -532 0
-1006 -173 -484 0
-1006 -173 -508 0
-1006 -173 -532 0
-1006 -174 0
-1006 67 0
-1006 -171 176 0
-1006 -172 177 0
-1006 -173 178 0
-1006 -238 0
-1007 231 0
-1007 -47 -171 -160 0
-1007 -47 -172 -161 0
-1007 -47 -173 -162 0
-1007 62 63 0
-1007 -62 -171 1319 449 0
-1007 -62 -172 1319 455 0
-1007 -62 -173 1319 461 0
-1007 -63 -171 1319 449 0
-1007 -63 -172 1319 455 0
-1007 -63 -173 1319 461 0
-1007 -171 -473 0
-1007 -171 -497 0
-1007 -171 -521 0
-1007 -171 -479 0
-1007 -171 -503 0
-1007 -171 -527 0
-1007 -171 -485 0
-1007 -171 -509 0
-1007 -171 -533 0
-1007 -172 -479 0
-1007 -172 -503 0
-1007 -172 -527 0
-1007 -172 -485 0
-1007 -172 -509 0
-1007 -172 -533 0
-1007 -173 -485 0
-1007 -173 -509 0
-1007 -173 -533 0
-1007 -174 0
-1007 68 0
-1007 -171 176 0
-1007 -172 177 0
-1007 -173 178 0
-1007 -238 0
-1008 231 0
-1008 -48 -171 -160 0
-1008 -48 -172 -161 0
-1008 -48 -173 -162 0
-1008 63 0
-1008 -63 -171 1320 450 0
-1008 -63 -172 1320 456 0
-1008 -63 -173 1320 462 0
-1008 -171 -474 0
-1008 -171 -498 0
-1008 -171 -522 0
-1008 -171 -480 0
-1008 -171 -504 0
-1008 -171 -528 0
-1008 -171 -486 0
-1008 -171 -510 0
-1008 -171 -534 0
-1008 -172 -480 0
-1008 -172 -504 0
-1008 -172 -528 0
-1008 -172 -486 0
-1008 -172 -510 0
-1008 -172 -534 0
-1008 -173 -486 0
-1008 -173 -510 0
-1008 -173 -534 0
-1008 -174 0
-1008 69 0
-1008 -171 176 0
-1008 -172 177 0
-1008 -173 178 0
-1008 -238 0
-1009 231 0
-1009 -43 -159 0
-1009 -463 0
-1009 -487 0
-1009 -511 0
-1009 -469 0
-1009 -493 0
-1009 -517 0
-1009 -475 0
-1009 -499 0
-1009 -523 0
-1009 -481 0
-1009 -505 0
-1009 -529 0
-1009 64 0
-1009 175 0
-1010 231 0
-1010 -44 -159 0
-1010 -464 0
-1010 -488 0
-1010 -512 0
-1010 -470 0
-1010 -494 0
-1010 -518 0
-1010 -476 0
-1010 -500 0
-1010 -524 0
-1010 -482 0
-1010 -506 0
-1010 -530 0
-1010 65 0
-1010 175 0
-1011 231 0
-1011 -45 -159 0
-1011 -465 0
-1011 -489 0
-1011 -513 0
-1011 -471 0
-1011 -495 0
-1011 -519 0
-1011 -477 0
-1011 -501 0
-1011 -525 0
-1011 -483 0
-1011 -507 0
-1011 -531 0
-1011 66 0
-1011 175 0
-1012 231 0
-1012 -46 -159 0
-1012 -466 0
-1012 -490 0
-1012 -514 0
-1012 -472 0
-1012 -496 0
-1012 -520 0
-1012 -478 0
-1012 -502 0
-1012 -526 0
-1012 -484 0
-1012 -508 0
-1012 -532 0
-1012 67 0
-1012 175 0
-1013 231 0
-1013 -47 -159 0
-1013 -467 0
-1013 -491 0
-1013 -515 0
-1013 -473 0
-1013 -497 0
-1013 -521 0
-1013 -479 0
-1013 -503 0
-1013 -527 0
-1013 -485 0
-1013 -509 0
-1013 -533 0
-1013 68 0
-1013 175 0
-1014 231 0
-1014 -48 -159 0
-1014 -468 0
-1014 -492 0
-1014 -516 0
-1014 -474 0
-1014 -498 0
-1014 -522 0
-1014 -480 0
-1014 -504 0
-1014 -528 0
-1014 -486 0
-1014 -510 0
-1014 -534 0
-1014 69 0
-1014 175 0
-1015 232 0
-1015 -49 -159 -164 0
-1015 -49 -160 -165 0
-1015 -49 -161 -166 0
-1015 43 0
-1015 -43 -159 1297 469 0
-1015 -43 -160 1297 475 0
-1015 -43 -161 1297 481 0
-1015 -159 -445 0
-1015 -159 -493 0
-1015 -159 -517 0
-1015 -159 -451 0
-1015 -159 -499 0
-1015 -159 -523 0
-1015 -159 -457 0
-1015 -159 -505 0
-1015 -159 -529 0
-1015 -160 -451 0
-1015 -160 -499 0
-1015 -160 -523 0
-1015 -160 -457 0
-1015 -160 -505 0
-1015 -160 -529 0
-1015 -161 -457 0
-1015 -161 -505 0
-1015 -161 -529 0
-1015 -162 0
-1015 70 0
-1015 -159 180 0
-1015 -160 181 0
-1015 -161 182 0
-1015 -235 0
-1016 232 0
-1016 -50 -159 -164 0
-1016 -50 -160 -165 0
-1016 -50 -161 -166 0
-1016 44 0
-1016 -44 -159 1298 470 0
-1016 -44 -160 1298 476 0
-1016 -44 -161 1298 482 0
-1016 -159 -446 0
-1016 -159 -494 0
-1016 -159 -518 0
-1016 -159 -452 0
-1016 -159 -500 0
-1016 -159 -524 0
-1016 -159 -458 0
-1016 -159 -506 0
-1016 -159 -530 0
-1016 -160 -452 0
-1016 -160 -500 0
-1016 -160 -524 0
-1016 -160 -458 0
-1016 -160 -506 0
-1016 -160 -530 0
-1016 -161 -458 0
-1016 -161 -506 0
-1016 -161 -530 0
-1016 -162 0
-1016 71 0
-1016 -159 180 0
-1016 -160 181 0
-1016 -161 182 0
-1016 -235 0
-1017 232 0
-1017 -51 -159 -164 0
-1017 -51 -160 -165 0
-1017 -51 -161 -166 0
-1017 45 0
-1017 -45 -159 1299 471 0
-1017 -45 -160 1299 477 0
-1017 -45 -161 1299 483 0
-1017 -159 -447 0
-1017 -159 -495 0
-1017 -159 -519 0
-1017 -159 -453 0
-1017 -159 -501 0
-1017 -159 -525 0
-1017 -159 -459 0
-1017 -159 -507 0
-1017 -159 -531 0
-1017 -160 -453 0
-1017 -160 -501 0
-1017 -160 -525 0
-1017 -160 -459 0
-1017 -160 -507 0
-1017 -160 -531 0
-1017 -161 -459 0
-1017 -161 -507 0
-1017 -161 -531 0
-1017 -162 0
-1017 72 0
-1017 -159 180 0
-1017 -160 181 0
-1017 -161 182 0
-1017 -235 0
-1018 232 0
-1018 -52 -159 -164 0
-1018 -52 -160 -165 0
-1018 -52 -161 -166 0
-1018 46 0
-1018 -46 -159 1300 472 0
-1018 -46 -160 1300 478 0
-1018 -46 -161 1300 484 0
-1018 -159 -448 0
-1018 -159 -496 0
-1018 -159 -520 0
-1018 -159 -454 0
-1018 -159 -502 0
-1018 -159 -526 0
-1018 -159 -460 0
-1018 -159 -508 0
-1018 -159 -532 0
-1018 -160 -454 0
-1018 -160 -502 0
-1018 -160 -526 0
-1018 -160 -460 0
-1018 -160 -508 0
-1018 -160 -532 0
-1018 -161 -460 0
-1018 -161 -508 0
-1018 -161 -532 0
-1018 -162 0
-1018 73 0
-1018 -159 180 0
-1018 -160 181 0
-1018 -161 182 0
-1018 -235 0
-1019 232 0
-1019 -53 -159 -164 0
-1019 -53 -160 -165 0
-1019 -53 -161 -166 0
-1019 47 0
-1019 -47 -159 1301 473 0
-1019 -47 -160 1301 479 0
-1019 -47 -161 1301 485 0
-1019 -159 -449 0
-1019 -159 -497 0
-1019 -159 -521 0
-1019 -159 -455 0
-1019 -159 -503 0
-1019 -159 -527 0
-1019 -159 -461 0
-1019 -159 -509 0
-1019 -159 -533 0
-1019 -160 -455 0
-1019 -160 -503 0
-1019 -160 -527 0
-1019 -160 -461 0
-1019 -160 -509 0
-1019 -160 -533 0
-1019 -161 -461 0
-1019 -161 -509 0
-1019 -161 -533 0
-1019 -162 0
-1019 74 0
-1019 -159 180 0
-1019 -160 181 0
-1019 -161 182 0
-1019 -235 0
-1020 232 0
-1020 -54 -159 -164 0
-1020 -54 -160 -165 0
-1020 -54 -161 -166 0
-1020 48 0
-1020 -48 -159 1302 474 0
-1020 -48 -160 1302 480 0
-1020 -48 -161 1302 486 0
-1020 -159 -450 0
-1020 -159 -498 0
-1020 -159 -522 0
-1020 -159 -456 0
-1020 -159 -504 0
-1020 -159 -528 0
-1020 -159 -462 0
-1020 -159 -510 0
-1020 -159 -534 0
-1020 -160 -456 0
-1020 -160 -504 0
-1020 -160 -528 0
-1020 -160 -462 0
-1020 -160 -510 0
-1020 -160 -534 0
-1020 -161 -462 0
-1020 -161 -510 0
-1020 -161 -534 0
-1020 -162 0
-1020 75 0
-1020 -159 180 0
-1020 -160 181 0
-1020 -161 182 0
-1020 -235 0
-1021 232 0
-1021 -49 -167 -164 0
-1021 -49 -168 -165 0
-1021 -49 -169 -166 0
-1021 55 0
-1021 -55 -167 1309 469 0
-1021 -55 -168 1309 475 0
-1021 -55 -169 1309 481 0
-1021 -167 -445 0
-1021 -167 -493 0
-1021 -167 -517 0
-1021 -167 -451 0
-1021 -167 -499 0
-1021 -167 -523 0
-1021 -167 -457 0
-1021 -167 -505 0
-1021 -167 -529 0
-1021 -168 -451 0
-1021 -168 -499 0
-1021 -168 -523 0
-1021 -168 -457 0
-1021 -168 -505 0
-1021 -168 -529 0
-1021 -169 -457 0
-1021 -169 -505 0
-1021 -169 -529 0
-1021 -170 0
-1021 70 0
-1021 -167 180 0
-1021 -168 181 0
-1021 -169 182 0
-1021 -237 0
-1022 232 0
-1022 -50 -167 -164 0
-1022 -50 -168 -165 0
-1022 -50 -169 -166 0
-1022 55 56 0
-1022 -55 -167 1310 470 0
-1022 -55 -168 1310 476 0
-1022 -55 -169 1310 482 0
-1022 -56 -167 1310 470 0
-1022 -56 -168 1310 476 0
-1022 -56 -169 1310 482 0
-1022 -167 -446 0
-1022 -167 -494 0
-1022 -167 -518 0
-1022 -167 -452 0
-1022 -167 -500 0
-1022 -167 -524 0
-1022 -167 -458 0
-1022 -167 -506 0
-1022 -167 -530 0
-1022 -168 -452 0
-1022 -168 -500 0
-1022 -168 -524 0
-1022 -168 -458 0
-1022 -168 -506 0
-1022 -168 -530 0
-1022 -169 -458 0
-1022 -169 -506 0
-1022 -169 -530 0
-1022 -170 0
-1022 71 0
-1022 -167 180 0
-1022 -168 181 0
-1022 -169 182 0
-1022 -237 0
-1023 232 0
-1023 -51 -167 -164 0
-1023 -51 -168 -165 0
-1023 -51 -169 -166 0
-1023 56 57 0
-1023 -56 -167 1311 471 0
-1023 -56 -168 1311 477 0
-1023 -56 -169 1311 483 0
-1023 -57 -167 1311 471 0
-1023 -57 -168 1311 477 0
-1023 -57 -169 1311 483 0
-1023 -167 -447 0
-1023 -167 -495 0
-1023 -167 -519 0
-1023 -167 -453 0
-1023 -167 -501 0
-1023 -167 -525 0
-1023 -167 -459 0
-1023 -167 -507 0
-1023 -167 -531 0
-1023 -168 -453 0
-1023 -168 -501 0
-1023 -168 -525 0
-1023 -168 -459 0
-1023 -168 -507 0
-1023 -168 -531 0
-1023 -169 -459 0
-1023 -169 -507 0
-1023 -169 -531 0
-1023 -170 0
-1023 72 0
-1023 -167 180 0
-1023 -168 181 0
-1023 -169 182 0
-1023 -237 0
-1024 232 0
-1024 -52 -167 -164 0
-1024 -52 -168 -165 0
-1024 -52 -169 -166 0
-1024 57 58 0
-1024 -57 -167 1312 472 0
-1024 -57 -168 1312 478 0
-1024 -57 -169 1312 484 0
-1024 -58 -167 1312 472 0
-1024 -58 -168 1312 478 0
-1024 -58 -169 1312 484 0
-1024 -167 -448 0
-1024 -167 -496 0
-1024 -167 -520 0
-1024 -167 -454 0
-1024 -167 -502 0
-1024 -167 -526 0
-1024 -167 -460 0
-1024 -167 -508 0
-1024 -167 -532 0
-1024 -168 -454 0
-1024 -168 -502 0
-1024 -168 -526 0
-1024 -168 -460 0
-1024 -168 -508 0
-1024 -168 -532 0
-1024 -169 -460 0
-1024 -169 -508 0
-1024 -169 -532 0
-1024 -170 0
-1024 73 0
-1024 -167 180 0
-1024 -168 181 0
-1024 -169 182 0
-1024 -237 0
-1025 232 0
-1025 -53 -167 -164 0
-1025 -53 -168 -165 0
-1025 -53 -169 -166 0
-1025 58 59 0
-1025 -58 -167 1313 473 0
-1025 -58 -168 1313 479 0
-1025 -58 -169 1313 485 0
-1025 -59 -167 1313 473 0
-1025 -59 -168 1313 479 0
-1025 -59 -169 1313 485 0
-1025 -167 -449 0
-1025 -167 -497 0
-1025 -167 -521 0
-1025 -167 -455 0
-1025 -167 -503 0
-1025 -167 -527 0
-1025 -167 -461 0
-1025 -167 -509 0
-1025 -167 -533 0
-1025 -168 -455 0
-1025 -168 -503 0
-1025 -168 -527 0
-1025 -168 -461 0
-1025 -168 -509 0
-1025 -168 -533 0
-1025 -169 -461 0
-1025 -169 -509 0
-1025 -169 -533 0
-1025 -170 0
-1025 74 0
-1025 -167 180 0
-1025 -168 181 0
-1025 -169 182 0
-1025 -237 0
-1026 232 0
-1026 -54 -167 -164 0
-1026 -54 -168 -165 0
-1026 -54 -169 -166 0
-1026 59 0
-1026 -59 -167 1314 474 0
-1026 -59 -168 1314 480 0
-1026 -59 -169 1314 486 0
-1026 -167 -450 0
-1026 -167 -498 0
-1026 -167 -522 0
-1026 -167 -456 0
-1026 -167 -504 0
-1026 -167 -528 0
-1026 -167 -462 0
-1026 -167 -510 0
-1026 -167 -534 0
-1026 -168 -456 0
-1026 -168 -504 0
-1026 -168 -528 0
-1026 -168 -462 0
-1026 -168 -510 0
-1026 -168 -534 0
-1026 -169 -462 0
-1026 -169 -510 0
-1026 -169 -534 0
-1026 -170 0
-1026 75 0
-1026 -167 180 0
-1026 -168 181 0
-1026 -169 182 0
-1026 -237 0
-1027 232 0
-1027 -49 -171 -164 0
-1027 -49 -172 -165 0
-1027 -49 -173 -166 0
-1027 60 0
-1027 -60 -171 1315 469 0
-1027 -60 -172 1315 475 0
-1027 -60 -173 1315 481 0
-1027 -171 -445 0
-1027 -171 -493 0
-1027 -171 -517 0
-1027 -171 -451 0
-1027 -171 -499 0
-1027 -171 -523 0
-1027 -171 -457 0
-1027 -171 -505 0
-1027 -171 -529 0
-1027 -172 -451 0
-1027 -172 -499 0
-1027 -172 -523 0
-1027 -172 -457 0
-1027 -172 -505 0
-1027 -172 -529 0
-1027 -173 -457 0
-1027 -173 -505 0
-1027 -173 -529 0
-1027 -174 0
-1027 70 0
-1027 -171 180 0
-1027 -172 181 0
-1027 -173 182 0
-1027 -238 0
-1028 232 0
-1028 -50 -171 -164 0
-1028 -50 -172 -165 0
-1028 -50 -173 -166 0
-1028 60 61 0
-1028 -60 -171 1316 470 0
-1028 -60 -172 1316 476 0
-1028 -60 -173 1316 482 0
-1028 -61 -171 1316 470 0
-1028 -61 -172 1316 476 0
-1028 -61 -173 1316 482 0
-1028 -171 -446 0
-1028 -171 -494 0
-1028 -171 -518 0
-1028 -171 -452 0
-1028 -171 -500 0
-1028 -171 -524 0
-1028 -171 -458 0
-1028 -171 -506 0
-1028 -171 -530 0
-1028 -172 -452 0
-1028 -172 -500 0
-1028 -172 -524 0
-1028 -172 -458 0
-1028 -172 -506 0
-1028 -172 -530 0
-1028 -173 -458 0
-1028 -173 -506 0
-1028 -173 -530 0
-1028 -174 0
-1028 71 0
-1028 -171 180 0
-1028 -172 181 0
-1028 -173 182 0
-1028 -238 0
-1029 232 0
-1029 -51 -171 -164 0
-1029 -51 -172 -165 0
-1029 -51 -173 -166 0
-1029 60 61 62 0
-1029 -60 -171 1317 471 0
-1029 -60 -172 1317 477 0
-1029 -60 -173 1317 483 0
-1029 -61 -171 1317 471 0
-1029 -61 -172 1317 477 0
-1029 -61 -173 1317 483 0
-1029 -62 -171 1317 471 0
-1029 -62 -172 1317 477 0
-1029 -62 -173 1317 483 0
-1029 -171 -447 0
-1029 -171 -495 0
-1029 -171 -519 0
-1029 -171 -453 0
-1029 -171 -501 0
-1029 -171 -525 0
-1029 -171 -459 0
-1029 -171 -507 0
-1029 -171 -531 0
-1029 -172 -453 0
-1029 -172 -501 0
-1029 -172 -525 0
-1029 -172 -459 0
-1029 -172 -507 0
-1029 -172 -531 0
-1029 -173 -459 0
-1029 -173 -507 0
-1029 -173 -531 0
-1029 -174 0
-1029 72 0
-1029 -171 180 0
-1029 -172 181 0
-1029 -173 182 0
-1029 -238 0
-1030 232 0
-1030 -52 -171 -164 0
-1030 -52 -172 -165 0
-1030 -52 -173 -166 0
-1030 61 62 63 0
-1030 -61 -171 1318 472 0
-1030 -61 -172 1318 478 0
-1030 -61 -173 1318 484 0
-1030 -62 -171 1318 472 0
-1030 -62 -172 1318 478 0
-1030 -62 -173 1318 484 0
-1030 -63 -171 1318 472 0
-1030 -63 -172 1318 478 0
-1030 -63 -173 1318 484 0
-1030 -171 -448 0
-1030 -171 -496 0
-1030 -171 -520 0
-1030 -171 -454 0
-1030 -171 -502 0
-1030 -171 -526 0
-1030 -171 -460 0
-1030 -171 -508 0
-1030 -171 -532 0
-1030 -172 -454 0
-1030 -172 -502 0
-1030 -172 -526 0
-1030 -172 -460 0
-1030 -172 -508 0
-1030 -172 -532 0
-1030 -173 -460 0
-1030 -173 -508 0
-1030 -173 -532 0
-1030 -174 0
-1030 73 0
-1030 -171 180 0
-1030 -172 181 0
-1030 -173 182 0
-1030 -238 0
-1031 232 0
-1031 -53 -171 -164 0
-1031 -53 -172 -165 0
-1031 -53 -173 -166 0
-1031 62 63 0
-1031 -62 -171 1319 473 0
-1031 -62 -172 1319 479 0
-1031 -62 -173 1319 485 0
-1031 -63 -171 1319 473 0
-1031 -63 -172 1319 479 0
-1031 -63 -173 1319 485 0
-1031 -171 -449 0
-1031 -171 -497 0
-1031 -171 -521 0
-1031 -171 -455 0
-1031 -171 -503 0
-1031 -171 -527 0
-1031 -171 -461 0
-1031 -171 -509 0
-1031 -171 -533 0
-1031 -172 -455 0
-1031 -172 -503 0
-1031 -172 -527 0
-1031 -172 -461 0
-1031 -172 -509 0
-1031 -172 -533 0
-1031 -173 -461 0
-1031 -173 -509 0
-1031 -173 -533 0
-1031 -174 0
-1031 74 0
-1031 -171 180 0
-1031 -172 181 0
-1031 -173 182 0
-1031 -238 0
-1032 232 0
-1032 -54 -171 -164 0
-1032 -54 -172 -165 0
-1032 -54 -173 -166 0
-1032 63 0
-1032 -63 -171 1320 474 0
-1032 -63 -172 1320 480 0
-1032 -63 -173 1320 486 0
-1032 -171 -450 0
-1032 -171 -498 0
-1032 -171 -522 0
-1032 -171 -456 0
-1032 -171 -504 0
-1032 -171 -528 0
-1032 -171 -462 0
-1032 -171 -510 0
-1032 -171 -534 0
-1032 -172 -456 0
-1032 -172 -504 0
-1032 -172 -528 0
-1032 -172 -462 0
-1032 -172 -510 0
-1032 -172 -534 0
-1032 -173 -462 0
-1032 -173 -510 0
-1032 -173 -534 0
-1032 -174 0
-1032 75 0
-1032 -171 180 0
-1032 -172 181 0
-1032 -173 182 0
-1032 -238 0
-1033 232 0
-1033 -49 -163 0
-1033 -439 0
-1033 -487 0
-1033 -511 0
-1033 -445 0
-1033 -493 0
-1033 -517 0
-1033 -451 0
-1033 -499 0
-1033 -523 0
-1033 -457 0
-1033 -505 0
-1033 -529 0
-1033 70 0
-1033 179 0
-1034 232 0
-1034 -50 -163 0
-1034 -440 0
-1034 -488 0
-1034 -512 0
-1034 -446 0
-1034 -494 0
-1034 -518 0
-1034 -452 0
-1034 -500 0
-1034 -524 0
-1034 -458 0
-1034 -506 0
-1034 -530 0
-1034 71 0
-1034 179 0
-1035 232 0
-1035 -51 -163 0
-1035 -441 0
-1035 -489 0
-1035 -513 0
-1035 -447 0
-1035 -495 0
-1035 -519 0
-1035 -453 0
-1035 -501 0
-1035 -525 0
-1035 -459 0
-1035 -507 0
-1035 -531 0
-1035 72 0
-1035 179 0
-1036 232 0
-1036 -52 -163 0
-1036 -442 0
-1036 -490 0
-1036 -514 0
-1036 -448 0
-1036 -496 0
-1036 -520 0
-1036 -454 0
-1036 -502 0
-1036 -526 0
-1036 -460 0
-1036 -508 0
-1036 -532 0
-1036 73 0
-1036 179 0
-1037 232 0
-1037 -53 -163 0
-1037 -443 0
-1037 -491 0
-1037 -515 0
-1037 -449 0
-1037 -497 0
-1037 -521 0
-1037 -455 0
-1037 -503 0
-1037 -527 0
-1037 -461 0
-1037 -509 0
-1037 -533 0
-1037 74 0
-1037 179 0
-1038 232 0
-1038 -54 -163 0
-1038 -444 0
-1038 -492 0
-1038 -516 0
-1038 -450 0
-1038 -498 0
-1038 -522 0
-1038 -456 0
-1038 -504 0
-1038 -528 0
-1038 -462 0
-1038 -510 0
-1038 -534 0
-1038 75 0
-1038 179 0
-1039 233 0
-1039 -55 -159 -168 0
-1039 -55 -160 -169 0
-1039 -55 -161 -170 0
-1039 43 44 0
-1039 -43 -159 1297 493 0
-1039 -43 -160 1297 499 0
-1039 -43 -161 1297 505 0
-1039 -44 -159 1298 494 0
-1039 -44 -160 1298 500 0
-1039 -44 -161 1298 506 0
-1039 -159 -445 0
-1039 -159 -469 0
-1039 -159 -517 0
-1039 -159 -451 0
-1039 -159 -475 0
-1039 -159 -523 0
-1039 -159 -457 0
-1039 -159 -481 0
-1039 -159 -529 0
-1039 -159 -446 0
-1039 -159 -470 0
-1039 -159 -518 0
-1039 -159 -452 0
-1039 -159 -476 0
-1039 -159 -524 0
-1039 -159 -458 0
-1039 -159 -482 0
-1039 -159 -530 0
-1039 -160 -451 0
-1039 -160 -475 0
-1039 -160 -523 0
-1039 -160 -457 0
-1039 -160 -481 0
-1039 -160 -529 0
-1039 -160 -452 0
-1039 -160 -476 0
-1039 -160 -524 0
-1039 -160 -458 0
-1039 -160 -482 0
-1039 -160 -530 0
-1039 -161 -457 0
-1039 -161 -481 0
-1039 -161 -529 0
-1039 -161 -458 0
-1039 -161 -482 0
-1039 -161 -530 0
-1039 -162 0
-1039 76 0
-1039 -159 184 0
-1039 -160 185 0
-1039 -161 186 0
-1039 -235 0
-1040 233 0
-1040 -56 -159 -168 0
-1040 -56 -160 -169 0
-1040 -56 -161 -170 0
-1040 44 45 0
-1040 -44 -159 1298 494 0
-1040 -44 -160 1298 500 0
-1040 -44 -161 1298 506 0
-1040 -45 -159 1299 495 0
-1040 -45 -160 1299 501 0
-1040 -45 -161 1299 507 0
-1040 -159 -446 0
-1040 -159 -470 0
-1040 -159 -518 0
-1040 -159 -452 0
-1040 -159 -476 0
-1040 -159 -524 0
-1040 -159 -458 0
-1040 -159 -482 0
-1040 -159 -530 0
-1040 -159 -447 0
-1040 -159 -471 0
-1040 -159 -519 0
-1040 -159 -453 0
-1040 -159 -477 0
-1040 -159 -525 0
-1040 -159 -459 0
-1040 -159 -483 0
-1040 -159 -531 0
-1040 -160 -452 0
-1040 -160 -476 0
-1040 -160 -524 0
-1040 -160 -458 0
-1040 -160 -482 0
-1040 -160 -530 0
-1040 -160 -453 0
-1040 -160 -477 0
-1040 -160 -525 0
-1040 -160 -459 0
-1040 -160 -483 0
-1040 -160 -531 0
-1040 -161 -458 0
-1040 -161 -482 0
-1040 -161 -530 0
-1040 -161 -459 0
-1040 -161 -483 0
-1040 -161 -531 0
-1040 -162 0
-1040 77 0
-1040 -159 184 0
-1040 -160 185 0
-1040 -161 186 0
-1040 -235 0
-1041 233 0
-1041 -57 -159 -168 0
-1041 -57 -160 -169 0
-1041 -57 -161 -170 0
-1041 45 46 0
-1041 -45 -159 1299 495 0
-1041 -45 -160 1299 501 0
-1041 -45 -161 1299 507 0
-1041 -46 -159 1300 496 0
-1041 -46 -160 1300 502 0
-1041 -46 -161 1300 508 0
-1041 -159 -447 0
-1041 -159 -471 0
-1041 -159 -519 0
-1041 -159 -453 0
-1041 -159 -477 0
-1041 -159 -525 0
-1041 -159 -459 0
-1041 -159 -483 0
-1041 -159 -531 0
-1041 -159 -448 0
-1041 -159 -472 0
-1041 -159 -520 0
-1041 -159 -454 0
-1041 -159 -478 0
-1041 -159 -526 0
-1041 -159 -460 0
-1041 -159 -484 0
-1041 -159 -532 0
-1041 -160 -453 0
-1041 -160 -477 0
-1041 -160 -525 0
-1041 -160 -459 0
-1041 -160 -483 0
-1041 -160 -531 0
-1041 -160 -454 0
-1041 -160 -478 0
-1041 -160 -526 0
-1041 -160 -460 0
-1041 -160 -484 0
-1041 -160 -532 0
-1041 -161 -459 0
-1041 -161 -483 0
-1041 -161 -531 0
-1041 -161 -460 0
-1041 -161 -484 0
-1041 -161 -532 0
-1041 -162 0
-1041 78 0
-1041 -159 184 0
-1041 -160 185 0
-1041 -161 186 0
-1041 -235 0
-1042 233 0
-1042 -58 -159 -168 0
-1042 -58 -160 -169 0
-1042 -58 -161 -170 0
-1042 46 47 0
-1042 -46 -159 1300 496 0
-1042 -46 -160 1300 502 0
-1042 -46 -161 1300 508 0
-1042 -47 -159 1301 497 0
-1042 -47 -160 1301 503 0
-1042 -47 -161 1301 509 0
-1042 -159 -448 0
-1042 -159 -472 0
-1042 -159 -520 0
-1042 -159 -454 0
-1042 -159 -478 0
-1042 -159 -526 0
-1042 -159 -460 0
-1042 -159 -484 0
-1042 -159 -532 0
-1042 -159 -449 0
-1042 -159 -473 0
-1042 -159 -521 0
-1042 -159 -455 0
-1042 -159 -479 0
-1042 -159 -527 0
-1042 -159 -461 0
-1042 -159 -485 0
-1042 -159 -533 0
-1042 -160 -454 0
-1042 -160 -478 0
-1042 -160 -526 0
-1042 -160 -460 0
-1042 -160 -484 0
-1042 -160 -532 0
-1042 -160 -455 0
-1042 -160 -479 0
-1042 -160 -527 0
-1042 -160 -461 0
-1042 -160 -485 0
-1042 -160 -533 0
-1042 -161 -460 0
-1042 -161 -484 0
-1042 -161 -532 0
-1042 -161 -461 0
-1042 -161 -485 0
-1042 -161 -533 0
-1042 -162 0
-1042 79 0
-1042 -159 184 0
-1042 -160 185 0
-1042 -161 186 0
-1042 -235 0
-1043 233 0
-1043 -59 -159 -168 0
-1043 -59 -160 -169 0
-1043 -59 -161 -170 0
-1043 47 48 0
-1043 -47 -159 1301 497 0
-1043 -47 -160 1301 503 0
-1043 -47 -161 1301 509 0
-1043 -48 -159 1302 498 0
-1043 -48 -160 1302 504 0
-1043 -48 -161 1302 510 0
-1043 -159 -449 0
-1043 -159 -473 0
-1043 -159 -521 0
-1043 -159 -455 0
-1043 -159 -479 0
-1043 -159 -527 0
-1043 -159 -461 0
-1043 -159 -485 0
-1043 -159 -533 0
-1043 -159 -450 0
-1043 -159 -474 0
-1043 -159 -522 0
-1043 -159 -456 0
-1043 -159 -480 0
-1043 -159 -528 0
-1043 -159 -462 0
-1043 -159 -486 0
-1043 -159 -534 0
-1043 -160 -455 0
-1043 -160 -479 0
-1043 -160 -527 0
-1043 -160 -461 0
-1043 -160 -485 0
-1043 -160 -533 0
-1043 -160 -456 0
-1043 -160 -480 0
-1043 -160 -528 0
-1043 -160 -462 0
-1043 -160 -486 0
-1043 -160 -534 0
-1043 -161 -461 0
-1043 -161 -485 0
-1043 -161 -533 0
-1043 -161 -462 0
-1043 -161 -486 0
-1043 -161 -534 0
-1043 -162 0
-1043 80 0
-1043 -159 184 0
-1043 -160 185 0
-1043 -161 186 0
-1043 -235 0
-1044 233 0
-1044 -55 -163 -168 0
-1044 -55 -164 -169 0
-1044 -55 -165 -170 0
-1044 49 50 0
-1044 -49 -163 1303 493 0
-1044 -49 -164 1303 499 0
-1044 -49 -165 1303 505 0
-1044 -50 -163 1304 494 0
-1044 -50 -164 1304 500 0
-1044 -50 -165 1304 506 0
-1044 -163 -445 0
-1044 -163 -469 0
-1044 -163 -517 0
-1044 -163 -451 0
-1044 -163 -475 0
-1044 -163 -523 0
-1044 -163 -457 0
-1044 -163 -481 0
-1044 -163 -529 0
-1044 -163 -446 0
-1044 -163 -470 0
-1044 -163 -518 0
-1044 -163 -452 0
-1044 -163 -476 0
-1044 -163 -524 0
-1044 -163 -458 0
-1044 -163 -482 0
-1044 -163 -530 0
-1044 -164 -451 0
-1044 -164 -475 0
-1044 -164 -523 0
-1044 -164 -457 0
-1044 -164 -481 0
-1044 -164 -529 0
-1044 -164 -452 0
-1044 -164 -476 0
-1044 -164 -524 0
-1044 -164 -458 0
-1044 -164 -482 0
-1044 -164 -530 0
-1044 -165 -457 0
-1044 -165 -481 0
-1044 -165 -529 0
-1044 -165 -458 0
-1044 -165 -482 0
-1044 -165 -530 0
-1044 -166 0
-1044 76 0
-1044 -163 184 0
-1044 -164 185 0
-1044 -165 186 0
-1044 -236 0
-1045 233 0
-1045 -56 -163 -168 0
-1045 -56 -164 -169 0
-1045 -56 -165 -170 0
-1045 50 51 0
-1045 -50 -163 1304 494 0
-1045 -50 -164 1304 500 0
-1045 -50 -165 1304 506 0
-1045 -51 -163 1305 495 0
-1045 -51 -164 1305 501 0
-1045 -51 -165 1305 507 0
-1045 -163 -446 0
-1045 -163 -470 0
-1045 -163 -518 0
-1045 -163 -452 0
-1045 -163 -476 0
-1045 -163 -524 0
-1045 -163 -458 0
-1045 -163 -482 0
-1045 -163 -530 0
-1045 -163 -447 0
-1045 -163 -471 0
-1045 -163 -519 0
-1045 -163 -453 0
-1045 -163 -477 0
-1045 -163 -525 0
-1045 -163 -459 0
-1045 -163 -483 0
-1045 -163 -531 0
-1045 -164 -452 0
-1045 -164 -476 0
-1045 -164 -524 0
-1045 -164 -458 0
-1045 -164 -482 0
-1045 -164 -530 0
-1045 -164 -453 0
-1045 -164 -477 0
-1045 -164 -525 0
-1045 -164 -459 0
-1045 -164 -483 0
-1045 -164 -531 0
-1045 -165 -458 0
-1045 -165 -482 0
-1045 -165 -530 0
-1045 -165 -459 0
-1045 -165 -483 0
-1045 -165 -531 0
-1045 -166 0
-1045 77 0
-1045 -163 184 0
-1045 -164 185 0
-1045 -165 186 0
-1045 -236 0
-1046 233 0
-1046 -57 -163 -168 0
-1046 -57 -164 -169 0
-1046 -57 -165 -170 0
-1046 51 52 0
-1046 -51 -163 1305 495 0
-1046 -51 -164 1305 501 0
-1046 -51 -165 1305 507 0
-1046 -52 -163 1306 496 0
-1046 -52 -164 1306 502 0
-1046 -52 -165 1306 508 0
-1046 -163 -447 0
-1046 -163 -471 0
-1046 -163 -519 0
-1046 -163 -453 0
-1046 -163 -477 0
-1046 -163 -525 0
-1046 -163 -459 0
-1046 -163 -483 0
-1046 -163 -531 0
-1046 -163 -448 0
-1046 -163 -472 0
-1046 -163 -520 0
-1046 -163 -454 0
-1046 -163 -478 0
-1046 -163 -526 0
-1046 -163 -460 0
-1046 -163 -484 0
-1046 -163 -532 0
-1046 -164 -453 0
-1046 -164 -477 0
-1046 -164 -525 0
-1046 -164 -459 0
-1046 -164 -483 0
-1046 -164 -531 0
-1046 -164 -454 0
-1046 -164 -478 0
-1046 -164 -526 0
-1046 -164 -460 0
-1046 -164 -484 0
-1046 -164 -532 0
-1046 -165 -459 0
-1046 -165 -483 0
-1046 -165 -531 0
-1046 -165 -460 0
-1046 -165 -484 0
-1046 -165 -532 0
-1046 -166 0
-1046 78 0
-1046 -163 184 0
-1046 -164 185 0
-1046 -165 186 0
-1046 -236 0
-1047 233 0
-1047 -58 -163 -168 0
-1047 -58 -164 -169 0
-1047 -58 -165 -170 0
-1047 52 53 0
-1047 -52 -163 1306 496 0
-1047 -52 -164 1306 502 0
-1047 -52 -165 1306 508 0
-1047 -53 -163 1307 497 0
-1047 -53 -164 1307 503 0
-1047 -53 -165 1307 509 0
-1047 -163 -448 0
-1047 -163 -472 0
-1047 -163 -520 0
-1047 -163 -454 0
-1047 -163 -478 0
-1047 -163 -526 0
-1047 -163 -460 0
-1047 -163 -484 0
-1047 -163 -532 0
-1047 -163 -449 0
-1047 -163 -473 0
-1047 -163 -521 0
-1047 -163 -455 0
-1047 -163 -479 0
-1047 -163 -527 0
-1047 -163 -461 0
-1047 -163 -485 0
-1047 -163 -533 0
-1047 -164 -454 0
-1047 -164 -478 0
-1047 -164 -526 0
-1047 -164 -460 0
-1047 -164 -484 0
-1047 -164 -532 0
-1047 -164 -455 0
-1047 -164 -479 0
-1047 -164 -527 0
-1047 -164 -461 0
-1047 -164 -485 0
-1047 -164 -533 0
-1047 -165 -460 0
-1047 -165 -484 0
-1047 -165 -532 0
-1047 -165 -461 0
-1047 -165 -485 0
-1047 -165 -533 0
-1047 -166 0
-1047 79 0
-1047 -163 184 0
-1047 -164 185 0
-1047 -165 186 0
-1047 -236 0
-1048 233 0
-1048 -59 -163 -168 0
-1048 -59 -164 -169 0
-1048 -59 -165 -170 0
-1048 53 54 0
-1048 -53 -163 1307 497 0
-1048 -53 -164 1307 503 0
-1048 -53 -165 1307 509 0
-1048 -54 -163 1308 498 0
-1048 -54 -164 1308 504 0
-1048 -54 -165 1308 510 0
-1048 -163 -449 0
-1048 -163 -473 0
-1048 -163 -521 0
-1048 -163 -455 0
-1048 -163 -479 0
-1048 -163 -527 0
-1048 -163 -461 0
-1048 -163 -485 0
-1048 -163 -533 0
-1048 -163 -450 0
-1048 -163 -474 0
-1048 -163 -522 0
-1048 -163 -456 0
-1048 -163 -480 0
-1048 -163 -528 0
-1048 -163 -462 0
-1048 -163 -486 0
-1048 -163 -534 0
-1048 -164 -455 0
-1048 -164 -479 0
-1048 -164 -527 0
-1048 -164 -461 0
-1048 -164 -485 0
-1048 -164 -533 0
-1048 -164 -456 0
-1048 -164 -480 0
-1048 -164 -528 0
-1048 -164 -462 0
-1048 -164 -486 0
-1048 -164 -534 0
-1048 -165 -461 0
-1048 -165 -485 0
-1048 -165 -533 0
-1048 -165 -462 0
-1048 -165 -486 0
-1048 -165 -534 0
-1048 -166 0
-1048 80 0
-1048 -163 184 0
-1048 -164 185 0
-1048 -165 186 0
-1048 -236 0
-1049 233 0
-1049 -55 -171 -168 0
-1049 -55 -172 -169 0
-1049 -55 -173 -170 0
-1049 60 61 0
-1049 -60 -171 1315 493 0
-1049 -60 -172 1315 499 0
-1049 -60 -173 1315 505 0
-1049 -60 -171 1316 494 0
-1049 -60 -172 1316 500 0
-1049 -60 -173 1316 506 0
-1049 -61 -171 1316 494 0
-1049 -61 -172 1316 500 0
-1049 -61 -173 1316 506 0
-1049 -171 -445 0
-1049 -171 -469 0
-1049 -171 -517 0
-1049 -171 -451 0
-1049 -171 -475 0
-1049 -171 -523 0
-1049 -171 -457 0
-1049 -171 -481 0
-1049 -171 -529 0
-1049 -171 -446 0
-1049 -171 -470 0
-1049 -171 -518 0
-1049 -171 -452 0
-1049 -171 -476 0
-1049 -171 -524 0
-1049 -171 -458 0
-1049 -171 -482 0
-1049 -171 -530 0
-1049 -172 -451 0
-1049 -172 -475 0
-1049 -172 -523 0
-1049 -172 -457 0
-1049 -172 -481 0
-1049 -172 -529 0
-1049 -172 -452 0
-1049 -172 -476 0
-1049 -172 -524 0
-1049 -172 -458 0
-1049 -172 -482 0
-1049 -172 -530 0
-1049 -173 -457 0
-1049 -173 -481 0
-1049 -173 -529 0
-1049 -173 -458 0
-1049 -173 -482 0
-1049 -173 -530 0
-1049 -174 0
-1049 76 0
-1049 -171 184 0
-1049 -172 185 0
-1049 -173 186 0
-1049 -238 0
-1050 233 0
-1050 -56 -171 -168 0
-1050 -56 -172 -169 0
-1050 -56 -173 -170 0
-1050 60 61 62 0
-1050 -60 -171 1316 494 0
-1050 -60 -172 1316 500 0
-1050 -60 -173 1316 506 0
-1050 -60 -171 1317 495 0
-1050 -60 -172 1317 501 0
-1050 -60 -173 1317 507 0
-1050 -61 -171 1316 494 0
-1050 -61 -172 1316 500 0
-1050 -61 -173 1316 506 0
-1050 -61 -171 1317 495 0
-1050 -61 -172 1317 501 0
-1050 -61 -173 1317 507 0
-1050 -62 -171 1317 495 0
-1050 -62 -172 1317 501 0
-1050 -62 -173 1317 507 0
-1050 -171 -446 0
-1050 -171 -470 0
-1050 -171 -518 0
-1050 -171 -452 0
-1050 -171 -476 0
-1050 -171 -524 0
-1050 -171 -458 0
-1050 -171 -482 0
-1050 -171 -530 0
-1050 -171 -447 0
-1050 -171 -471 0
-1050 -171 -519 0
-1050 -171 -453 0
-1050 -171 -477 0
-1050 -171 -525 0
-1050 -171 -459 0
-1050 -171 -483 0
-1050 -171 -531 0
-1050 -172 -452 0
-1050 -172 -476 0
-1050 -172 -524 0
-1050 -172 -458 0
-1050 -172 -482 0
-1050 -172 -530 0
-1050 -172 -453 0
-1050 -172 -477 0
-1050 -172 -525 0
-1050 -172 -459 0
-1050 -172 -483 0
-1050 -172 -531 0
-1050 -173 -458 0
-1050 -173 -482 0
-1050 -173 -530 0
-1050 -173 -459 0
-1050 -173 -483 0
-1050 -173 -531 0
-1050 -174 0
-1050 77 0
-1050 -171 184 0
-1050 -172 185 0
-1050 -173 186 0
-1050 -238 0
-1051 233 0
-1051 -57 -171 -168 0
-1051 -57 -172 -169 0
-1051 -57 -173 -170 0
-1051 60 61 62 63 0
-1051 -60 -171 1317 495 0
-1051 -60 -172 1317 501 0
-1051 -60 -173 1317 507 0
-1051 -61 -171 1317 495 0
-1051 -61 -172 1317 501 0
-1051 -61 -173 1317 507 0
-1051 -61 -171 1318 496 0
-1051 -61 -172 1318 502 0
-1051 -61 -173 1318 508 0
-1051 -62 -171 1317 495 0
-1051 -62 -172 1317 501 0
-1051 -62 -173 1317 507 0
-1051 -62 -171 1318 496 0
-1051 -62 -172 1318 502 0
-1051 -62 -173 1318 508 0
-1051 -63 -171 1318 496 0
-1051 -63 -172 1318 502 0
-1051 -63 -173 1318 508 0
-1051 -171 -447 0
-1051 -171 -471 0
-1051 -171 -519 0
-1051 -171 -453 0
-1051 -171 -477 0
-1051 -171 -525 0
-1051 -171 -459 0
-1051 -171 -483 0
-1051 -171 -531 0
-1051 -171 -448 0
-1051 -171 -472 0
-1051 -171 -520 0
-1051 -171 -454 0
-1051 -171 -478 0
-1051 -171 -526 0
-1051 -171 -460 0
-1051 -171 -484 0
-1051 -171 -532 0
-1051 -172 -453 0
-1051 -172 -477 0
-1051 -172 -525 0
-1051 -172 -459 0
-1051 -172 -483 0
-1051 -172 -531 0
-1051 -172 -454 0
-1051 -172 -478 0
-1051 -172 -526 0
-1051 -172 -460 0
-1051 -172 -484 0
-1051 -172 -532 0
-1051 -173 -459 0
-1051 -173 -483 0
-1051 -173 -531 0
-1051 -173 -460 0
-1051 -173 -484 0
-1051 -173 -532 0
-1051 -174 0
-1051 78 0
-1051 -171 184 0
-1051 -172 185 0
-1051 -173 186 0
-1051 -238 0
-1052 233 0
-1052 -58 -171 -168 0
-1052 -58 -172 -169 0
-1052 -58 -173 -170 0
-1052 61 62 63 0
-1052 -61 -171 1318 496 0
-1052 -61 -172 1318 502 0
-1052 -61 -173 1318 508 0
-1052 -62 -171 1318 496 0
-1052 -62 -172 1318 502 0
-1052 -62 -173 1318 508 0
-1052 -62 -171 1319 497 0
-1052 -62 -172 1319 503 0
-1052 -62 -173 1319 509 0
-1052 -63 -171 1318 496 0
-1052 -63 -172 1318 502 0
-1052 -63 -173 1318 508 0
-1052 -63 -171 1319 497 0
-1052 -63 -172 1319 503 0
-1052 -63 -173 1319 509 0
-1052 -171 -448 0
-1052 -171 -472 0
-1052 -171 -520 0
-1052 -171 -454 0
-1052 -171 -478 0
-1052 -171 -526 0
-1052 -171 -460 0
-1052 -171 -484 0
-1052 -171 -532 0
-1052 -171 -449 0
-1052 -171 -473 0
-1052 -171 -521 0
-1052 -171 -455 0
-1052 -171 -479 0
-1052 -171 -527 0
-1052 -171 -461 0
-1052 -171 -485 0
-1052 -171 -533 0
-1052 -172 -454 0
-1052 -172 -478 0
-1052 -172 -526 0
-1052 -172 -460 0
-1052 -172 -484 0
-1052 -172 -532 0
-1052 -172 -455 0
-1052 -172 -479 0
-1052 -172 -527 0
-1052 -172 -461 0
-1052 -172 -485 0
-1052 -172 -533 0
-1052 -173 -460 0
-1052 -173 -484 0
-1052 -173 -532 0
-1052 -173 -461 0
-1052 -173 -485 0
-1052 -173 -533 0
-1052 -174 0
-1052 79 0
-1052 -171 184 0
-1052 -172 185 0
-1052 -173 186 0
-1052 -238 0
-1053 233 0
-1053 -59 -171 -168 0
-1053 -59 -172 -169 0
-1053 -59 -173 -170 0
-1053 62 63 0
-1053 -62 -171 1319 497 0
-1053 -62 -172 1319 503 0
-1053 -62 -173 1319 509 0
-1053 -63 -171 1319 497 0
-1053 -63 -172 1319 503 0
-1053 -63 -173 1319 509 0
-1053 -63 -171 1320 498 0
-1053 -63 -172 1320 504 0
-1053 -63 -173 1320 510 0
-1053 -171 -449 0
-1053 -171 -473 0
-1053 -171 -521 0
-1053 -171 -455 0
-1053 -171 -479 0
-1053 -171 -527 0
-1053 -171 -461 0
-1053 -171 -485 0
-1053 -171 -533 0
-1053 -171 -450 0
-1053 -171 -474 0
-1053 -171 -522 0
-1053 -171 -456 0
-1053 -171 -480 0
-1053 -171 -528 0
-1053 -171 -462 0
-1053 -171 -486 0
-1053 -171 -534 0
-1053 -172 -455 0
-1053 -172 -479 0
-1053 -172 -527 0
-1053 -172 -461 0
-1053 -172 -485 0
-1053 -172 -533 0
-1053 -172 -456 0
-1053 -172 -480 0
-1053 -172 -528 0
-1053 -172 -462 0
-1053 -172 -486 0
-1053 -172 -534 0
-1053 -173 -461 0
-1053 -173 -485 0
-1053 -173 -533 0
-1053 -173 -462 0
-1053 -173 -486 0
-1053 -173 -534 0
-1053 -174 0
-1053 80 0
-1053 -171 184 0
-1053 -172 185 0
-1053 -173 186 0
-1053 -238 0
-1054 233 0
-1054 -55 -167 0
-1054 -439 0
-1054 -463 0
-1054 -511 0
-1054 -445 0
-1054 -469 0
-1054 -517 0
-1054 -451 0
-1054 -475 0
-1054 -523 0
-1054 -457 0
-1054 -481 0
-1054 -529 0
-1054 -440 0
-1054 -464 0
-1054 -512 0
-1054 -446 0
-1054 -470 0
-1054 -518 0
-1054 -452 0
-1054 -476 0
-1054 -524 0
-1054 -458 0
-1054 -482 0
-1054 -530 0
-1054 76 0
-1054 183 0
-1055 233 0
-1055 -56 -167 0
-1055 -440 0
-1055 -464 0
-1055 -512 0
-1055 -446 0
-1055 -470 0
-1055 -518 0
-1055 -452 0
-1055 -476 0
-1055 -524 0
-1055 -458 0
-1055 -482 0
-1055 -530 0
-1055 -441 0
-1055 -465 0
-1055 -513 0
-1055 -447 0
-1055 -471 0
-1055 -519 0
-1055 -453 0
-1055 -477 0
-1055 -525 0
-1055 -459 0
-1055 -483 0
-1055 -531 0
-1055 77 0
-1055 183 0
-1056 233 0
-1056 -57 -167 0
-1056 -441 0
-1056 -465 0
-1056 -513 0
-1056 -447 0
-1056 -471 0
-1056 -519 0
-1056 -453 0
-1056 -477 0
-1056 -525 0
-1056 -459 0
-1056 -483 0
-1056 -531 0
-1056 -442 0
-1056 -466 0
-1056 -514 0
-1056 -448 0
-1056 -472 0
-1056 -520 0
-1056 -454 0
-1056 -478 0
-1056 -526 0
-1056 -460 0
-1056 -484 0
-1056 -532 0
-1056 78 0
-1056 183 0
-1057 233 0
-1057 -58 -167 0
-1057 -442 0
-1057 -466 0
-1057 -514 0
-1057 -448 0
-1057 -472 0
-1057 -520 0
-1057 -454 0
-1057 -478 0
-1057 -526 0
-1057 -460 0
-1057 -484 0
-1057 -532 0
-1057 -443 0
-1057 -467 0
-1057 -515 0
-1057 -449 0
-1057 -473 0
-1057 -521 0
-1057 -455 0
-1057 -479 0
-1057 -527 0
-1057 -461 0
-1057 -485 0
-1057 -533 0
-1057 79 0
-1057 183 0
-1058 233 0
-1058 -59 -167 0
-1058 -443 0
-1058 -467 0
-1058 -515 0
-1058 -449 0
-1058 -473 0
-1058 -521 0
-1058 -455 0
-1058 -479 0
-1058 -527 0
-1058 -461 0
-1058 -485 0
-1058 -533 0
-1058 -444 0
-1058 -468 0
-1058 -516 0
-1058 -450 0
-1058 -474 0
-1058 -522 0
-1058 -456 0
-1058 -480 0
-1058 -528 0
-1058 -462 0
-1058 -486 0
-1058 -534 0
-1058 80 0
-1058 183 0
-1059 234 0
-1059 -60 -159 -172 0
-1059 -60 -160 -173 0
-1059 -60 -161 -174 0
-1059 43 44 45 0
-1059 -43 -159 1297 517 0
-1059 -43 -160 1297 523 0
-1059 -43 -161 1297 529 0
-1059 -44 -159 1298 518 0
-1059 -44 -160 1298 524 0
-1059 -44 -161 1298 530 0
-1059 -45 -159 1299 519 0
-1059 -45 -160 1299 525 0
-1059 -45 -161 1299 531 0
-1059 -159 -445 0
-1059 -159 -469 0
-1059 -159 -493 0
-1059 -159 -451 0
-1059 -159 -475 0
-1059 -159 -499 0
-1059 -159 -457 0
-1059 -159 -481 0
-1059 -159 -505 0
-1059 -159 -446 0
-1059 -159 -470 0
-1059 -159 -494 0
-1059 -159 -452 0
-1059 -159 -476 0
-1059 -159 -500 0
-1059 -159 -458 0
-1059 -159 -482 0
-1059 -159 -506 0
-1059 -159 -447 0
-1059 -159 -471 0
-1059 -159 -495 0
-1059 -159 -453 0
-1059 -159 -477 0
-1059 -159 -501 0
-1059 -159 -459 0
-1059 -159 -483 0
-1059 -159 -507 0
-1059 -160 -451 0
-1059 -160 -475 0
-1059 -160 -499 0
-1059 -160 -457 0
-1059 -160 -481 0
-1059 -160 -505 0
-1059 -160 -452 0
-1059 -160 -476 0
-1059 -160 -500 0
-1059 -160 -458 0
-1059 -160 -482 0
-1059 -160 -506 0
-1059 -160 -453 0
-1059 -160 -477 0
-1059 -160 -501 0
-1059 -160 -459 0
-1059 -160 -483 0
-1059 -160 -507 0
-1059 -161 -457 0
-1059 -161 -481 0
-1059 -161 -505 0
-1059 -161 -458 0
-1059 -161 -482 0
-1059 -161 -506 0
-1059 -161 -459 0
-1059 -161 -483 0
-1059 -161 -507 0
-1059 -162 0
-1059 81 0
-1059 -159 188 0
-1059 -160 189 0
-1059 -161 190 0
-1059 -235 0
-1060 234 0
-1060 -61 -159 -172 0
-1060 -61 -160 -173 0
-1060 -61 -161 -174 0
-1060 44 45 46 0
-1060 -44 -159 1298 518 0
-1060 -44 -160 1298 524 0
-1060 -44 -161 1298 530 0
-1060 -45 -159 1299 519 0
-1060 -45 -160 1299 525 0
-1060 -45 -161 1299 531 0
-1060 -46 -159 1300 520 0
-1060 -46 -160 1300 526 0
-1060 -46 -161 1300 532 0
-1060 -159 -446 0
-1060 -159 -470 0
-1060 -159 -494 0
-1060 -159 -452 0
-1060 -159 -476 0
-1060 -159 -500 0
-1060 -159 -458 0
-1060 -159 -482 0
-1060 -159 -506 0
-1060 -159 -447 0
-1060 -159 -471 0
-1060 -159 -495 0
-1060 -159 -453 0
-1060 -159 -477 0
-1060 -159 -501 0
-1060 -159 -459 0
-1060 -159 -483 0
-1060 -159 -507 0
-1060 -159 -448 0
-1060 -159 -472 0
-1060 -159 -496 0
-1060 -159 -454 0
-1060 -159 -478 0
-1060 -159 -502 0
-1060 -159 -460 0
-1060 -159 -484 0
-1060 -159 -508 0
-1060 -160 -452 0
-1060 -160 -476 0
-1060 -160 -500 0
-1060 -160 -458 0
-1060 -160 -482 0
-1060 -160 -506 0
-1060 -160 -453 0
-1060 -160 -477 0
-1060 -160 -501 0
-1060 -160 -459 0
-1060 -160 -483 0
-1060 -160 -507 0
-1060 -160 -454 0
-1060 -160 -478 0
-1060 -160 -502 0
-1060 -160 -460 0
-1060 -160 -484 0
-1060 -160 -508 0
-1060 -161 -458 0
-1060 -161 -482 0
-1060 -161 -506 0
-1060 -161 -459 0
-1060 -161 -483 0
-1060 -161 -507 0
-1060 -161 -460 0
-1060 -161 -484 0
-1060 -161 -508 0
-1060 -162 0
-1060 82 0
-1060 -159 188 0
-1060 -160 189 0
-1060 -161 190 0
-1060 -235 0
-1061 234 0
-1061 -62 -159 -172 0
-1061 -62 -160 -173 0
-1061 -62 -161 -174 0
-1061 45 46 47 0
-1061 -45 -159 1299 519 0
-1061 -45 -160 1299 525 0
-1061 -45 -161 1299 531 0
-1061 -46 -159 1300 520 0
-1061 -46 -160 1300 526 0
-1061 -46 -161 1300 532 0
-1061 -47 -159 1301 521 0
-1061 -47 -160 1301 527 0
-1061 -47 -161 1301 533 0
-1061 -159 -447 0
-1061 -159 -471 0
-1061 -159 -495 0
-1061 -159 -453 0
-1061 -159 -477 0
-1061 -159 -501 0
-1061 -159 -459 0
-1061 -159 -483 0
-1061 -159 -507 0
-1061 -159 -448 0
-1061 -159 -472 0
-1061 -159 -496 0
-1061 -159 -454 0
-1061 -159 -478 0
-1061 -159 -502 0
-1061 -159 -460 0
-1061 -159 -484 0
-1061 -159 -508 0
-1061 -159 -449 0
-1061 -159 -473 0
-1061 -159 -497 0
-1061 -159 -455 0
-1061 -159 -479 0
-1061 -159 -503 0
-1061 -159 -461 0
-1061 -159 -485 0
-1061 -159 -509 0
-1061 -160 -453 0
-1061 -160 -477 0
-1061 -160 -501 0
-1061 -160 -459 0
-1061 -160 -483 0
-1061 -160 -507 0
-1061 -160 -454 0
-1061 -160 -478 0
-1061 -160 -502 0
-1061 -160 -460 0
-1061 -160 -484 0
-1061 -160 -508 0
-1061 -160 -455 0
-1061 -160 -479 0
-1061 -160 -503 0
-1061 -160 -461 0
-1061 -160 -485 0
-1061 -160 -509 0
-1061 -161 -459 0
-1061 -161 -483 0
-1061 -161 -507 0
-1061 -161 -460 0
-1061 -161 -484 0
-1061 -161 -508 0
-1061 -161 -461 0
-1061 -161 -485 0
-1061 -161 -509 0
-1061 -162 0
-1061 83 0
-1061 -159 188 0
-1061 -160 189 0
-1061 -161 190 0
-1061 -235 0
-1062 234 0
-1062 -63 -159 -172 0
-1062 -63 -160 -173 0
-1062 -63 -161 -174 0
-1062 46 47 48 0
-1062 -46 -159 1300 520 0
-1062 -46 -160 1300 526 0
-1062 -46 -161 1300 532 0
-1062 -47 -159 1301 521 0
-1062 -47 -160 1301 527 0
-1062 -47 -161 1301 533 0
-1062 -48 -159 1302 522 0
-1062 -48 -160 1302 528 0
-1062 -48 -161 1302 534 0
-1062 -159 -448 0
-1062 -159 -472 0
-1062 -159 -496 0
-1062 -159 -454 0
-1062 -159 -478 0
-1062 -159 -502 0
-1062 -159 -460 0
-1062 -159 -484 0
-1062 -159 -508 0
-1062 -159 -449 0
-1062 -159 -473 0
-1062 -159 -497 0
-1062 -159 -455 0
-1062 -159 -479 0
-1062 -159 -503 0
-1062 -159 -461 0
-1062 -159 -485 0
-1062 -159 -509 0
-1062 -159 -450 0
-1062 -159 -474 0
-1062 -159 -498 0
-1062 -159 -456 0
-1062 -159 -480 0
-1062 -159 -504 0
-1062 -159 -462 0
-1062 -159 -486 0
-1062 -159 -510 0
-1062 -160 -454 0
-1062 -160 -478 0
-1062 -160 -502 0
-1062 -160 -460 0
-1062 -160 -484 0
-1062 -160 -508 0
-1062 -160 -455 0
-1062 -160 -479 0
-1062 -160 -503 0
-1062 -160 -461 0
-1062 -160 -485 0
-1062 -160 -509 0
-1062 -160 -456 0
-1062 -160 -480 0
-1062 -160 -504 0
-1062 -160 -462 0
-1062 -160 -486 0
-1062 -160 -510 0
-1062 -161 -460 0
-1062 -161 -484 0
-1062 -161 -508 0
-1062 -161 -461 0
-1062 -161 -485 0
-1062 -161 -509 0
-1062 -161 -462 0
-1062 -161 -486 0
-1062 -161 -510 0
-1062 -162 0
-1062 84 0
-1062 -159 188 0
-1062 -160 189 0
-1062 -161 190 0
-1062 -235 0
-1063 234 0
-1063 -60 -163 -172 0
-1063 -60 -164 -173 0
-1063 -60 -165 -174 0
-1063 49 50 51 0
-1063 -49 -163 1303 517 0
-1063 -49 -164 1303 523 0
-1063 -49 -165 1303 529 0
-1063 -50 -163 1304 518 0
-1063 -50 -164 1304 524 0
-1063 -50 -165 1304 530 0
-1063 -51 -163 1305 519 0
-1063 -51 -164 1305 525 0
-1063 -51 -165 1305 531 0
-1063 -163 -445 0
-1063 -163 -469 0
-1063 -163 -493 0
-1063 -163 -451 0
-1063 -163 -475 0
-1063 -163 -499 0
-1063 -163 -457 0
-1063 -163 -481 0
-1063 -163 -505 0
-1063 -163 -446 0
-1063 -163 -470 0
-1063 -163 -494 0
-1063 -163 -452 0
-1063 -163 -476 0
-1063 -163 -500 0
-1063 -163 -458 0
-1063 -163 -482 0
-1063 -163 -506 0
-1063 -163 -447 0
-1063 -163 -471 0
-1063 -163 -495 0
-1063 -163 -453 0
-1063 -163 -477 0
-1063 -163 -501 0
-1063 -163 -459 0
-1063 -163 -483 0
-1063 -163 -507 0
-1063 -164 -451 0
-1063 -164 -475 0
-1063 -164 -499 0
-1063 -164 -457 0
-1063 -164 -481 0
-1063 -164 -505 0
-1063 -164 -452 0
-1063 -164 -476 0
-1063 -164 -500 0
-1063 -164 -458 0
-1063 -164 -482 0
-1063 -164 -506 0
-1063 -164 -453 0
-1063 -164 -477 0
-1063 -164 -501 0
-1063 -164 -459 0
-1063 -164 -483 0
-1063 -164 -507 0
-1063 -165 -457 0
-1063 -165 -481 0
-1063 -165 -505 0
-1063 -165 -458 0
-1063 -165 -482 0
-1063 -165 -506 0
-1063 -165 -459 0
-1063 -165 -483 0
-1063 -165 -507 0
-1063 -166 0
-1063 81 0
-1063 -163 188 0
-1063 -164 189 0
-1063 -165 190 0
-1063 -236 0
-1064 234 0
-1064 -61 -163 -172 0
-1064 -61 -164 -173 0
-1064 -61 -165 -174 0
-1064 50 51 52 0
-1064 -50 -163 1304 518 0
-1064 -50 -164 1304 524 0
-1064 -50 -165 1304 530 0
-1064 -51 -163 1305 519 0
-1064 -51 -164 1305 525 0
-1064 -51 -165 1305 531 0
-1064 -52 -163 1306 520 0
-1064 -52 -164 1306 526 0
-1064 -52 -165 1306 532 0
-1064 -163 -446 0
-1064 -163 -470 0
-1064 -163 -494 0
-1064 -163 -452 0
-1064 -163 -476 0
-1064 -163 -500 0
-1064 -163 -458 0
-1064 -163 -482 0
-1064 -163 -506 0
-1064 -163 -447 0
-1064 -163 -471 0
-1064 -163 -495 0
-1064 -163 -453 0
-1064 -163 -477 0
-1064 -163 -501 0
-1064 -163 -459 0
-1064 -163 -483 0
-1064 -163 -507 0
-1064 -163 -448 0
-1064 -163 -472 0
-1064 -163 -496 0
-1064 -163 -454 0
-1064 -163 -478 0
-1064 -163 -502 0
-1064 -163 -460 0
-1064 -163 -484 0
-1064 -163 -508 0
-1064 -164 -452 0
-1064 -164 -476 0
-1064 -164 -500 0
-1064 -164 -458 0
-1064 -164 -482 0
-1064 -164 -506 0
-1064 -164 -453 0
-1064 -164 -477 0
-1064 -164 -501 0
-1064 -164 -459 0
-1064 -164 -483 0
-1064 -164 -507 0
-1064 -164 -454 0
-1064 -164 -478 0
-1064 -164 -502 0
-1064 -164 -460 0
-1064 -164 -484 0
-1064 -164 -508 0
-1064 -165 -458 0
-1064 -165 -482 0
-1064 -165 -506 0
-1064 -165 -459 0
-1064 -165 -483 0
-1064 -165 -507 0
-1064 -165 -460 0
-1064 -165 -484 0
-1064 -165 -508 0
-1064 -166 0
-1064 82 0
-1064 -163 188 0
-1064 -164 189 0
-1064 -165 190 0
-1064 -236 0
-1065 234 0
-1065 -62 -163 -172 0
-1065 -62 -164 -173 0
-1065 -62 -165 -174 0
-1065 51 52 53 0
-1065 -51 -163 1305 519 0
-1065 -51 -164 1305 525 0
-1065 -51 -165 1305 531 0
-1065 -52 -163 1306 520 0
-1065 -52 -164 1306 526 0
-1065 -52 -165 1306 532 0
-1065 -53 -163 1307 521 0
-1065 -53 -164 1307 527 0
-1065 -53 -165 1307 533 0
-1065 -163 -447 0
-1065 -163 -471 0
-1065 -163 -495 0
-1065 -163 -453 0
-1065 -163 -477 0
-1065 -163 -501 0
-1065 -163 -459 0
-1065 -163 -483 0
-1065 -163 -507 0
-1065 -163 -448 0
-1065 -163 -472 0
-1065 -163 -496 0
-1065 -163 -454 0
-1065 -163 -478 0
-1065 -163 -502 0
-1065 -163 -460 0
-1065 -163 -484 0
-1065 -163 -508 0
-1065 -163 -449 0
-1065 -163 -473 0
-1065 -163 -497 0
-1065 -163 -455 0
-1065 -163 -479 0
-1065 -163 -503 0
-1065 -163 -461 0
-1065 -163 -485 0
-1065 -163 -509 0
-1065 -164 -453 0
-1065 -164 -477 0
-1065 -164 -501 0
-1065 -164 -459 0
-1065 -164 -483 0
-1065 -164 -507 0
-1065 -164 -454 0
-1065 -164 -478 0
-1065 -164 -502 0
-1065 -164 -460 0
-1065 -164 -484 0
-1065 -164 -508 0
-1065 -164 -455 0
-1065 -164 -479 0
-1065 -164 -503 0
-1065 -164 -461 0
-1065 -164 -485 0
-1065 -164 -509 0
-1065 -165 -459 0
-1065 -165 -483 0
-1065 -165 -507 0
-1065 -165 -460 0
-1065 -165 -484 0
-1065 -165 -508 0
-1065 -165 -461 0
-1065 -165 -485 0
-1065 -165 -509 0
-1065 -166 0
-1065 83 0
-1065 -163 188 0
-1065 -164 189 0
-1065 -165 190 0
-1065 -236 0
-1066 234 0
-1066 -63 -163 -172 0
-1066 -63 -164 -173 0
-1066 -63 -165 -174 0
-1066 52 53 54 0
-1066 -52 -163 1306 520 0
-1066 -52 -164 1306 526 0
-1066 -52 -165 1306 532 0
-1066 -53 -163 1307 521 0
-1066 -53 -164 1307 527 0
-1066 -53 -165 1307 533 0
-1066 -54 -163 1308 522 0
-1066 -54 -164 1308 528 0
-1066 -54 -165 1308 534 0
-1066 -163 -448 0
-1066 -163 -472 0
-1066 -163 -496 0
-1066 -163 -454 0
-1066 -163 -478 0
-1066 -163 -502 0
-1066 -163 -460 0
-1066 -163 -484 0
-1066 -163 -508 0
-1066 -163 -449 0
-1066 -163 -473 0
-1066 -163 -497 0
-1066 -163 -455 0
-1066 -163 -479 0
-1066 -163 -503 0
-1066 -163 -461 0
-1066 -163 -485 0
-1066 -163 -509 0
-1066 -163 -450 0
-1066 -163 -474 0
-1066 -163 -498 0
-1066 -163 -456 0
-1066 -163 -480 0
-1066 -163 -504 0
-1066 -163 -462 0
-1066 -163 -486 0
-1066 -163 -510 0
-1066 -164 -454 0
-1066 -164 -478 0
-1066 -164 -502 0
-1066 -164 -460 0
-1066 -164 -484 0
-1066 -164 -508 0
-1066 -164 -455 0
-1066 -164 -479 0
-1066 -164 -503 0
-1066 -164 -461 0
-1066 -164 -485 0
-1066 -164 -509 0
-1066 -164 -456 0
-1066 -164 -480 0
-1066 -164 -504 0
-1066 -164 -462 0
-1066 -164 -486 0
-1066 -164 -510 0
-1066 -165 -460 0
-1066 -165 -484 0
-1066 -165 -508 0
-1066 -165 -461 0
-1066 -165 -485 0
-1066 -165 -509 0
-1066 -165 -462 0
-1066 -165 -486 0
-1066 -165 -510 0
-1066 -166 0
-1066 84 0
-1066 -163 188 0
-1066 -164 189 0
-1066 -165 190 0
-1066 -236 0
-1067 234 0
-1067 -60 -167 -172 0
-1067 -60 -168 -173 0
-1067 -60 -169 -174 0
-1067 55 56 57 0
-1067 -55 -167 1309 517 0
-1067 -55 -168 1309 523 0
-1067 -55 -169 1309 529 0
-1067 -55 -167 1310 518 0
-1067 -55 -168 1310 524 0
-1067 -55 -169 1310 530 0
-1067 -56 -167 1310 518 0
-1067 -56 -168 1310 524 0
-1067 -56 -169 1310 530 0
-1067 -56 -167 1311 519 0
-1067 -56 -168 1311 525 0
-1067 -56 -169 1311 531 0
-1067 -57 -167 1311 519 0
-1067 -57 -168 1311 525 0
-1067 -57 -169 1311 531 0
-1067 -167 -445 0
-1067 -167 -469 0
-1067 -167 -493 0
-1067 -167 -451 0
-1067 -167 -475 0
-1067 -167 -499 0
-1067 -167 -457 0
-1067 -167 -481 0
-1067 -167 -505 0
-1067 -167 -446 0
-1067 -167 -470 0
-1067 -167 -494 0
-1067 -167 -452 0
-1067 -167 -476 0
-1067 -167 -500 0
-1067 -167 -458 0
-1067 -167 -482 0
-1067 -167 -506 0
-1067 -167 -447 0
-1067 -167 -471 0
-1067 -167 -495 0
-1067 -167 -453 0
-1067 -167 -477 0
-1067 -167 -501 0
-1067 -167 -459 0
-1067 -167 -483 0
-1067 -167 -507 0
-1067 -168 -451 0
-1067 -168 -475 0
-1067 -168 -499 0
-1067 -168 -457 0
-1067 -168 -481 0
-1067 -168 -505 0
-1067 -168 -452 0
-1067 -168 -476 0
-1067 -168 -500 0
-1067 -168 -458 0
-1067 -168 -482 0
-1067 -168 -506 0
-1067 -168 -453 0
-1067 -168 -477 0
-1067 -168 -501 0
-1067 -168 -459 0
-1067 -168 -483 0
-1067 -168 -507 0
-1067 -169 -457 0
-1067 -169 -481 0
-1067 -169 -505 0
-1067 -169 -458 0
-1067 -169 -482 0
-1067 -169 -506 0
-1067 -169 -459 0
-1067 -169 -483 0
-1067 -169 -507 0
-1067 -170 0
-1067 81 0
-1067 -167 188 0
-1067 -168 189 0
-1067 -169 190 0
-1067 -237 0
-1068 234 0
-1068 -61 -167 -172 0
-1068 -61 -168 -173 0
-1068 -61 -169 -174 0
-1068 55 56 57 58 0
-1068 -55 -167 1310 518 0
-1068 -55 -168 1310 524 0
-1068 -55 -169 1310 530 0
-1068 -56 -167 1310 518 0
-1068 -56 -168 1310 524 0
-1068 -56 -169 1310 530 0
-1068 -56 -167 1311 519 0
-1068 -56 -168 1311 525 0
-1068 -56 -169 1311 531 0
-1068 -57 -167 1311 519 0
-1068 -57 -168 1311 525 0
-1068 -57 -169 1311 531 0
-1068 -57 -167 1312 520 0
-1068 -57 -168 1312 526 0
-1068 -57 -169 1312 532 0
-1068 -58 -167 1312 520 0
-1068 -58 -168 1312 526 0
-1068 -58 -169 1312 532 0
-1068 -167 -446 0
-1068 -167 -470 0
-1068 -167 -494 0
-1068 -167 -452 0
-1068 -167 -476 0
-1068 -167 -500 0
-1068 -167 -458 0
-1068 -167 -482 0
-1068 -167 -506 0
-1068 -167 -447 0
-1068 -167 -471 0
-1068 -167 -495 0
-1068 -167 -453 0
-1068 -167 -477 0
-1068 -167 -501 0
-1068 -167 -459 0
-1068 -167 -483 0
-1068 -167 -507 0
-1068 -167 -448 0
-1068 -167 -472 0
-1068 -167 -496 0
-1068 -167 -454 0
-1068 -167 -478 0
-1068 -167 -502 0
-1068 -167 -460 0
-1068 -167 -484 0
-1068 -167 -508 0
-1068 -168 -452 0
-1068 -168 -476 0
-1068 -168 -500 0
-1068 -168 -458 0
-1068 -168 -482 0
-1068 -168 -506 0
-1068 -168 -453 0
-1068 -168 -477 0
-1068 -168 -501 0
-1068 -168 -459 0
-1068 -168 -483 0
-1068 -168 -507 0
-1068 -168 -454 0
-1068 -168 -478 0
-1068 -168 -502 0
-1068 -168 -460 0
-1068 -168 -484 0
-1068 -168 -508 0
-1068 -169 -458 0
-1068 -169 -482 0
-1068 -169 -506 0
-1068 -169 -459 0
-1068 -169 -483 0
-1068 -169 -507 0
-1068 -169 -460 0
-1068 -169 -484 0
-1068 -169 -508 0
-1068 -170 0
-1068 82 0
-1068 -167 188 0
-1068 -168 189 0
-1068 -169 190 0
-1068 -237 0
-1069 234 0
-1069 -62 -167 -172 0
-1069 -62 -168 -173 0
-1069 -62 -169 -174 0
-1069 56 57 58 59 0
-1069 -56 -167 1311 519 0
-1069 -56 -168 1311 525 0
-1069 -56 -169 1311 531 0
-1069 -57 -167 1311 519 0
-1069 -57 -168 1311 525 0
-1069 -57 -169 1311 531 0
-1069 -57 -167 1312 520 0
-1069 -57 -168 1312 526 0
-1069 -57 -169 1312 532 0
-1069 -58 -167 1312 520 0
-1069 -58 -168 1312 526 0
-1069 -58 -169 1312 532 0
-1069 -58 -167 1313 521 0
-1069 -58 -168 1313 527 0
-1069 -58 -169 1313 533 0
-1069 -59 -167 1313 521 0
-1069 -59 -168 1313 527 0
-1069 -59 -169 1313 533 0
-1069 -167 -447 0
-1069 -167 -471 0
-1069 -167 -495 0
-1069 -167 -453 0
-1069 -167 -477 0
-1069 -167 -501 0
-1069 -167 -459 0
-1069 -167 -483 0
-1069 -167 -507 0
-1069 -167 -448 0
-1069 -167 -472 0
-1069 -167 -496 0
-1069 -167 -454 0
-1069 -167 -478 0
-1069 -167 -502 0
-1069 -167 -460 0
-1069 -167 -484 0
-1069 -167 -508 0
-1069 -167 -449 0
-1069 -167 -473 0
-1069 -167 -497 0
-1069 -167 -455 0
-1069 -167 -479 0
-1069 -167 -503 0
-1069 -167 -461 0
-1069 -167 -485 0
-1069 -167 -509 0
-1069 -168 -453 0
-1069 -168 -477 0
-1069 -168 -501 0
-1069 -168 -459 0
-1069 -168 -483 0
-1069 -168 -507 0
-1069 -168 -454 0
-1069 -168 -478 0
-1069 -168 -502 0
-1069 -168 -460 0
-1069 -168 -484 0
-1069 -168 -508 0
-1069 -168 -455 0
-1069 -168 -479 0
-1069 -168 -503 0
-1069 -168 -461 0
-1069 -168 -485 0
-1069 -168 -509 0
-1069 -169 -459 0
-1069 -169 -483 0
-1069 -169 -507 0
-1069 -169 -460 0
-1069 -169 -484 0
-1069 -169 -508 0
-1069 -169 -461 0
-1069 -169 -485 0
-1069 -169 -509 0
-1069 -170 0
-1069 83 0
-1069 -167 188 0
-1069 -168 189 0
-1069 -169 190 0
-1069 -237 0
-1070 234 0
-1070 -63 -167 -172 0
-1070 -63 -168 -173 0
-1070 -63 -169 -174 0
-1070 57 58 59 0
-1070 -57 -167 1312 520 0
-1070 -57 -168 1312 526 0
-1070 -57 -169 1312 532 0
-1070 -58 -167 1312 520 0
-1070 -58 -168 1312 526 0
-1070 -58 -169 1312 532 0
-1070 -58 -167 1313 521 0
-1070 -58 -168 1313 527 0
-1070 -58 -169 1313 533 0
-1070 -59 -167 1313 521 0
-1070 -59 -168 1313 527 0
-1070 -59 -169 1313 533 0
-1070 -59 -167 1314 522 0
-1070 -59 -168 1314 528 0
-1070 -59 -169 1314 534 0
-1070 -167 -448 0
-1070 -167 -472 0
-1070 -167 -496 0
-1070 -167 -454 0
-1070 -167 -478 0
-1070 -167 -502 0
-1070 -167 -460 0
-1070 -167 -484 0
-1070 -167 -508 0
-1070 -167 -449 0
-1070 -167 -473 0
-1070 -167 -497 0
-1070 -167 -455 0
-1070 -167 -479 0
-1070 -167 -503 0
-1070 -167 -461 0
-1070 -167 -485 0
-1070 -167 -509 0
-1070 -167 -450 0
-1070 -167 -474 0
-1070 -167 -498 0
-1070 -167 -456 0
-1070 -167 -480 0
-1070 -167 -504 0
-1070 -167 -462 0
-1070 -167 -486 0
-1070 -167 -510 0
-1070 -168 -454 0
-1070 -168 -478 0
-1070 -168 -502 0
-1070 -168 -460 0
-1070 -168 -484 0
-1070 -168 -508 0
-1070 -168 -455 0
-1070 -168 -479 0
-1070 -168 -503 0
-1070 -168 -461 0
-1070 -168 -485 0
-1070 -168 -509 0
-1070 -168 -456 0
-1070 -168 -480 0
-1070 -168 -504 0
-1070 -168 -462 0
-1070 -168 -486 0
-1070 -168 -510 0
-1070 -169 -460 0
-1070 -169 -484 0
-1070 -169 -508 0
-1070 -169 -461 0
-1070 -169 -485 0
-1070 -169 -509 0
-1070 -169 -462 0
-1070 -169 -486 0
-1070 -169 -510 0
-1070 -170 0
-1070 84 0
-1070 -167 188 0
-1070 -168 189 0
-1070 -169 190 0
-1070 -237 0
-1071 234 0
-1071 -60 -171 0
-1071 -439 0
-1071 -463 0
-1071 -487 0
-1071 -445 0
-1071 -469 0
-1071 -493 0
-1071 -451 0
-1071 -475 0
-1071 -499 0
-1071 -457 0
-1071 -481 0
-1071 -505 0
-1071 -440 0
-1071 -464 0
-1071 -488 0
-1071 -446 0
-1071 -470 0
-1071 -494 0
-1071 -452 0
-1071 -476 0
-1071 -500 0
-1071 -458 0
-1071 -482 0
-1071 -506 0
-1071 -441 0
-1071 -465 0
-1071 -489 0
-1071 -447 0
-1071 -471 0
-1071 -495 0
-1071 -453 0
-1071 -477 0
-1071 -501 0
-1071 -459 0
-1071 -483 0
-1071 -507 0
-1071 81 0
-1071 187 0
-1072 234 0
-1072 -61 -171 0
-1072 -440 0
-1072 -464 0
-1072 -488 0
-1072 -446 0
-1072 -470 0
-1072 -494 0
-1072 -452 0
-1072 -476 0
-1072 -500 0
-1072 -458 0
-1072 -482 0
-1072 -506 0
-1072 -441 0
-1072 -465 0
-1072 -489 0
-1072 -447 0
-1072 -471 0
-1072 -495 0
-1072 -453 0
-1072 -477 0
-1072 -501 0
-1072 -459 0
-1072 -483 0
-1072 -507 0
-1072 -442 0
-1072 -466 0
-1072 -490 0
-1072 -448 0
-1072 -472 0
-1072 -496 0
-1072 -454 0
-1072 -478 0
-1072 -502 0
-1072 -460 0
-1072 -484 0
-1072 -508 0
-1072 82 0
-1072 187 0
-1073 234 0
-1073 -62 -171 0
-1073 -441 0
-1073 -465 0
-1073 -489 0
-1073 -447 0
-1073 -471 0
-1073 -495 0
-1073 -453 0
-1073 -477 0
-1073 -501 0
-1073 -459 0
-1073 -483 0
-1073 -507 0
-1073 -442 0
-1073 -466 0
-1073 -490 0
-1073 -448 0
-1073 -472 0
-1073 -496 0
-1073 -454 0
-1073 -478 0
-1073 -502 0
-1073 -460 0
-1073 -484 0
-1073 -508 0
-1073 -443 0
-1073 -467 0
-1073 -491 0
-1073 -449 0
-1073 -473 0
-1073 -497 0
-1073 -455 0
-1073 -479 0
-1073 -503 0
-1073 -461 0
-1073 -485 0
-1073 -509 0
-1073 83 0
-1073 187 0
-1074 234 0
-1074 -63 -171 0
-1074 -442 0
-1074 -466 0
-1074 -490 0
-1074 -448 0
-1074 -472 0
-1074 -496 0
-1074 -454 0
-1074 -478 0
-1074 -502 0
-1074 -460 0
-1074 -484 0
-1074 -508 0
-1074 -443 0
-1074 -467 0
-1074 -491 0
-1074 -449 0
-1074 -473 0
-1074 -497 0
-1074 -455 0
-1074 -479 0
-1074 -503 0
-1074 -461 0
-1074 -485 0
-1074 -509 0
-1074 -444 0
-1074 -468 0
-1074 -492 0
-1074 -450 0
-1074 -474 0
-1074 -498 0
-1074 -456 0
-1074 -480 0
-1074 -504 0
-1074 -462 0
-1074 -486 0
-1074 -510 0
-1074 84 0
-1074 187 0
43 -64 991 992 993 994 995 996 997 998 999 1000 1001 1002 1003 1004 1005 1006 1007 1008 1009 1010 1011 1012 1013 1014 0
-43 64 991 992 993 994 995 996 997 998 999 1000 1001 1002 1003 1004 1005 1006 1007 1008 1009 1010 1011 1012 1013 1014 0
44 -65 991 992 993 994 995 996 997 998 999 1000 1001 1002 1003 1004 1005 1006 1007 1008 1009 1010 1011 1012 1013 1014 0
-44 65 991 992 993 994 995 996 997 998 999 1000 1001 1002 1003 1004 1005 1006 1007 1008 1009 1010 1011 1012 1013 1014 0
45 -66 991 992 993 994 995 996 997 998 999 1000 1001 1002 1003 1004 1005 1006 1007 1008 1009 1010 1011 1012 1013 1014 0
-45 66 991 992 993 994 995 996 997 998 999 1000 1001 1002 1003 1004 1005 1006 1007 1008 1009 1010 1011 1012 1013 1014 0
46 -67 991 992 993 994 995 996 997 998 999 1000 1001 1002 1003 1004 1005 1006 1007 1008 1009 1010 1011 1012 1013 1014 0
-46 67 991 992 993 994 995 996 997 998 999 1000 1001 1002 1003 1004 1005 1006 1007 1008 1009 1010 1011 1012 1013 1014 0
47 -68 991 992 993 994 995 996 997 998 999 1000 1001 1002 1003 1004 1005 1006 1007 1008 1009 1010 1011 1012 1013 1014 0
-47 68 991 992 993 994 995 996 997 998 999 1000 1001 1002 1003 1004 1005 1006 1007 1008 1009 1010 1011 1012 1013 1014 0
48 -69 991 992 993 994 995 996 997 998 999 1000 1001 1002 1003 1004 1005 1006 1007 1008 1009 1010 1011 1012 1013 1014 0
-48 69 991 992 993 994 995 996 997 998 999 1000 1001 1002 1003 1004 1005 1006 1007 1008 1009 1010 1011 1012 1013 1014 0
159 -175 991 992 993 994 995 996 997 998 999 1000 1001 1002 1003 1004 1005 1006 1007 1008 1009 1010 1011 1012 1013 1014 0
-159 175 991 992 993 994 995 996 997 998 999 1000 1001 1002 1003 1004 1005 1006 1007 1008 1009 1010 1011 1012 1013 1014 0
160 -176 991 992 993 994 995 996 997 998 999 1000 1001 1002 1003 1004 1005 1006 1007 1008 1009 1010 1011 1012 1013 1014 0
-160 176 991 992 993 994 995 996 997 998 999 1000 1001 1002 1003 1004 1005 1006 1007 1008 1009 1010 1011 1012 1013 1014 0
161 -177 991 992 993 994 995 996 997 998 999 1000 1001 1002 1003 1004 1005 1006 1007 1008 1009 1010 1011 1012 1013 1014 0
-161 177 991 992 993 994 995 996 997 998 999 1000 1001 1002 1003 1004 1005 1006 1007 1008 1009 1010 1011 1012 1013 1014 0
162 -178 991 992 993 994 995 996 997 998 999 1000 1001 1002 1003 1004 1005 1006 1007 1008 1009 1010 1011 1012 1013 1014 0
-162 178 991 992 993 994 995 996 997 998 999 1000 1001 1002 1003 1004 1005 1006 1007 1008 1009 1010 1011 1012 1013 1014 0
49 -70 1015 1016 1017 1018 1019 1020 1021 1022 1023 1024 1025 1026 1027 1028 1029 1030 1031 1032 1033 1034 1035 1036 1037 1038 0
-49 70 1015 1016 1017 1018 1019 1020 1021 1022 1023 1024 1025 1026 1027 1028 1029 1030 1031 1032 1033 1034 1035 1036 1037 1038 0
50 -71 1015 1016 1017 1018 1019 1020 1021 1022 1023 1024 1025 1026 1027 1028 1029 1030 1031 1032 1033 1034 1035 1036 1037 1038 0
-50 71 1015 1016 1017 1018 1019 1020 1021 1022 1023 1024 1025 1026 1027 1028 1029 1030 1031 1032 1033 1034 1035 1036 1037 1038 0
51 -72 1015 1016 1017 1018 1019 1020 1021 1022 1023 1024 1025 1026 1027 1028 1029 1030 1031 1032 1033 1034 1035 1036 1037 1038 0
-51 72 1015 1016 1017 1018 1019 1020 1021 1022 1023 1024 1025 1026 1027 1028 1029 1030 1031 1032 1033 1034 1035 1036 1037 1038 0
52 -73 1015 1016 1017 1018 1019 1020 1021 1022 1023 1024 1025 1026 1027 1028 1029 1030 1031 1032 1033 1034 1035 1036 1037 1038 0
-52 73 1015 1016 1017 1018 1019 1020 1021 1022 1023 1024 1025 1026 1027 1028 1029 1030 1031 1032 1033 1034 1035 1036 1037 1038 0
53 -74 1015 1016 1017 1018 1019 1020 1021 1022 1023 1024 1025 1026 1027 1028 1029 1030 1031 1032 1033 1034 1035 1036 1037 1038 0
-53 74 1015 1016 1017 1018 1019 1020 1021 1022 1023 1024 1025 1026 1027 1028 1029 1030 1031 1032 1033 1034 1035 1036 1037 1038 0
54 -75 1015 1016 1017 1018 1019 1020 1021 1022 1023 1024 1025 1026 1027 1028 1029 1030 1031 1032 1033 1034 1035 1036 1037 1038 0
-54 75 1015 1016 1017 1018 1019 1020 1021 1022 1023 1024 1025 1026 1027 1028 1029 1030 1031 1032 1033 1034 1035 1036 1037 1038 0
163 -179 1015 1016 1017 1018 1019 1020 1021 1022 1023 1024 1025 1026 1027 1028 1029 1030 1031 1032 1033 1034 1035 1036 1037 1038 0
-163 179 1015 1016 1017 1018 1019 1020 1021 1022 1023 1024 1025 1026 1027 1028 1029 1030 1031 1032 1033 1034 1035 1036 1037 1038 0
164 -180 1015 1016 1017 1018 1019 1020 1021 1022 1023 1024 1025 1026 1027 1028 1029 1030 1031 1032 1033 1034 1035 1036 1037 1038 0
-164 180 1015 1016 1017 1018 1019 1020 1021 1022 1023 1024 1025 1026 1027 1028 1029 1030 1031 1032 1033 1034 1035 1036 1037 1038 0
165 -181 1015 1016 1017 1018 1019 1020 1021 1022 1023 1024 1025 1026 1027 1028 1029 1030 1031 1032 1033 1034 1035 1036 1037 1038 0
-165 181 1015 1016 1017 1018 1019 1020 1021 1022 1023 1024 1025 1026 1027 1028 1029 1030 1031 1032 1033 1034 1035 1036 1037 1038 0
166 -182 1015 1016 1017 1018 1019 1020 1021 1022 1023 1024 1025 1026 1027 1028 1029 1030 1031 1032 1033 1034 1035 1036 1037 1038 0
-166 182 1015 1016 1017 1018 1019 1020 1021 1022 1023 1024 1025 1026 1027 1028 1029 1030 1031 1032 1033 1034 1035 1036 1037 1038 0
55 -76 1039 1040 1041 1042 1043 1044 1045 1046 1047 1048 1049 1050 1051 1052 1053 1054 1055 1056 1057 1058 0
-55 76 1039 1040 1041 1042 1043 1044 1045 1046 1047 1048 1049 1050 1051 1052 1053 1054 1055 1056 1057 1058 0
56 -77 1039 1040 1041 1042 1043 1044 1045 1046 1047 1048 1049 1050 1051 1052 1053 1054 1055 1056 1057 1058 0
-56 77 1039 1040 1041 1042 1043 1044 1045 1046 1047 1048 1049 1050 1051 1052 1053 1054 1055 1056 1057 1058 0
57 -78 1039 1040 1041 1042 1043 1044 1045 1046 1047 1048 1049 1050 1051 1052 1053 1054 1055 1056 1057 1058 0
-57 78 1039 1040 1041 1042 1043 1044 1045 1046 1047 1048 1049 1050 1051 1052 1053 1054 1055 1056 1057 1058 0
58 -79 1039 1040 1041 1042 1043 1044 1045 1046 1047 1048 1049 1050 1051 1052 1053 1054 1055 1056 1057 1058 0
-58 79 1039 1040 1041 1042 1043 1044 1045 1046 1047 1048 1049 1050 1051 1052 1053 1054 1055 1056 1057 1058 0
59 -80 1039 1040 1041 1042 1043 1044 1045 1046 1047 1048 1049 1050 1051 1052 1053 1054 1055 1056 1057 1058 0
-59 80 1039 1040 1041 1042 1043 1044 1045 1046 1047 1048 1049 1050 1051 1052 1053 1054 1055 1056 1057 1058 0
167 -183 1039 1040 1041 1042 1043 1044 1045 1046 1047 1048 1049 1050 1051 1052 1053 1054 1055 1056 1057 1058 0
-167 183 1039 1040 1041 1042 1043 1044 1045 1046 1047 1048 1049 1050 1051 1052 1053 1054 1055 1056 1057 1058 0
168 -184 1039 1040 1041 1042 1043 1044 1045 1046 1047 1048 1049 1050 1051 1052 1053 1054 1055 1056 1057 1058 0
-168 184 1039 1040 1041 1042 1043 1044 1045 1046 1047 1048 1049 1050 1051 1052 1053 1054 1055 1056 1057 1058 0
169 -185 1039 1040 1041 1042 1043 1044 1045 1046 1047 1048 1049 1050 1051 1052 1053 1054 1055 1056 1057 1058 0
-169 185 1039 1040 1041 1042 1043 1044 1045 1046 1047 1048 1049 1050 1051 1052 1053 1054 1055 1056 1057 1058 0
170 -186 1039 1040 1041 1042 1043 1044 1045 1046 1047 1048 1049 1050 1051 1052 1053 1054 1055 1056 1057 1058 0
-170 186 1039 1040 1041 1042 1043 1044 1045 1046 1047 1048 1049 1050 1051 1052 1053 1054 1055 1056 1057 1058 0
60 -81 1059 1060 1061 1062 1063 1064 1065 1066 1067 1068 1069 1070 1071 1072 1073 1074 0
-60 81 1059 1060 1061 1062 1063 1064 1065 1066 1067 1068 1069 1070 1071 1072 1073 1074 0
61 -82 1059 1060 1061 1062 1063 1064 1065 1066 1067 1068 1069 1070 1071 1072 1073 1074 0
-61 82 1059 1060 1061 1062 1063 1064 1065 1066 1067 1068 1069 1070 1071 1072 1073 1074 0
62 -83 1059 1060 1061 1062 1063 1064 1065 1066 1067 1068 1069 1070 1071 1072 1073 1074 0
-62 83 1059 1060 1061 1062 1063 1064 1065 1066 1067 1068 1069 1070 1071 1072 1073 1074 0
63 -84 1059 1060 1061 1062 1063 1064 1065 1066 1067 1068 1069 1070 1071 1072 1073 1074 0
-63 84 1059 1060 1061 1062 1063 1064 1065 1066 1067 1068 1069 1070 1071 1072 1073 1074 0
171 -187 1059 1060 1061 1062 1063 1064 1065 1066 1067 1068 1069 1070 1071 1072 1073 1074 0
-171 187 1059 1060 1061 1062 1063 1064 1065 1066 1067 1068 1069 1070 1071 1072 1073 1074 0
172 -188 1059 1060 1061 1062 1063 1064 1065 1066 1067 1068 1069 1070 1071 1072 1073 1074 0
-172 188 1059 1060 1061 1062 1063 1064 1065 1066 1067 1068 1069 1070 1071 1072 1073 1074 0
173 -189 1059 1060 1061 1062 1063 1064 1065 1066 1067 1068 1069 1070 1071 1072 1073 1074 0
-173 189 1059 1060 1061 1062 1063 1064 1065 1066 1067 1068 1069 1070 1071 1072 1073 1074 0
174 -190 1059 1060 1061 1062 1063 1064 1065 1066 1067 1068 1069 1070 1071 1072 1073 1074 0
-174 190 1059 1060 1061 1062 1063 1064 1065 1066 1067 1068 1069 1070 1071 1072 1073 1074 0
991 992 993 994 995 996 997 998 999 1000 1001 1002 1003 1004 1005 1006 1007 1008 1009 1010 1011 1012 1013 1014 1015 1016 1017 1018 1019 1020 1021 1022 1023 1024 1025 1026 1027 1028 1029 1030 1031 1032 1033 1034 1035 1036 1037 1038 1039 1040 1041 1042 1043 1044 1045 1046 1047 1048 1049 1050 1051 1052 1053 1054 1055 1056 1057 1058 1059 1060 1061 1062 1063 1064 1065 1066 1067 1068 1069 1070 1071 1072 1073 1074 0
-991 -992 0
-991 -993 0
-991 -994 0
-991 -995 0
-991 -996 0
-991 -997 0
-991 -998 0
-991 -999 0
-991 -1000 0
-991 -1001 0
-991 -1002 0
-991 -1003 0
-991 -1004 0
-991 -1005 0
-991 -1006 0
-991 -1007 0
-991 -1008 0
-991 -1009 0
-991 -1010 0
-991 -1011 0
-991 -1012 0
-991 -1013 0
-991 -1014 0
-991 -1015 0
-991 -1016 0
-991 -1017 0
-991 -1018 0
-991 -1019 0
-991 -1020 0
-991 -1021 0
-991 -1022 0
-991 -1023 0
-991 -1024 0
-991 -1025 0
-991 -1026 0
-991 -1027 0
-991 -1028 0
-991 -1029 0
-991 -1030 0
-991 -1031 0
-991 -1032 0
-991 -1033 0
-991 -1034 0
-991 -1035 0
-991 -1036 0
-991 -1037 0
-991 -1038 0
-991 -1039 0
-991 -1040 0
-991 -1041 0
-991 -1042 0
-991 -1043 0
-991 -1044 0
-991 -1045 0
-991 -1046 0
-991 -1047 0
-991 -1048 0
-991 -1049 0
-991 -1050 0
-991 -1051 0
-991 -1052 0
-991 -1053 0
-991 -1054 0
-991 -1055 0
-991 -1056 0
-991 -1057 0
-991 -1058 0
-991 -1059 0
-991 -1060 0
-991 -1061 0
-991 -1062 0
-991 -1063 0
-991 -1064 0
-991 -1065 0
-991 -1066 0
-991 -1067 0
-991 -1068 0
-991 -1069 0
-991 -1070 0
-991 -1071 0
-991 -1072 0
-991 -1073 0
-991 -1074 0
-992 -993 0
-992 -994 0
-992 -995 0
-992 -996 0
-992 -997 0
-992 -998 0
-992 -999 0
-992 -1000 0
-992 -1001 0
-992 -1002 0
-992 -1003 0
-992 -1004 0
-992 -1005 0
-992 -1006 0
-992 -1007 0
-992 -1008 0
-992 -1009 0
-992 -1010 0
-992 -1011 0
-992 -1012 0
-992 -1013 0
-992 -1014 0
-992 -1015 0
-992 -1016 0
-992 -1017 0
-992 -1018 0
-992 -1019 0
-992 -1020 0
-992 -1021 0
-992 -1022 0
-992 -1023 0
-992 -1024 0
-992 -1025 0
-992 -1026 0
-992 -1027 0
-992 -1028 0
-992 -1029 0
-992 -1030 0
-992 -1031 0
-992 -1032 0
-992 -1033 0
-992 -1034 0
-992 -1035 0
-992 -1036 0
-992 -1037 0
-992 -1038 0
-992 -1039 0
-992 -1040 0
-992 -1041 0
-992 -1042 0
-992 -1043 0
-992 -1044 0
-992 -1045 0
-992 -1046 0
-992 -1047 0
-992 -1048 0
-992 -1049 0
-992 -1050 0
-992 -1051 0
-992 -1052 0
-992 -1053 0
-992 -1054 0
-992 -1055 0
-992 -1056 0
-992 -1057 0
-992 -1058 0
-992 -1059 0
-992 -1060 0
-992 -1061 0
-992 -1062 0
-992 -1063 0
-992 -1064 0
-992 -1065 0
-992 -1066 0
-992 -1067 0
-992 -1068 0
-992 -1069 0
-992 -1070 0
-992 -1071 0
-992 -1072 0
-992 -1073 0
-992 -1074 0
-993 -994 0
-993 -995 0
-993 -996 0
-993 -997 0
-993 -998 0
-993 -999 0
-993 -1000 0
-993 -1001 0
-993 -1002 0
-993 -1003 0
-993 -1004 0
-993 -1005 0
-993 -1006 0
-993 -1007 0
-993 -1008 0
-993 -1009 0
-993 -1010 0
-993 -1011 0
-993 -1012 0
-993 -1013 0
-993 -1014 0
-993 -1015 0
-993 -1016 0
-993 -1017 0
-993 -1018 0
-993 -1019 0
-993 -1020 0
-993 -1021 0
-993 -1022 0
-993 -1023 0
-993 -1024 0
-993 -1025 0
-993 -1026 0
-993 -1027 0
-993 -1028 0
-993 -1029 0
-993 -1030 0
-993 -1031 0
-993 -1032 0
-993 -1033 0
-993 -1034 0
-993 -1035 0
-993 -1036 0
-993 -1037 0
-993 -1038 0
-993 -1039 0
-993 -1040 0
-993 -1041 0
-993 -1042 0
-993 -1043 0
-993 -1044 0
-993 -1045 0
-993 -1046 0
-993 -1047 0
-993 -1048 0
-993 -1049 0
-993 -1050 0
-993 -1051 0
-993 -1052 0
-993 -1053 0
-993 -1054 0
-993 -1055 0
-993 -1056 0
-993 -1057 0
-993 -1058 0
-993 -1059 0
-993 -1060 0
-993 -1061 0
-993 -1062 0
-993 -1063 0
-993 -1064 0
-993 -1065 0
-993 -1066 0
-993 -1067 0
-993 -1068 0
-993 -1069 0
-993 -1070 0
-993 -1071 0
-993 -1072 0
-993 -1073 0
-993 -1074 0
-994 -995 0
-994 -996 0
-994 -997 0
-994 -998 0
-994 -999 0
-994 -1000 0
-994 -1001 0
-994 -1002 0
-994 -1003 0
-994 -1004 0
-994 -1005 0
-994 -1006 0
-994 -1007 0
-994 -1008 0
-994 -1009 0
-994 -1010 0
-994 -1011 0
-994 -1012 0
-994 -1013 0
-994 -1014 0
-994 -1015 0
-994 -1016 0
-994 -1017 0
-994 -1018 0
-994 -1019 0
-994 -1020 0
-994 -1021 0
-994 -1022 0
-994 -1023 0
-994 -1024 0
-994 -1025 0
-994 -1026 0
-994 -1027 0
-994 -1028 0
-994 -1029 0
-994 -1030 0
-994 -1031 0
-994 -1032 0
-994 -1033 0
-994 -1034 0
-994 -1035 0
-994 -1036 0
-994 -1037 0
-994 -1038 0
-994 -1039 0
-994 -1040 0
-994 -1041 0
-994 -1042 0
-994 -1043 0
-994 -1044 0
-994 -1045 0
-994 -1046 0
-994 -1047 0
-994 -1048 0
-994 -1049 0
-994 -1050 0
-994 -1051 0
-994 -1052 0
-994 -1053 0
-994 -1054 0
-994 -1055 0
-994 -1056 0
-994 -1057 0
-994 -1058 0
-994 -1059 0
-994 -1060 0
-994 -1061 0
-994 -1062 0
-994 -1063 0
-994 -1064 0
-994 -1065 0
-994 -1066 0
-994 -1067 0
-994 -1068 0
-994 -1069 0
-994 -1070 0
-994 -1071 0
-994 -1072 0
-994 -1073 0
-994 -1074 0
-995 -996 0
-995 -997 0
-995 -998 0
-995 -999 0
-995 -1000 0
-995 -1001 0
-995 -1002 0
-995 -1003 0
-995 -1004 0
-995 -1005 0
-995 -1006 0
-995 -1007 0
-995 -1008 0
-995 -1009 0
-995 -1010 0
-995 -1011 0
-995 -1012 0
-995 -1013 0
-995 -1014 0
-995 -1015 0
-995 -1016 0
-995 -1017 0
-995 -1018 0
-995 -1019 0
-995 -1020 0
-995 -1021 0
-995 -1022 0
-995 -1023 0
-995 -1024 0
-995 -1025 0
-995 -1026 0
-995 -1027 0
-995 -1028 0
-995 -1029 0
-995 -1030 0
-995 -1031 0
-995 -1032 0
-995 -1033 0
-995 -1034 0
-995 -1035 0
-995 -1036 0
-995 -1037 0
-995 -1038 0
-995 -1039 0
-995 -1040 0
-995 -1041 0
-995 -1042 0
-995 -1043 0
-995 -1044 0
-995 -1045 0
-995 -1046 0
-995 -1047 0
-995 -1048 0
-995 -1049 0
-995 -1050 0
-995 -1051 0
-995 -1052 0
-995 -1053 0
-995 -1054 0
-995 -1055 0
-995 -1056 0
-995 -1057 0
-995 -1058 0
-995 -1059 0
-995 -1060 0
-995 -1061 0
-995 -1062 0
-995 -1063 0
-995 -1064 0
-995 -1065 0
-995 -1066 0
-995 -1067 0
-995 -1068 0
-995 -1069 0
-995 -1070 0
-995 -1071 0
-995 -1072 0
-995 -1073 0
-995 -1074 0
-996 -997 0
-996 -998 0
-996 -999 0
-996 -1000 0
-996 -1001 0
-996 -1002 0
-996 -1003 0
-996 -1004 0
-996 -1005 0
-996 -1006 0
-996 -1007 0
-996 -1008 0
-996 -1009 0
-996 -1010 0
-996 -1011 0
-996 -1012 0
-996 -1013 0
-996 -1014 0
-996 -1015 0
-996 -1016 0
-996 -1017 0
-996 -1018 0
-996 -1019 0
-996 -1020 0
-996 -1021 0
-996 -1022 0
-996 -1023 0
-996 -1024 0
-996 -1025 0
-996 -1026 0
-996 -1027 0
-996 -1028 0
-996 -1029 0
-996 -1030 0
-996 -1031 0
-996 -1032 0
-996 -1033 0
-996 -1034 0
-996 -1035 0
-996 -1036 0
-996 -1037 0
-996 -1038 0
-996 -1039 0
-996 -1040 0
-996 -1041 0
-996 -1042 0
-996 -1043 0
-996 -1044 0
-996 -1045 0
-996 -1046 0
-996 -1047 0
-996 -1048 0
-996 -1049 0
-996 -1050 0
-996 -1051 0
-996 -1052 0
-996 -1053 0
-996 -1054 0
-996 -1055 0
-996 -1056 0
-996 -1057 0
-996 -1058 0
-996 -1059 0
-996 -1060 0
-996 -1061 0
-996 -1062 0
-996 -1063 0
-996 -1064 0
-996 -1065 0
-996 -1066 0
-996 -1067 0
-996 -1068 0
-996 -1069 0
-996 -1070 0
-996 -1071 0
-996 -1072 0
-996 -1073 0
-996 -1074 0
-997 -998 0
-997 -999 0
-997 -1000 0
-997 -1001 0
-997 -1002 0
-997 -1003 0
-997 -1004 0
-997 -1005 0
-997 -1006 0
-997 -1007 0
-997 -1008 0
-997 -1009 0
-997 -1010 0
-997 -1011 0
-997 -1012 0
-997 -1013 0
-997 -1014 0
-997 -1015 0
-997 -1016 0
-997 -1017 0
-997 -1018 0
-997 -1019 0
-997 -1020 0
-997 -1021 0
-997 -1022 0
-997 -1023 0
-997 -1024 0
-997 -1025 0
-997 -1026 0
-997 -1027 0
-997 -1028 0
-997 -1029 0
-997 -1030 0
-997 -1031 0
-997 -1032 0
-997 -1033 0
-997 -1034 0
-997 -1035 0
-997 -1036 0
-997 -1037 0
-997 -1038 0
-997 -1039 0
-997 -1040 0
-997 -1041 0
-997 -1042 0
-997 -1043 0
-997 -1044 0
-997 -1045 0
-997 -1046 0
-997 -1047 0
-997 -1048 0
-997 -1049 0
-997 -1050 0
-997 -1051 0
-997 -1052 0
-997 -1053 0
-997 -1054 0
-997 -1055 0
-997 -1056 0
-997 -1057 0
-997 -1058 0
-997 -1059 0
-997 -1060 0
-997 -1061 0
-997 -1062 0
-997 -1063 0
-997 -1064 0
-997 -1065 0
-997 -1066 0
-997 -1067 0
-997 -1068 0
-997 -1069 0
-997 -1070 0
-997 -1071 0
-997 -1072 0
-997 -1073 0
-997 -1074 0
-998 -999 0
-998 -1000 0
-998 -1001 0
-998 -1002 0
-998 -1003 0
-998 -1004 0
-998 -1005 0
-998 -1006 0
-998 -1007 0
-998 -1008 0
-998 -1009 0
-998 -1010 0
-998 -1011 0
-998 -1012 0
-998 -1013 0
-998 -1014 0
-998 -1015 0
-998 -1016 0
-998 -1017 0
-998 -1018 0
-998 -1019 0
-998 -1020 0
-998 -1021 0
-998 -1022 0
-998 -1023 0
-998 -1024 0
-998 -1025 0
-998 -1026 0
-998 -1027 0
-998 -1028 0
-998 -1029 0
-998 -1030 0
-998 -1031 0
-998 -1032 0
-998 -1033 0
-998 -1034 0
-998 -1035 0
-998 -1036 0
-998 -1037 0
-998 -1038 0
-998 -1039 0
-998 -1040 0
-998 -1041 0
-998 -1042 0
-998 -1043 0
-998 -1044 0
-998 -1045 0
-998 -1046 0
-998 -1047 0
-998 -1048 0
-998 -1049 0
-998 -1050 0
-998 -1051 0
-998 -1052 0
-998 -1053 0
-998 -1054 0
-998 -1055 0
-998 -1056 0
-998 -1057 0
-998 -1058 0
-998 -1059 0
-998 -1060 0
-998 -1061 0
-998 -1062 0
-998 -1063 0
-998 -1064 0
-998 -1065 0
-998 -1066 0
-998 -1067 0
-998 -1068 0
-998 -1069 0
-998 -1070 0
-998 -1071 0
-998 -1072 0
-998 -1073 0
-998 -1074 0
-999 -1000 0
-999 -1001 0
-999 -1002 0
-999 -1003 0
-999 -1004 0
-999 -1005 0
-999 -1006 0
-999 -1007 0
-999 -1008 0
-999 -1009 0
-999 -1010 0
-999 -1011 0
-999 -1012 0
-999 -1013 0
-999 -1014 0
-999 -1015 0
-999 -1016 0
-999 -1017 0
-999 -1018 0
-999 -1019 0
-999 -1020 0
-999 -1021 0
-999 -1022 0
-999 -1023 0
-999 -1024 0
-999 -1025 0
-999 -1026 0
-999 -1027 0
-999 -1028 0
-999 -1029 0
-999 -1030 0
-999 -1031 0
-999 -1032 0
-999 -1033 0
-999 -1034 0
-999 -1035 0
-999 -1036 0
-999 -1037 0
-999 -1038 0
-999 -1039 0
-999 -1040 0
-999 -1041 0
-999 -1042 0
-999 -1043 0
-999 -1044 0
-999 -1045 0
-999 -1046 0
-999 -1047 0
-999 -1048 0
-999 -1049 0
-999 -1050 0
-999 -1051 0
-999 -1052 0
-999 -1053 0
-999 -1054 0
-999 -1055 0
-999 -1056 0
-999 -1057 0
-999 -1058 0
-999 -1059 0
-999 -1060 0
-999 -1061 0
-999 -1062 0
-999 -1063 0
-999 -1064 0
-999 -1065 0
-999 -1066 0
-999 -1067 0
-999 -1068 0
-999 -1069 0
-999 -1070 0
-999 -1071 0
-999 -1072 0
-999 -1073 0
-999 -1074 0
-1000 -1001 0
-1000 -1002 0
-1000 -1003 0
-1000 -1004 0
-1000 -1005 0
-1000 -1006 0
-1000 -1007 0
-1000 -1008 0
-1000 -1009 0
-1000 -1010 0
-1000 -1011 0
-1000 -1012 0
-1000 -1013 0
-1000 -1014 0
-1000 -1015 0
-1000 -1016 0
-1000 -1017 0
-1000 -1018 0
-1000 -1019 0
-1000 -1020 0
-1000 -1021 0
-1000 -1022 0
-1000 -1023 0
-1000 -1024 0
-1000 -1025 0
-1000 -1026 0
-1000 -1027 0
-1000 -1028 0
-1000 -1029 0
-1000 -1030 0
-1000 -1031 0
-1000 -1032 0
-1000 -1033 0
-1000 -1034 0
-1000 -1035 0
-1000 -1036 0
-1000 -1037 0
-1000 -1038 0
-1000 -1039 0
-1000 -1040 0
-1000 -1041 0
-1000 -1042 0
-1000 -1043 0
-1000 -1044 0
-1000 -1045 0
-1000 -1046 0
-1000 -1047 0
-1000 -1048 0
-1000 -1049 0
-1000 -1050 0
-1000 -1051 0
-1000 -1052 0
-1000 -1053 0
-1000 -1054 0
-1000 -1055 0
-1000 -1056 0
-1000 -1057 0
-1000 -1058 0
-1000 -1059 0
-1000 -1060 0
-1000 -1061 0
-1000 -1062 0
-1000 -1063 0
-1000 -1064 0
-1000 -1065 0
-1000 -1066 0
-1000 -1067 0
-1000 -1068 0
-1000 -1069 0
-1000 -1070 0
-1000 -1071 0
-1000 -1072 0
-1000 -1073 0
-1000 -1074 0
-1001 -1002 0
-1001 -1003 0
-1001 -1004 0
-1001 -1005 0
-1001 -1006 0
-1001 -1007 0
-1001 -1008 0
-1001 -1009 0
-1001 -1010 0
-1001 -1011 0
-1001 -1012 0
-1001 -1013 0
-1001 -1014 0
-1001 -1015 0
-1001 -1016 0
-1001 -1017 0
-1001 -1018 0
-1001 -1019 0
-1001 -1020 0
-1001 -1021 0
-1001 -1022 0
-1001 -1023 0
-1001 -1024 0
-1001 -1025 0
-1001 -1026 0
-1001 -1027 0
-1001 -1028 0
-1001 -1029 0
-1001 -1030 0
-1001 -1031 0
-1001 -1032 0
-1001 -1033 0
-1001 -1034 0
-1001 -1035 0
-1001 -1036 0
-1001 -1037 0
-1001 -1038 0
-1001 -1039 0
-1001 -1040 0
-1001 -1041 0
-1001 -1042 0
-1001 -1043 0
-1001 -1044 0
-1001 -1045 0
-1001 -1046 0
-1001 -1047 0
-1001 -1048 0
-1001 -1049 0
-1001 -1050 0
-1001 -1051 0
-1001 -1052 0
-1001 -1053 0
-1001 -1054 0
-1001 -1055 0
-1001 -1056 0
-1001 -1057 0
-1001 -1058 0
-1001 -1059 0
-1001 -1060 0
-1001 -1061 0
-1001 -1062 0
-1001 -1063 0
-1001 -1064 0
-1001 -1065 0
-1001 -1066 0
-1001 -1067 0
-1001 -1068 0
-1001 -1069 0
-1001 -1070 0
-1001 -1071 0
-1001 -1072 0
-1001 -1073 0
-1001 -1074 0
-1002 -1003 0
-1002 -1004 0
-1002 -1005 0
-1002 -1006 0
-1002 -1007 0
-1002 -1008 0
-1002 -1009 0
-1002 -1010 0
-1002 -1011 0
-1002 -1012 0
-1002 -1013 0
-1002 -1014 0
-1002 -1015 0
-1002 -1016 0
-1002 -1017 0
-1002 -1018 0
-1002 -1019 0
-1002 -1020 0
-1002 -1021 0
-1002 -1022 0
-1002 -1023 0
-1002 -1024 0
-1002 -1025 0
-1002 -1026 0
-1002 -1027 0
-1002 -1028 0
-1002 -1029 0
-1002 -1030 0
-1002 -1031 0
-1002 -1032 0
-1002 -1033 0
-1002 -1034 0
-1002 -1035 0
-1002 -1036 0
-1002 -1037 0
-1002 -1038 0
-1002 -1039 0
-1002 -1040 0
-1002 -1041 0
-1002 -1042 0
-1002 -1043 0
-1002 -1044 0
-1002 -1045 0
-1002 -1046 0
-1002 -1047 0
-1002 -1048 0
-1002 -1049 0
-1002 -1050 0
-1002 -1051 0
-1002 -1052 0
-1002 -1053 0
-1002 -1054 0
-1002 -1055 0
-1002 -1056 0
-1002 -1057 0
-1002 -1058 0
-1002 -1059 0
-1002 -1060 0
-1002 -1061 0
-1002 -1062 0
-1002 -1063 0
-1002 -1064 0
-1002 -1065 0
-1002 -1066 0
-1002 -1067 0
-1002 -1068 0
-1002 -1069 0
-1002 -1070 0
-1002 -1071 0
-1002 -1072 0
-1002 -1073 0
-1002 -1074 0
-1003 -1004 0
-1003 -1005 0
-1003 -1006 0
-1003 -1007 0
-1003 -1008 0
-1003 -1009 0
-1003 -1010 0
-1003 -1011 0
-1003 -1012 0
-1003 -1013 0
-1003 -1014 0
-1003 -1015 0
-1003 -1016 0
-1003 -1017 0
-1003 -1018 0
-1003 -1019 0
-1003 -1020 0
-1003 -1021 0
-1003 -1022 0
-1003 -1023 0
-1003 -1024 0
-1003 -1025 0
-1003 -1026 0
-1003 -1027 0
-1003 -1028 0
-1003 -1029 0
-1003 -1030 0
-1003 -1031 0
-1003 -1032 0
-1003 -1033 0
-1003 -1034 0
-1003 -1035 0
-1003 -1036 0
-1003 -1037 0
-1003 -1038 0
-1003 -1039 0
-1003 -1040 0
-1003 -1041 0
-1003 -1042 0
-1003 -1043 0
-1003 -1044 0
-1003 -1045 0
-1003 -1046 0
-1003 -1047 0
-1003 -1048 0
-1003 -1049 0
-1003 -1050 0
-1003 -1051 0
-1003 -1052 0
-1003 -1053 0
-1003 -1054 0
-1003 -1055 0
-1003 -1056 0
-1003 -1057 0
-1003 -1058 0
-1003 -1059 0
-1003 -1060 0
-1003 -1061 0
-1003 -1062 0
-1003 -1063 0
-1003 -1064 0
-1003 -1065 0
-1003 -1066 0
-1003 -1067 0
-1003 -1068 0
-1003 -1069 0
-1003 -1070 0
-1003 -1071 0
-1003 -1072 0
-1003 -1073 0
-1003 -1074 0
-1004 -1005 0
-1004 -1006 0
-1004 -1007 0
-1004 -1008 0
-1004 -1009 0
-1004 -1010 0
-1004 -1011 0
-1004 -1012 0
-1004 -1013 0
-1004 -1014 0
-1004 -1015 0
-1004 -1016 0
-1004 -1017 0
-1004 -1018 0
-1004 -1019 0
-1004 -1020 0
-1004 -1021 0
-1004 -1022 0
-1004 -1023 0
-1004 -1024 0
-1004 -1025 0
-1004 -1026 0
-1004 -1027 0
-1004 -1028 0
-1004 -1029 0
-1004 -1030 0
-1004 -1031 0
-1004 -1032 0
-1004 -1033 0
-1004 -1034 0
-1004 -1035 0
-1004 -1036 0
-1004 -1037 0
-1004 -1038 0
-1004 -1039 0
-1004 -1040 0
-1004 -1041 0
-1004 -1042 0
-1004 -1043 0
-1004 -1044 0
-1004 -1045 0
-1004 -1046 0
-1004 -1047 0
-1004 -1048 0
-1004 -1049 0
-1004 -1050 0
-1004 -1051 0
-1004 -1052 0
-1004 -1053 0
-1004 -1054 0
-1004 -1055 0
-1004 -1056 0
-1004 -1057 0
-1004 -1058 0
-1004 -1059 0
-1004 -1060 0
-1004 -1061 0
-1004 -1062 0
-1004 -1063 0
-1004 -1064 0
-1004 -1065 0
-1004 -1066 0
-1004 -1067 0
-1004 -1068 0
-1004 -1069 0
-1004 -1070 0
-1004 -1071 0
-1004 -1072 0
-1004 -1073 0
-1004 -1074 0
-1005 -1006 0
-1005 -1007 0
-1005 -1008 0
-1005 -1009 0
-1005 -1010 0
-1005 -1011 0
-1005 -1012 0
-1005 -1013 0
-1005 -1014 0
-1005 -1015 0
-1005 -1016 0
-1005 -1017 0
-1005 -1018 0
-1005 -1019 0
-1005 -1020 0
-1005 -1021 0
-1005 -1022 0
-1005 -1023 0
-1005 -1024 0
-1005 -1025 0
-1005 -1026 0
-1005 -1027 0
-1005 -1028 0
-1005 -1029 0
-1005 -1030 0
-1005 -1031 0
-1005 -1032 0
-1005 -1033 0
-1005 -1034 0
-1005 -1035 0
-1005 -1036 0
-1005 -1037 0
-1005 -1038 0
-1005 -1039 0
-1005 -1040 0
-1005 -1041 0
-1005 -1042 0
-1005 -1043 0
-1005 -1044 0
-1005 -1045 0
-1005 -1046 0
-1005 -1047 0
-1005 -1048 0
-1005 -1049 0
-1005 -1050 0
-1005 -1051 0
-1005 -1052 0
-1005 -1053 0
-1005 -1054 0
-1005 -1055 0
-1005 -1056 0
-1005 -1057 0
-1005 -1058 0
-1005 -1059 0
-1005 -1060 0
-1005 -1061 0
-1005 -1062 0
-1005 -1063 0
-1005 -1064 0
-1005 -1065 0
-1005 -1066 0
-1005 -1067 0
-1005 -1068 0
-1005 -1069 0
-1005 -1070 0
-1005 -1071 0
-1005 -1072 0
-1005 -1073 0
-1005 -1074 0
-1006 -1007 0
-1006 -1008 0
-1006 -1009 0
-1006 -1010 0
-1006 -1011 0
-1006 -1012 0
-1006 -1013 0
-1006 -1014 0
-1006 -1015 0
-1006 -1016 0
-1006 -1017 0
-1006 -1018 0
-1006 -1019 0
-1006 -1020 0
-1006 -1021 0
-1006 -1022 0
-1006 -1023 0
-1006 -1024 0
-1006 -1025 0
-1006 -1026 0
-1006 -1027 0
-1006 -1028 0
-1006 -1029 0
-1006 -1030 0
-1006 -1031 0
-1006 -1032 0
-1006 -1033 0
-1006 -1034 0
-1006 -1035 0
-1006 -1036 0
-1006 -1037 0
-1006 -1038 0
-1006 -1039 0
-1006 -1040 0
-1006 -1041 0
-1006 -1042 0
-1006 -1043 0
-1006 -1044 0
-1006 -1045 0
-1006 -1046 0
-1006 -1047 0
-1006 -1048 0
-1006 -1049 0
-1006 -1050 0
-1006 -1051 0
-1006 -1052 0
-1006 -1053 0
-1006 -1054 0
-1006 -1055 0
-1006 -1056 0
-1006 -1057 0
-1006 -1058 0
-1006 -1059 0
-1006 -1060 0
-1006 -1061 0
-1006 -1062 0
-1006 -1063 0
-1006 -1064 0
-1006 -1065 0
-1006 -1066 0
-1006 -1067 0
-1006 -1068 0
-1006 -1069 0
-1006 -1070 0
-1006 -1071 0
-1006 -1072 0
-1006 -1073 0
-1006 -1074 0
-1007 -1008 0
-1007 -1009 0
-1007 -1010 0
-1007 -1011 0
-1007 -1012 0
-1007 -1013 0
-1007 -1014 0
-1007 -1015 0
-1007 -1016 0
-1007 -1017 0
-1007 -1018 0
-1007 -1019 0
-1007 -1020 0
-1007 -1021 0
-1007 -1022 0
-1007 -1023 0
-1007 -1024 0
-1007 -1025 0
-1007 -1026 0
-1007 -1027 0
-1007 -1028 0
-1007 -1029 0
-1007 -1030 0
-1007 -1031 0
-1007 -1032 0
-1007 -1033 0
-1007 -1034 0
-1007 -1035 0
-1007 -1036 0
-1007 -1037 0
-1007 -1038 0
-1007 -1039 0
-1007 -1040 0
-1007 -1041 0
-1007 -1042 0
-1007 -1043 0
-1007 -1044 0
-1007 -1045 0
-1007 -1046 0
-1007 -1047 0
-1007 -1048 0
-1007 -1049 0
-1007 -1050 0
-1007 -1051 0
-1007 -1052 0
-1007 -1053 0
-1007 -1054 0
-1007 -1055 0
-1007 -1056 0
-1007 -1057 0
-1007 -1058 0
-1007 -1059 0
-1007 -1060 0
-1007 -1061 0
-1007 -1062 0
-1007 -1063 0
-1007 -1064 0
-1007 -1065 0
-1007 -1066 0
-1007 -1067 0
-1007 -1068 0
-1007 -1069 0
-1007 -1070 0
-1007 -1071 0
-1007 -1072 0
-1007 -1073 0
-1007 -1074 0
-1008 -1009 0
-1008 -1010 0
-1008 -1011 0
-1008 -1012 0
-1008 -1013 0
-1008 -1014 0
-1008 -1015 0
-1008 -1016 0
-1008 -1017 0
-1008 -1018 0
-1008 -1019 0
-1008 -1020 0
-1008 -1021 0
-1008 -1022 0
-1008 -1023 0
-1008 -1024 0
-1008 -1025 0
-1008 -1026 0
-1008 -1027 0
-1008 -1028 0
-1008 -1029 0
-1008 -1030 0
-1008 -1031 0
-1008 -1032 0
-1008 -1033 0
-1008 -1034 0
-1008 -1035 0
-1008 -1036 0
-1008 -1037 0
-1008 -1038 0
-1008 -1039 0
-1008 -1040 0
-1008 -1041 0
-1008 -1042 0
-1008 -1043 0
-1008 -1044 0
-1008 -1045 0
-1008 -1046 0
-1008 -1047 0
-1008 -1048 0
-1008 -1049 0
-1008 -1050 0
-1008 -1051 0
-1008 -1052 0
-1008 -1053 0
-1008 -1054 0
-1008 -1055 0
-1008 -1056 0
-1008 -1057 0
-1008 -1058 0
-1008 -1059 0
-1008 -1060 0
-1008 -1061 0
-1008 -1062 0
-1008 -1063 0
-1008 -1064 0
-1008 -1065 0
-1008 -1066 0
-1008 -1067 0
-1008 -1068 0
-1008 -1069 0
-1008 -1070 0
-1008 -1071 0
-1008 -1072 0
-1008 -1073 0
-1008 -1074 0
-1009 -1010 0
-1009 -1011 0
-1009 -1012 0
-1009 -1013 0
-1009 -1014 0
-1009 -1015 0
-1009 -1016 0
-1009 -1017 0
-1009 -1018 0
-1009 -1019 0
-1009 -1020 0
-1009 -1021 0
-1009 -1022 0
-1009 -1023 0
-1009 -1024 0
-1009 -1025 0
-1009 -1026 0
-1009 -1027 0
-1009 -1028 0
-1009 -1029 0
-1009 -1030 0
-1009 -1031 0
-1009 -1032 0
-1009 -1033 0
-1009 -1034 0
-1009 -1035 0
-1009 -1036 0
-1009 -1037 0
-1009 -1038 0
-1009 -1039 0
-1009 -1040 0
-1009 -1041 0
-1009 -1042 0
-1009 -1043 0
-1009 -1044 0
-1009 -1045 0
-1009 -1046 0
-1009 -1047 0
-1009 -1048 0
-1009 -1049 0
-1009 -1050 0
-1009 -1051 0
-1009 -1052 0
-1009 -1053 0
-1009 -1054 0
-1009 -1055 0
-1009 -1056 0
-1009 -1057 0
-1009 -1058 0
-1009 -1059 0
-1009 -1060 0
-1009 -1061 0
-1009 -1062 0
-1009 -1063 0
-1009 -1064 0
-1009 -1065 0
-1009 -1066 0
-1009 -1067 0
-1009 -1068 0
-1009 -1069 0
-1009 -1070 0
-1009 -1071 0
-1009 -1072 0
-1009 -1073 0
-1009 -1074 0
-1010 -1011 0
-1010 -1012 0
-1010 -1013 0
-1010 -1014 0
-1010 -1015 0
-1010 -1016 0
-1010 -1017 0
-1010 -1018 0
-1010 -1019 0
-1010 -1020 0
-1010 -1021 0
-1010 -1022 0
-1010 -1023 0
-1010 -1024 0
-1010 -1025 0
-1010 -1026 0
-1010 -1027 0
-1010 -1028 0
-1010 -1029 0
-1010 -1030 0
-1010 -1031 0
-1010 -1032 0
-1010 -1033 0
-1010 -1034 0
-1010 -1035 0
-1010 -1036 0
-1010 -1037 0
-1010 -1038 0
-1010 -1039 0
-1010 -1040 0
-1010 -1041 0
-1010 -1042 0
-1010 -1043 0
-1010 -1044 0
-1010 -1045 0
-1010 -1046 0
-1010 -1047 0
-1010 -1048 0
-1010 -1049 0
-1010 -1050 0
-1010 -1051 0
-1010 -1052 0
-1010 -1053 0
-1010 -1054 0
-1010 -1055 0
-1010 -1056 0
-1010 -1057 0
-1010 -1058 0
-1010 -1059 0
-1010 -1060 0
-1010 -1061 0
-1010 -1062 0
-1010 -1063 0
-1010 -1064 0
-1010 -1065 0
-1010 -1066 0
-1010 -1067 0
-1010 -1068 0
-1010 -1069 0
-1010 -1070 0
-1010 -1071 0
-1010 -1072 0
-1010 -1073 0
-1010 -1074 0
-1011 -1012 0
-1011 -1013 0
-1011 -1014 0
-1011 -1015 0
-1011 -1016 0
-1011 -1017 0
-1011 -1018 0
-1011 -1019 0
-1011 -1020 0
-1011 -1021 0
-1011 -1022 0
-1011 -1023 0
-1011 -1024 0
-1011 -1025 0
-1011 -1026 0
-1011 -1027 0
-1011 -1028 0
-1011 -1029 0
-1011 -1030 0
-1011 -1031 0
-1011 -1032 0
-1011 -1033 0
-1011 -1034 0
-1011 -1035 0
-1011 -1036 0
-1011 -1037 0
-1011 -1038 0
-1011 -1039 0
-1011 -1040 0
-1011 -1041 0
-1011 -1042 0
-1011 -1043 0
-1011 -1044 0
-1011 -1045 0
-1011 -1046 0
-1011 -1047 0
-1011 -1048 0
-1011 -1049 0
-1011 -1050 0
-1011 -1051 0
-1011 -1052 0
-1011 -1053 0
-1011 -1054 0
-1011 -1055 0
-1011 -1056 0
-1011 -1057 0
-1011 -1058 0
-1011 -1059 0
-1011 -1060 0
-1011 -1061 0
-1011 -1062 0
-1011 -1063 0
-1011 -1064 0
-1011 -1065 0
-1011 -1066 0
-1011 -1067 0
-1011 -1068 0
-1011 -1069 0
-1011 -1070 0
-1011 -1071 0
-1011 -1072 0
-1011 -1073 0
-1011 -1074 0
-1012 -1013 0
-1012 -1014 0
-1012 -1015 0
-1012 -1016 0
-1012 -1017 0
-1012 -1018 0
-1012 -1019 0
-1012 -1020 0
-1012 -1021 0
-1012 -1022 0
-1012 -1023 0
-1012 -1024 0
-1012 -1025 0
-1012 -1026 0
-1012 -1027 0
-1012 -1028 0
-1012 -1029 0
-1012 -1030 0
-1012 -1031 0
-1012 -1032 0
-1012 -1033 0
-1012 -1034 0
-1012 -1035 0
-1012 -1036 0
-1012 -1037 0
-1012 -1038 0
-1012 -1039 0
-1012 -1040 0
-1012 -1041 0
-1012 -1042 0
-1012 -1043 0
-1012 -1044 0
-1012 -1045 0
-1012 -1046 0
-1012 -1047 0
-1012 -1048 0
-1012 -1049 0
-1012 -1050 0
-1012 -1051 0
-1012 -1052 0
-1012 -1053 0
-1012 -1054 0
-1012 -1055 0
-1012 -1056 0
-1012 -1057 0
-1012 -1058 0
-1012 -1059 0
-1012 -1060 0
-1012 -1061 0
-1012 -1062 0
-1012 -1063 0
-1012 -1064 0
-1012 -1065 0
-1012 -1066 0
-1012 -1067 0
-1012 -1068 0
-1012 -1069 0
-1012 -1070 0
-1012 -1071 0
-1012 -1072 0
-1012 -1073 0
-1012 -1074 0
-1013 -1014 0
-1013 -1015 0
-1013 -1016 0
-1013 -1017 0
-1013 -1018 0
-1013 -1019 0
-1013 -1020 0
-1013 -1021 0
-1013 -1022 0
-1013 -1023 0
-1013 -1024 0
-1013 -1025 0
-1013 -1026 0
-1013 -1027 0
-1013 -1028 0
-1013 -1029 0
-1013 -1030 0
-1013 -1031 0
-1013 -1032 0
-1013 -1033 0
-1013 -1034 0
-1013 -1035 0
-1013 -1036 0
-1013 -1037 0
-1013 -1038 0
-1013 -1039 0
-1013 -1040 0
-1013 -1041 0
-1013 -1042 0
-1013 -1043 0
-1013 -1044 0
-1013 -1045 0
-1013 -1046 0
-1013 -1047 0
-1013 -1048 0
-1013 -1049 0
-1013 -1050 0
-1013 -1051 0
-1013 -1052 0
-1013 -1053 0
-1013 -1054 0
-1013 -1055 0
-1013 -1056 0
-1013 -1057 0
-1013 -1058 0
-1013 -1059 0
-1013 -1060 0
-1013 -1061 0
-1013 -1062 0
-1013 -1063 0
-1013 -1064 0
-1013 -1065 0
-1013 -1066 0
-1013 -1067 0
-1013 -1068 0
-1013 -1069 0
-1013 -1070 0
-1013 -1071 0
-1013 -1072 0
-1013 -1073 0
-1013 -1074 0
-1014 -1015 0
-1014 -1016 0
-1014 -1017 0
-1014 -1018 0
-1014 -1019 0
-1014 -1020 0
-1014 -1021 0
-1014 -1022 0
-1014 -1023 0
-1014 -1024 0
-1014 -1025 0
-1014 -1026 0
-1014 -1027 0
-1014 -1028 0
-1014 -1029 0
-1014 -1030 0
-1014 -1031 0
-1014 -1032 0
-1014 -1033 0
-1014 -1034 0
-1014 -1035 0
-1014 -1036 0
-1014 -1037 0
-1014 -1038 0
-1014 -1039 0
-1014 -1040 0
-1014 -1041 0
-1014 -1042 0
-1014 -1043 0
-1014 -1044 0
-1014 -1045 0
-1014 -1046 0
-1014 -1047 0
-1014 -1048 0
-1014 -1049 0
-1014 -1050 0
-1014 -1051 0
-1014 -1052 0
-1014 -1053 0
-1014 -1054 0
-1014 -1055 0
-1014 -1056 0
-1014 -1057 0
-1014 -1058 0
-1014 -1059 0
-1014 -1060 0
-1014 -1061 0
-1014 -1062 0
-1014 -1063 0
-1014 -1064 0
-1014 -1065 0
-1014 -1066 0
-1014 -1067 0
-1014 -1068 0
-1014 -1069 0
-1014 -1070 0
-1014 -1071 0
-1014 -1072 0
-1014 -1073 0
-1014 -1074 0
-1015 -1016 0
-1015 -1017 0
-1015 -1018 0
-1015 -1019 0
-1015 -1020 0
-1015 -1021 0
-1015 -1022 0
-1015 -1023 0
-1015 -1024 0
-1015 -1025 0
-1015 -1026 0
-1015 -1027 0
-1015 -1028 0
-1015 -1029 0
-1015 -1030 0
-1015 -1031 0
-1015 -1032 0
-1015 -1033 0
-1015 -1034 0
-1015 -1035 0
-1015 -1036 0
-1015 -1037 0
-1015 -1038 0
-1015 -1039 0
-1015 -1040 0
-1015 -1041 0
-1015 -1042 0
-1015 -1043 0
-1015 -1044 0
-1015 -1045 0
-1015 -1046 0
-1015 -1047 0
-1015 -1048 0
-1015 -1049 0
-1015 -1050 0
-1015 -1051 0
-1015 -1052 0
-1015 -1053 0
-1015 -1054 0
-1015 -1055 0
-1015 -1056 0
-1015 -1057 0
-1015 -1058 0
-1015 -1059 0
-1015 -1060 0
-1015 -1061 0
-1015 -1062 0
-1015 -1063 0
-1015 -1064 0
-1015 -1065 0
-1015 -1066 0
-1015 -1067 0
-1015 -1068 0
-1015 -1069 0
-1015 -1070 0
-1015 -1071 0
-1015 -1072 0
-1015 -1073 0
-1015 -1074 0
-1016 -1017 0
-1016 -1018 0
-1016 -1019 0
-1016 -1020 0
-1016 -1021 0
-1016 -1022 0
-1016 -1023 0
-1016 -1024 0
-1016 -1025 0
-1016 -1026 0
-1016 -1027 0
-1016 -1028 0
-1016 -1029 0
-1016 -1030 0
-1016 -1031 0
-1016 -1032 0
-1016 -1033 0
-1016 -1034 0
-1016 -1035 0
-1016 -1036 0
-1016 -1037 0
-1016 -1038 0
-1016 -1039 0
-1016 -1040 0
-1016 -1041 0
-1016 -1042 0
-1016 -1043 0
-1016 -1044 0
-1016 -1045 0
-1016 -1046 0
-1016 -1047 0
-1016 -1048 0
-1016 -1049 0
-1016 -1050 0
-1016 -1051 0
-1016 -1052 0
-1016 -1053 0
-1016 -1054 0
-1016 -1055 0
-1016 -1056 0
-1016 -1057 0
-1016 -1058 0
-1016 -1059 0
-1016 -1060 0
-1016 -1061 0
-1016 -1062 0
-1016 -1063 0
-1016 -1064 0
-1016 -1065 0
-1016 -1066 0
-1016 -1067 0
-1016 -1068 0
-1016 -1069 0
-1016 -1070 0
-1016 -1071 0
-1016 -1072 0
-1016 -1073 0
-1016 -1074 0
-1017 -1018 0
-1017 -1019 0
-1017 -1020 0
-1017 -1021 0
-1017 -1022 0
-1017 -1023 0
-1017 -1024 0
-1017 -1025 0
-1017 -1026 0
-1017 -1027 0
-1017 -1028 0
-1017 -1029 0
-1017 -1030 0
-1017 -1031 0
-1017 -1032 0
-1017 -1033 0
-1017 -1034 0
-1017 -1035 0
-1017 -1036 0
-1017 -1037 0
-1017 -1038 0
-1017 -1039 0
-1017 -1040 0
-1017 -1041 0
-1017 -1042 0
-1017 -1043 0
-1017 -1044 0
-1017 -1045 0
-1017 -1046 0
-1017 -1047 0
-1017 -1048 0
-1017 -1049 0
-1017 -1050 0
-1017 -1051 0
-1017 -1052 0
-1017 -1053 0
-1017 -1054 0
-1017 -1055 0
-1017 -1056 0
-1017 -1057 0
-1017 -1058 0
-1017 -1059 0
-1017 -1060 0
-1017 -1061 0
-1017 -1062 0
-1017 -1063 0
-1017 -1064 0
-1017 -1065 0
-1017 -1066 0
-1017 -1067 0
-1017 -1068 0
-1017 -1069 0
-1017 -1070 0
-1017 -1071 0
-1017 -1072 0
-1017 -1073 0
-1017 -1074 0
-1018 -1019 0
-1018 -1020 0
-1018 -1021 0
-1018 -1022 0
-1018 -1023 0
-1018 -1024 0
-1018 -1025 0
-1018 -1026 0
-1018 -1027 0
-1018 -1028 0
-1018 -1029 0
-1018 -1030 0
-1018 -1031 0
-1018 -1032 0
-1018 -1033 0
-1018 -1034 0
-1018 -1035 0
-1018 -1036 0
-1018 -1037 0
-1018 -1038 0
-1018 -1039 0
-1018 -1040 0
-1018 -1041 0
-1018 -1042 0
-1018 -1043 0
-1018 -1044 0
-1018 -1045 0
-1018 -1046 0
-1018 -1047 0
-1018 -1048 0
-1018 -1049 0
-1018 -1050 0
-1018 -1051 0
-1018 -1052 0
-1018 -1053 0
-1018 -1054 0
-1018 -1055 0
-1018 -1056 0
-1018 -1057 0
-1018 -1058 0
-1018 -1059 0
-1018 -1060 0
-1018 -1061 0
-1018 -1062 0
-1018 -1063 0
-1018 -1064 0
-1018 -1065 0
-1018 -1066 0
-1018 -1067 0
-1018 -1068 0
-1018 -1069 0
-1018 -1070 0
-1018 -1071 0
-1018 -1072 0
-1018 -1073 0
-1018 -1074 0
-1019 -1020 0
-1019 -1021 0
-1019 -1022 0
-1019 -1023 0
-1019 -1024 0
-1019 -1025 0
-1019 -1026 0
-1019 -1027 0
-1019 -1028 0
-1019 -1029 0
-1019 -1030 0
-1019 -1031 0
-1019 -1032 0
-1019 -1033 0
-1019 -1034 0
-1019 -1035 0
-1019 -1036 0
-1019 -1037 0
-1019 -1038 0
-1019 -1039 0
-1019 -1040 0
-1019 -1041 0
-1019 -1042 0
-1019 -1043 0
-1019 -1044 0
-1019 -1045 0
-1019 -1046 0
-1019 -1047 0
-1019 -1048 0
-1019 -1049 0
-1019 -1050 0
-1019 -1051 0
-1019 -1052 0
-1019 -1053 0
-1019 -1054 0
-1019 -1055 0
-1019 -1056 0
-1019 -1057 0
-1019 -1058 0
-1019 -1059 0
-1019 -1060 0
-1019 -1061 0
-1019 -1062 0
-1019 -1063 0
-1019 -1064 0
-1019 -1065 0
-1019 -1066 0
-1019 -1067 0
-1019 -1068 0
-1019 -1069 0
-1019 -1070 0
-1019 -1071 0
-1019 -1072 0
-1019 -1073 0
-1019 -1074 0
-1020 -1021 0
-1020 -1022 0
-1020 -1023 0
-1020 -1024 0
-1020 -1025 0
-1020 -1026 0
-1020 -1027 0
-1020 -1028 0
-1020 -1029 0
-1020 -1030 0
-1020 -1031 0
-1020 -1032 0
-1020 -1033 0
-1020 -1034 0
-1020 -1035 0
-1020 -1036 0
-1020 -1037 0
-1020 -1038 0
-1020 -1039 0
-1020 -1040 0
-1020 -1041 0
-1020 -1042 0
-1020 -1043 0
-1020 -1044 0
-1020 -1045 0
-1020 -1046 0
-1020 -1047 0
-1020 -1048 0
-1020 -1049 0
-1020 -1050 0
-1020 -1051 0
-1020 -1052 0
-1020 -1053 0
-1020 -1054 0
-1020 -1055 0
-1020 -1056 0
-1020 -1057 0
-1020 -1058 0
-1020 -1059 0
-1020 -1060 0
-1020 -1061 0
-1020 -1062 0
-1020 -1063 0
-1020 -1064 0
-1020 -1065 0
-1020 -1066 0
-1020 -1067 0
-1020 -1068 0
-1020 -1069 0
-1020 -1070 0
-1020 -1071 0
-1020 -1072 0
-1020 -1073 0
-1020 -1074 0
-1021 -1022 0
-1021 -1023 0
-1021 -1024 0
-1021 -1025 0
-1021 -1026 0
-1021 -1027 0
-1021 -1028 0
-1021 -1029 0
-1021 -1030 0
-1021 -1031 0
-1021 -1032 0
-1021 -1033 0
-1021 -1034 0
-1021 -1035 0
-1021 -1036 0
-1021 -1037 0
-1021 -1038 0
-1021 -1039 0
-1021 -1040 0
-1021 -1041 0
-1021 -1042 0
-1021 -1043 0
-1021 -1044 0
-1021 -1045 0
-1021 -1046 0
-1021 -1047 0
-1021 -1048 0
-1021 -1049 0
-1021 -1050 0
-1021 -1051 0
-1021 -1052 0
-1021 -1053 0
-1021 -1054 0
-1021 -1055 0
-1021 -1056 0
-1021 -1057 0
-1021 -1058 0
-1021 -1059 0
-1021 -1060 0
-1021 -1061 0
-1021 -1062 0
-1021 -1063 0
-1021 -1064 0
-1021 -1065 0
-1021 -1066 0
-1021 -1067 0
-1021 -1068 0
-1021 -1069 0
-1021 -1070 0
-1021 -1071 0
-1021 -1072 0
-1021 -1073 0
-1021 -1074 0
-1022 -1023 0
-1022 -1024 0
-1022 -1025 0
-1022 -1026 0
-1022 -1027 0
-1022 -1028 0
-1022 -1029 0
-1022 -1030 0
-1022 -1031 0
-1022 -1032 0
-1022 -1033 0
-1022 -1034 0
-1022 -1035 0
-1022 -1036 0
-1022 -1037 0
-1022 -1038 0
-1022 -1039 0
-1022 -1040 0
-1022 -1041 0
-1022 -1042 0
-1022 -1043 0
-1022 -1044 0
-1022 -1045 0
-1022 -1046 0
-1022 -1047 0
-1022 -1048 0
-1022 -1049 0
-1022 -1050 0
-1022 -1051 0
-1022 -1052 0
-1022 -1053 0
-1022 -1054 0
-1022 -1055 0
-1022 -1056 0
-1022 -1057 0
-1022 -1058 0
-1022 -1059 0
-1022 -1060 0
-1022 -1061 0
-1022 -1062 0
-1022 -1063 0
-1022 -1064 0
-1022 -1065 0
-1022 -1066 0
-1022 -1067 0
-1022 -1068 0
-1022 -1069 0
-1022 -1070 0
-1022 -1071 0
-1022 -1072 0
-1022 -1073 0
-1022 -1074 0
-1023 -1024 0
-1023 -1025 0
-1023 -1026 0
-1023 -1027 0
-1023 -1028 0
-1023 -1029 0
-1023 -1030 0
-1023 -1031 0
-1023 -1032 0
-1023 -1033 0
-1023 -1034 0
-1023 -1035 0
-1023 -1036 0
-1023 -1037 0
-1023 -1038 0
-1023 -1039 0
-1023 -1040 0
-1023 -1041 0
-1023 -1042 0
-1023 -1043 0
-1023 -1044 0
-1023 -1045 0
-1023 -1046 0
-1023 -1047 0
-1023 -1048 0
-1023 -1049 0
-1023 -1050 0
-1023 -1051 0
-1023 -1052 0
-1023 -1053 0
-1023 -1054 0
-1023 -1055 0
-1023 -1056 0
-1023 -1057 0
-1023 -1058 0
-1023 -1059 0
-1023 -1060 0
-1023 -1061 0
-1023 -1062 0
-1023 -1063 0
-1023 -1064 0
-1023 -1065 0
-1023 -1066 0
-1023 -1067 0
-1023 -1068 0
-1023 -1069 0
-1023 -1070 0
-1023 -1071 0
-1023 -1072 0
-1023 -1073 0
-1023 -1074 0
-1024 -1025 0
-1024 -1026 0
-1024 -1027 0
-1024 -1028 0
-1024 -1029 0
-1024 -1030 0
-1024 -1031 0
-1024 -1032 0
-1024 -1033 0
-1024 -1034 0
-1024 -1035 0
-1024 -1036 0
-1024 -1037 0
-1024 -1038 0
-1024 -1039 0
-1024 -1040 0
-1024 -1041 0
-1024 -1042 0
-1024 -1043 0
-1024 -1044 0
-1024 -1045 0
-1024 -1046 0
-1024 -1047 0
-1024 -1048 0
-1024 -1049 0
-1024 -1050 0
-1024 -1051 0
-1024 -1052 0
-1024 -1053 0
-1024 -1054 0
-1024 -1055 0
-1024 -1056 0
-1024 -1057 0
-1024 -1058 0
-1024 -1059 0
-1024 -1060 0
-1024 -1061 0
-1024 -1062 0
-1024 -1063 0
-1024 -1064 0
-1024 -1065 0
-1024 -1066 0
-1024 -1067 0
-1024 -1068 0
-1024 -1069 0
-1024 -1070 0
-1024 -1071 0
-1024 -1072 0
-1024 -1073 0
-1024 -1074 0
-1025 -1026 0
-1025 -1027 0
-1025 -1028 0
-1025 -1029 0
-1025 -1030 0
-1025 -1031 0
-1025 -1032 0
-1025 -1033 0
-1025 -1034 0
-1025 -1035 0
-1025 -1036 0
-1025 -1037 0
-1025 -1038 0
-1025 -1039 0
-1025 -1040 0
-1025 -1041 0
-1025 -1042 0
-1025 -1043 0
-1025 -1044 0
-1025 -1045 0
-1025 -1046 0
-1025 -1047 0
-1025 -1048 0
-1025 -1049 0
-1025 -1050 0
-1025 -1051 0
-1025 -1052 0
-1025 -1053 0
-1025 -1054 0
-1025 -1055 0
-1025 -1056 0
-1025 -1057 0
-1025 -1058 0
-1025 -1059 0
-1025 -1060 0
-1025 -1061 0
-1025 -1062 0
-1025 -1063 0
-1025 -1064 0
-1025 -1065 0
-1025 -1066 0
-1025 -1067 0
-1025 -1068 0
-1025 -1069 0
-1025 -1070 0
-1025 -1071 0
-1025 -1072 0
-1025 -1073 0
-1025 -1074 0
-1026 -1027 0
-1026 -1028 0
-1026 -1029 0
-1026 -1030 0
-1026 -1031 0
-1026 -1032 0
-1026 -1033 0
-1026 -1034 0
-1026 -1035 0
-1026 -1036 0
-1026 -1037 0
-1026 -1038 0
-1026 -1039 0
-1026 -1040 0
-1026 -1041 0
-1026 -1042 0
-1026 -1043 0
-1026 -1044 0
-1026 -1045 0
-1026 -1046 0
-1026 -1047 0
-1026 -1048 0
-1026 -1049 0
-1026 -1050 0
-1026 -1051 0
-1026 -1052 0
-1026 -1053 0
-1026 -1054 0
-1026 -1055 0
-1026 -1056 0
-1026 -1057 0
-1026 -1058 0
-1026 -1059 0
-1026 -1060 0
-1026 -1061 0
-1026 -1062 0
-1026 -1063 0
-1026 -1064 0
-1026 -1065 0
-1026 -1066 0
-1026 -1067 0
-1026 -1068 0
-1026 -1069 0
-1026 -1070 0
-1026 -1071 0
-1026 -1072 0
-1026 -1073 0
-1026 -1074 0
-1027 -1028 0
-1027 -1029 0
-1027 -1030 0
-1027 -1031 0
-1027 -1032 0
-1027 -1033 0
-1027 -1034 0
-1027 -1035 0
-1027 -1036 0
-1027 -1037 0
-1027 -1038 0
-1027 -1039 0
-1027 -1040 0
-1027 -1041 0
-1027 -1042 0
-1027 -1043 0
-1027 -1044 0
-1027 -1045 0
-1027 -1046 0
-1027 -1047 0
-1027 -1048 0
-1027 -1049 0
-1027 -1050 0
-1027 -1051 0
-1027 -1052 0
-1027 -1053 0
-1027 -1054 0
-1027 -1055 0
-1027 -1056 0
-1027 -1057 0
-1027 -1058 0
-1027 -1059 0
-1027 -1060 0
-1027 -1061 0
-1027 -1062 0
-1027 -1063 0
-1027 -1064 0
-1027 -1065 0
-1027 -1066 0
-1027 -1067 0
-1027 -1068 0
-1027 -1069 0
-1027 -1070 0
-1027 -1071 0
-1027 -1072 0
-1027 -1073 0
-1027 -1074 0
-1028 -1029 0
-1028 -1030 0
-1028 -1031 0
-1028 -1032 0
-1028 -1033 0
-1028 -1034 0
-1028 -1035 0
-1028 -1036 0
-1028 -1037 0
-1028 -1038 0
-1028 -1039 0
-1028 -1040 0
-1028 -1041 0
-1028 -1042 0
-1028 -1043 0
-1028 -1044 0
-1028 -1045 0
-1028 -1046 0
-1028 -1047 0
-1028 -1048 0
-1028 -1049 0
-1028 -1050 0
-1028 -1051 0
-1028 -1052 0
-1028 -1053 0
-1028 -1054 0
-1028 -1055 0
-1028 -1056 0
-1028 -1057 0
-1028 -1058 0
-1028 -1059 0
-1028 -1060 0
-1028 -1061 0
-1028 -1062 0
-1028 -1063 0
-1028 -1064 0
-1028 -1065 0
-1028 -1066 0
-1028 -1067 0
-1028 -1068 0
-1028 -1069 0
-1028 -1070 0
-1028 -1071 0
-1028 -1072 0
-1028 -1073 0
-1028 -1074 0
-1029 -1030 0
-1029 -1031 0
-1029 -1032 0
-1029 -1033 0
-1029 -1034 0
-1029 -1035 0
-1029 -1036 0
-1029 -1037 0
-1029 -1038 0
-1029 -1039 0
-1029 -1040 0
-1029 -1041 0
-1029 -1042 0
-1029 -1043 0
-1029 -1044 0
-1029 -1045 0
-1029 -1046 0
-1029 -1047 0
-1029 -1048 0
-1029 -1049 0
-1029 -1050 0
-1029 -1051 0
-1029 -1052 0
-1029 -1053 0
-1029 -1054 0
-1029 -1055 0
-1029 -1056 0
-1029 -1057 0
-1029 -1058 0
-1029 -1059 0
-1029 -1060 0
-1029 -1061 0
-1029 -1062 0
-1029 -1063 0
-1029 -1064 0
-1029 -1065 0
-1029 -1066 0
-1029 -1067 0
-1029 -1068 0
-1029 -1069 0
-1029 -1070 0
-1029 -1071 0
-1029 -1072 0
-1029 -1073 0
-1029 -1074 0
-1030 -1031 0
-1030 -1032 0
-1030 -1033 0
-1030 -1034 0
-1030 -1035 0
-1030 -1036 0
-1030 -1037 0
-1030 -1038 0
-1030 -1039 0
-1030 -1040 0
-1030 -1041 0
-1030 -1042 0
-1030 -1043 0
-1030 -1044 0
-1030 -1045 0
-1030 -1046 0
-1030 -1047 0
-1030 -1048 0
-1030 -1049 0
-1030 -1050 0
-1030 -1051 0
-1030 -1052 0
-1030 -1053 0
-1030 -1054 0
-1030 -1055 0
-1030 -1056 0
-1030 -1057 0
-1030 -1058 0
-1030 -1059 0
-1030 -1060 0
-1030 -1061 0
-1030 -1062 0
-1030 -1063 0
-1030 -1064 0
-1030 -1065 0
-1030 -1066 0
-1030 -1067 0
-1030 -1068 0
-1030 -1069 0
-1030 -1070 0
-1030 -1071 0
-1030 -1072 0
-1030 -1073 0
-1030 -1074 0
-1031 -1032 0
-1031 -1033 0
-1031 -1034 0
-1031 -1035 0
-1031 -1036 0
-1031 -1037 0
-1031 -1038 0
-1031 -1039 0
-1031 -1040 0
-1031 -1041 0
-1031 -1042 0
-1031 -1043 0
-1031 -1044 0
-1031 -1045 0
-1031 -1046 0
-1031 -1047 0
-1031 -1048 0
-1031 -1049 0
-1031 -1050 0
-1031 -1051 0
-1031 -1052 0
-1031 -1053 0
-1031 -1054 0
-1031 -1055 0
-1031 -1056 0
-1031 -1057 0
-1031 -1058 0
-1031 -1059 0
-1031 -1060 0
-1031 -1061 0
-1031 -1062 0
-1031 -1063 0
-1031 -1064 0
-1031 -1065 0
-1031 -1066 0
-1031 -1067 0
-1031 -1068 0
-1031 -1069 0
-1031 -1070 0
-1031 -1071 0
-1031 -1072 0
-1031 -1073 0
-1031 -1074 0
-1032 -1033 0
-1032 -1034 0
-1032 -1035 0
-1032 -1036 0
-1032 -1037 0
-1032 -1038 0
-1032 -1039 0
-1032 -1040 0
-1032 -1041 0
-1032 -1042 0
-1032 -1043 0
-1032 -1044 0
-1032 -1045 0
-1032 -1046 0
-1032 -1047 0
-1032 -1048 0
-1032 -1049 0
-1032 -1050 0
-1032 -1051 0
-1032 -1052 0
-1032 -1053 0
-1032 -1054 0
-1032 -1055 0
-1032 -1056 0
-1032 -1057 0
-1032 -1058 0
-1032 -1059 0
-1032 -1060 0
-1032 -1061 0
-1032 -1062 0
-1032 -1063 0
-1032 -1064 0
-1032 -1065 0
-1032 -1066 0
-1032 -1067 0
-1032 -1068 0
-1032 -1069 0
-1032 -1070 0
-1032 -1071 0
-1032 -1072 0
-1032 -1073 0
-1032 -1074 0
-1033 -1034 0
-1033 -1035 0
-1033 -1036 0
-1033 -1037 0
-1033 -1038 0
-1033 -1039 0
-1033 -1040 0
-1033 -1041 0
-1033 -1042 0
-1033 -1043 0
-1033 -1044 0
-1033 -1045 0
-1033 -1046 0
-1033 -1047 0
-1033 -1048 0
-1033 -1049 0
-1033 -1050 0
-1033 -1051 0
-1033 -1052 0
-1033 -1053 0
-1033 -1054 0
-1033 -1055 0
-1033 -1056 0
-1033 -1057 0
-1033 -1058 0
-1033 -1059 0
-1033 -1060 0
-1033 -1061 0
-1033 -1062 0
-1033 -1063 0
-1033 -1064 0
-1033 -1065 0
-1033 -1066 0
-1033 -1067 0
-1033 -1068 0
-1033 -1069 0
-1033 -1070 0
-1033 -1071 0
-1033 -1072 0
-1033 -1073 0
-1033 -1074 0
-1034 -1035 0
-1034 -1036 0
-1034 -1037 0
-1034 -1038 0
-1034 -1039 0
-1034 -1040 0
-1034 -1041 0
-1034 -1042 0
-1034 -1043 0
-1034 -1044 0
-1034 -1045 0
-1034 -1046 0
-1034 -1047 0
-1034 -1048 0
-1034 -1049 0
-1034 -1050 0
-1034 -1051 0
-1034 -1052 0
-1034 -1053 0
-1034 -1054 0
-1034 -1055 0
-1034 -1056 0
-1034 -1057 0
-1034 -1058 0
-1034 -1059 0
-1034 -1060 0
-1034 -1061 0
-1034 -1062 0
-1034 -1063 0
-1034 -1064 0
-1034 -1065 0
-1034 -1066 0
-1034 -1067 0
-1034 -1068 0
-1034 -1069 0
-1034 -1070 0
-1034 -1071 0
-1034 -1072 0
-1034 -1073 0
-1034 -1074 0
-1035 -1036 0
-1035 -1037 0
-1035 -1038 0
-1035 -1039 0
-1035 -1040 0
-1035 -1041 0
-1035 -1042 0
-1035 -1043 0
-1035 -1044 0
-1035 -1045 0
-1035 -1046 0
-1035 -1047 0
-1035 -1048 0
-1035 -1049 0
-1035 -1050 0
-1035 -1051 0
-1035 -1052 0
-1035 -1053 0
-1035 -1054 0
-1035 -1055 0
-1035 -1056 0
-1035 -1057 0
-1035 -1058 0
-1035 -1059 0
-1035 -1060 0
-1035 -1061 0
-1035 -1062 0
-1035 -1063 0
-1035 -1064 0
-1035 -1065 0
-1035 -1066 0
-1035 -1067 0
-1035 -1068 0
-1035 -1069 0
-1035 -1070 0
-1035 -1071 0
-1035 -1072 0
-1035 -1073 0
-1035 -1074 0
-1036 -1037 0
-1036 -1038 0
-1036 -1039 0
-1036 -1040 0
-1036 -1041 0
-1036 -1042 0
-1036 -1043 0
-1036 -1044 0
-1036 -1045 0
-1036 -1046 0
-1036 -1047 0
-1036 -1048 0
-1036 -1049 0
-1036 -1050 0
-1036 -1051 0
-1036 -1052 0
-1036 -1053 0
-1036 -1054 0
-1036 -1055 0
-1036 -1056 0
-1036 -1057 0
-1036 -1058 0
-1036 -1059 0
-1036 -1060 0
-1036 -1061 0
-1036 -1062 0
-1036 -1063 0
-1036 -1064 0
-1036 -1065 0
-1036 -1066 0
-1036 -1067 0
-1036 -1068 0
-1036 -1069 0
-1036 -1070 0
-1036 -1071 0
-1036 -1072 0
-1036 -1073 0
-1036 -1074 0
-1037 -1038 0
-1037 -1039 0
-1037 -1040 0
-1037 -1041 0
-1037 -1042 0
-1037 -1043 0
-1037 -1044 0
-1037 -1045 0
-1037 -1046 0
-1037 -1047 0
-1037 -1048 0
-1037 -1049 0
-1037 -1050 0
-1037 -1051 0
-1037 -1052 0
-1037 -1053 0
-1037 -1054 0
-1037 -1055 0
-1037 -1056 0
-1037 -1057 0
-1037 -1058 0
-1037 -1059 0
-1037 -1060 0
-1037 -1061 0
-1037 -1062 0
-1037 -1063 0
-1037 -1064 0
-1037 -1065 0
-1037 -1066 0
-1037 -1067 0
-1037 -1068 0
-1037 -1069 0
-1037 -1070 0
-1037 -1071 0
-1037 -1072 0
-1037 -1073 0
-1037 -1074 0
-1038 -1039 0
-1038 -1040 0
-1038 -1041 0
-1038 -1042 0
-1038 -1043 0
-1038 -1044 0
-1038 -1045 0
-1038 -1046 0
-1038 -1047 0
-1038 -1048 0
-1038 -1049 0
-1038 -1050 0
-1038 -1051 0
-1038 -1052 0
-1038 -1053 0
-1038 -1054 0
-1038 -1055 0
-1038 -1056 0
-1038 -1057 0
-1038 -1058 0
-1038 -1059 0
-1038 -1060 0
-1038 -1061 0
-1038 -1062 0
-1038 -1063 0
-1038 -1064 0
-1038 -1065 0
-1038 -1066 0
-1038 -1067 0
-1038 -1068 0
-1038 -1069 0
-1038 -1070 0
-1038 -1071 0
-1038 -1072 0
-1038 -1073 0
-1038 -1074 0
-1039 -1040 0
-1039 -1041 0
-1039 -1042 0
-1039 -1043 0
-1039 -1044 0
-1039 -1045 0
-1039 -1046 0
-1039 -1047 0
-1039 -1048 0
-1039 -1049 0
-1039 -1050 0
-1039 -1051 0
-1039 -1052 0
-1039 -1053 0
-1039 -1054 0
-1039 -1055 0
-1039 -1056 0
-1039 -1057 0
-1039 -1058 0
-1039 -1059 0
-1039 -1060 0
-1039 -1061 0
-1039 -1062 0
-1039 -1063 0
-1039 -1064 0
-1039 -1065 0
-1039 -1066 0
-1039 -1067 0
-1039 -1068 0
-1039 -1069 0
-1039 -1070 0
-1039 -1071 0
-1039 -1072 0
-1039 -1073 0
-1039 -1074 0
-1040 -1041 0
-1040 -1042 0
-1040 -1043 0
-1040 -1044 0
-1040 -1045 0
-1040 -1046 0
-1040 -1047 0
-1040 -1048 0
-1040 -1049 0
-1040 -1050 0
-1040 -1051 0
-1040 -1052 0
-1040 -1053 0
-1040 -1054 0
-1040 -1055 0
-1040 -1056 0
-1040 -1057 0
-1040 -1058 0
-1040 -1059 0
-1040 -1060 0
-1040 -1061 0
-1040 -1062 0
-1040 -1063 0
-1040 -1064 0
-1040 -1065 0
-1040 -1066 0
-1040 -1067 0
-1040 -1068 0
-1040 -1069 0
-1040 -1070 0
-1040 -1071 0
-1040 -1072 0
-1040 -1073 0
-1040 -1074 0
-1041 -1042 0
-1041 -1043 0
-1041 -1044 0
-1041 -1045 0
-1041 -1046 0
-1041 -1047 0
-1041 -1048 0
-1041 -1049 0
-1041 -1050 0
-1041 -1051 0
-1041 -1052 0
-1041 -1053 0
-1041 -1054 0
-1041 -1055 0
-1041 -1056 0
-1041 -1057 0
-1041 -1058 0
-1041 -1059 0
-1041 -1060 0
-1041 -1061 0
-1041 -1062 0
-1041 -1063 0
-1041 -1064 0
-1041 -1065 0
-1041 -1066 0
-1041 -1067 0
-1041 -1068 0
-1041 -1069 0
-1041 -1070 0
-1041 -1071 0
-1041 -1072 0
-1041 -1073 0
-1041 -1074 0
-1042 -1043 0
-1042 -1044 0
-1042 -1045 0
-1042 -1046 0
-1042 -1047 0
-1042 -1048 0
-1042 -1049 0
-1042 -1050 0
-1042 -1051 0
-1042 -1052 0
-1042 -1053 0
-1042 -1054 0
-1042 -1055 0
-1042 -1056 0
-1042 -1057 0
-1042 -1058 0
-1042 -1059 0
-1042 -1060 0
-1042 -1061 0
-1042 -1062 0
-1042 -1063 0
-1042 -1064 0
-1042 -1065 0
-1042 -1066 0
-1042 -1067 0
-1042 -1068 0
-1042 -1069 0
-1042 -1070 0
-1042 -1071 0
-1042 -1072 0
-1042 -1073 0
-1042 -1074 0
-1043 -1044 0
-1043 -1045 0
-1043 -1046 0
-1043 -1047 0
-1043 -1048 0
-1043 -1049 0
-1043 -1050 0
-1043 -1051 0
-1043 -1052 0
-1043 -1053 0
-1043 -1054 0
-1043 -1055 0
-1043 -1056 0
-1043 -1057 0
-1043 -1058 0
-1043 -1059 0
-1043 -1060 0
-1043 -1061 0
-1043 -1062 0
-1043 -1063 0
-1043 -1064 0
-1043 -1065 0
-1043 -1066 0
-1043 -1067 0
-1043 -1068 0
-1043 -1069 0
-1043 -1070 0
-1043 -1071 0
-1043 -1072 0
-1043 -1073 0
-1043 -1074 0
-1044 -1045 0
-1044 -1046 0
-1044 -1047 0
-1044 -1048 0
-1044 -1049 0
-1044 -1050 0
-1044 -1051 0
-1044 -1052 0
-1044 -1053 0
-1044 -1054 0
-1044 -1055 0
-1044 -1056 0
-1044 -1057 0
-1044 -1058 0
-1044 -1059 0
-1044 -1060 0
-1044 -1061 0
-1044 -1062 0
-1044 -1063 0
-1044 -1064 0
-1044 -1065 0
-1044 -1066 0
-1044 -1067 0
-1044 -1068 0
-1044 -1069 0
-1044 -1070 0
-1044 -1071 0
-1044 -1072 0
-1044 -1073 0
-1044 -1074 0
-1045 -1046 0
-1045 -1047 0
-1045 -1048 0
-1045 -1049 0
-1045 -1050 0
-1045 -1051 0
-1045 -1052 0
-1045 -1053 0
-1045 -1054 0
-1045 -1055 0
-1045 -1056 0
-1045 -1057 0
-1045 -1058 0
-1045 -1059 0
-1045 -1060 0
-1045 -1061 0
-1045 -1062 0
-1045 -1063 0
-1045 -1064 0
-1045 -1065 0
-1045 -1066 0
-1045 -1067 0
-1045 -1068 0
-1045 -1069 0
-1045 -1070 0
-1045 -1071 0
-1045 -1072 0
-1045 -1073 0
-1045 -1074 0
-1046 -1047 0
-1046 -1048 0
-1046 -1049 0
-1046 -1050 0
-1046 -1051 0
-1046 -1052 0
-1046 -1053 0
-1046 -1054 0
-1046 -1055 0
-1046 -1056 0
-1046 -1057 0
-1046 -1058 0
-1046 -1059 0
-1046 -1060 0
-1046 -1061 0
-1046 -1062 0
-1046 -1063 0
-1046 -1064 0
-1046 -1065 0
-1046 -1066 0
-1046 -1067 0
-1046 -1068 0
-1046 -1069 0
-1046 -1070 0
-1046 -1071 0
-1046 -1072 0
-1046 -1073 0
-1046 -1074 0
-1047 -1048 0
-1047 -1049 0
-1047 -1050 0
-1047 -1051 0
-1047 -1052 0
-1047 -1053 0
-1047 -1054 0
-1047 -1055 0
-1047 -1056 0
-1047 -1057 0
-1047 -1058 0
-1047 -1059 0
-1047 -1060 0
-1047 -1061 0
-1047 -1062 0
-1047 -1063 0
-1047 -1064 0
-1047 -1065 0
-1047 -1066 0
-1047 -1067 0
-1047 -1068 0
-1047 -1069 0
-1047 -1070 0
-1047 -1071 0
-1047 -1072 0
-1047 -1073 0
-1047 -1074 0
-1048 -1049 0
-1048 -1050 0
-1048 -1051 0
-1048 -1052 0
-1048 -1053 0
-1048 -1054 0
-1048 -1055 0
-1048 -1056 0
-1048 -1057 0
-1048 -1058 0
-1048 -1059 0
-1048 -1060 0
-1048 -1061 0
-1048 -1062 0
-1048 -1063 0
-1048 -1064 0
-1048 -1065 0
-1048 -1066 0
-1048 -1067 0
-1048 -1068 0
-1048 -1069 0
-1048 -1070 0
-1048 -1071 0
-1048 -1072 0
-1048 -1073 0
-1048 -1074 0
-1049 -1050 0
-1049 -1051 0
-1049 -1052 0
-1049 -1053 0
-1049 -1054 0
-1049 -1055 0
-1049 -1056 0
-1049 -1057 0
-1049 -1058 0
-1049 -1059 0
-1049 -1060 0
-1049 -1061 0
-1049 -1062 0
-1049 -1063 0
-1049 -1064 0
-1049 -1065 0
-1049 -1066 0
-1049 -1067 0
-1049 -1068 0
-1049 -1069 0
-1049 -1070 0
-1049 -1071 0
-1049 -1072 0
-1049 -1073 0
-1049 -1074 0
-1050 -1051 0
-1050 -1052 0
-1050 -1053 0
-1050 -1054 0
-1050 -1055 0
-1050 -1056 0
-1050 -1057 0
-1050 -1058 0
-1050 -1059 0
-1050 -1060 0
-1050 -1061 0
-1050 -1062 0
-1050 -1063 0
-1050 -1064 0
-1050 -1065 0
-1050 -1066 0
-1050 -1067 0
-1050 -1068 0
-1050 -1069 0
-1050 -1070 0
-1050 -1071 0
-1050 -1072 0
-1050 -1073 0
-1050 -1074 0
-1051 -1052 0
-1051 -1053 0
-1051 -1054 0
-1051 -1055 0
-1051 -1056 0
-1051 -1057 0
-1051 -1058 0
-1051 -1059 0
-1051 -1060 0
-1051 -1061 0
-1051 -1062 0
-1051 -1063 0
-1051 -1064 0
-1051 -1065 0
-1051 -1066 0
-1051 -1067 0
-1051 -1068 0
-1051 -1069 0
-1051 -1070 0
-1051 -1071 0
-1051 -1072 0
-1051 -1073 0
-1051 -1074 0
-1052 -1053 0
-1052 -1054 0
-1052 -1055 0
-1052 -1056 0
-1052 -1057 0
-1052 -1058 0
-1052 -1059 0
-1052 -1060 0
-1052 -1061 0
-1052 -1062 0
-1052 -1063 0
-1052 -1064 0
-1052 -1065 0
-1052 -1066 0
-1052 -1067 0
-1052 -1068 0
-1052 -1069 0
-1052 -1070 0
-1052 -1071 0
-1052 -1072 0
-1052 -1073 0
-1052 -1074 0
-1053 -1054 0
-1053 -1055 0
-1053 -1056 0
-1053 -1057 0
-1053 -1058 0
-1053 -1059 0
-1053 -1060 0
-1053 -1061 0
-1053 -1062 0
-1053 -1063 0
-1053 -1064 0
-1053 -1065 0
-1053 -1066 0
-1053 -1067 0
-1053 -1068 0
-1053 -1069 0
-1053 -1070 0
-1053 -1071 0
-1053 -1072 0
-1053 -1073 0
-1053 -1074 0
-1054 -1055 0
-1054 -1056 0
-1054 -1057 0
-1054 -1058 0
-1054 -1059 0
-1054 -1060 0
-1054 -1061 0
-1054 -1062 0
-1054 -1063 0
-1054 -1064 0
-1054 -1065 0
-1054 -1066 0
-1054 -1067 0
-1054 -1068 0
-1054 -1069 0
-1054 -1070 0
-1054 -1071 0
-1054 -1072 0
-1054 -1073 0
-1054 -1074 0
-1055 -1056 0
-1055 -1057 0
-1055 -1058 0
-1055 -1059 0
-1055 -1060 0
-1055 -1061 0
-1055 -1062 0
-1055 -1063 0
-1055 -1064 0
-1055 -1065 0
-1055 -1066 0
-1055 -1067 0
-1055 -1068 0
-1055 -1069 0
-1055 -1070 0
-1055 -1071 0
-1055 -1072 0
-1055 -1073 0
-1055 -1074 0
-1056 -1057 0
-1056 -1058 0
-1056 -1059 0
-1056 -1060 0
-1056 -1061 0
-1056 -1062 0
-1056 -1063 0
-1056 -1064 0
-1056 -1065 0
-1056 -1066 0
-1056 -1067 0
-1056 -1068 0
-1056 -1069 0
-1056 -1070 0
-1056 -1071 0
-1056 -1072 0
-1056 -1073 0
-1056 -1074 0
-1057 -1058 0
-1057 -1059 0
-1057 -1060 0
-1057 -1061 0
-1057 -1062 0
-1057 -1063 0
-1057 -1064 0
-1057 -1065 0
-1057 -1066 0
-1057 -1067 0
-1057 -1068 0
-1057 -1069 0
-1057 -1070 0
-1057 -1071 0
-1057 -1072 0
-1057 -1073 0
-1057 -1074 0
-1058 -1059 0
-1058 -1060 0
-1058 -1061 0
-1058 -1062 0
-1058 -1063 0
-1058 -1064 0
-1058 -1065 0
-1058 -1066 0
-1058 -1067 0
-1058 -1068 0
-1058 -1069 0
-1058 -1070 0
-1058 -1071 0
-1058 -1072 0
-1058 -1073 0
-1058 -1074 0
-1059 -1060 0
-1059 -1061 0
-1059 -1062 0
-1059 -1063 0
-1059 -1064 0
-1059 -1065 0
-1059 -1066 0
-1059 -1067 0
-1059 -1068 0
-1059 -1069 0
-1059 -1070 0
-1059 -1071 0
-1059 -1072 0
-1059 -1073 0
-1059 -1074 0
-1060 -1061 0
-1060 -1062 0
-1060 -1063 0
-1060 -1064 0
-1060 -1065 0
-1060 -1066 0
-1060 -1067 0
-1060 -1068 0
-1060 -1069 0
-1060 -1070 0
-1060 -1071 0
-1060 -1072 0
-1060 -1073 0
-1060 -1074 0
-1061 -1062 0
-1061 -1063 0
-1061 -1064 0
-1061 -1065 0
-1061 -1066 0
-1061 -1067 0
-1061 -1068 0
-1061 -1069 0
-1061 -1070 0
-1061 -1071 0
-1061 -1072 0
-1061 -1073 0
-1061 -1074 0
-1062 -1063 0
-1062 -1064 0
-1062 -1065 0
-1062 -1066 0
-1062 -1067 0
-1062 -1068 0
-1062 -1069 0
-1062 -1070 0
-1062 -1071 0
-1062 -1072 0
-1062 -1073 0
-1062 -1074 0
-1063 -1064 0
-1063 -1065 0
-1063 -1066 0
-1063 -1067 0
-1063 -1068 0
-1063 -1069 0
-1063 -1070 0
-1063 -1071 0
-1063 -1072 0
-1063 -1073 0
-1063 -1074 0
-1064 -1065 0
-1064 -1066 0
-1064 -1067 0
-1064 -1068 0
-1064 -1069 0
-1064 -1070 0
-1064 -1071 0
-1064 -1072 0
-1064 -1073 0
-1064 -1074 0
-1065 -1066 0
-1065 -1067 0
-1065 -1068 0
-1065 -1069 0
-1065 -1070 0
-1065 -1071 0
-1065 -1072 0
-1065 -1073 0
-1065 -1074 0
-1066 -1067 0
-1066 -1068 0
-1066 -1069 0
-1066 -1070 0
-1066 -1071 0
-1066 -1072 0
-1066 -1073 0
-1066 -1074 0
-1067 -1068 0
-1067 -1069 0
-1067 -1070 0
-1067 -1071 0
-1067 -1072 0
-1067 -1073 0
-1067 -1074 0
-1068 -1069 0
-1068 -1070 0
-1068 -1071 0
-1068 -1072 0
-1068 -1073 0
-1068 -1074 0
-1069 -1070 0
-1069 -1071 0
-1069 -1072 0
-1069 -1073 0
-1069 -1074 0
-1070 -1071 0
-1070 -1072 0
-1070 -1073 0
-1070 -1074 0
-1071 -1072 0
-1071 -1073 0
-1071 -1074 0
-1072 -1073 0
-1072 -1074 0
-1073 -1074 0
-1075 235 0
-1075 -64 -179 -176 0
-1075 -64 -180 -177 0
-1075 -64 -181 -178 0
-1075 70 0
-1075 -70 -179 1327 541 0
-1075 -70 -180 1327 547 0
-1075 -70 -181 1327 553 0
-1075 -179 -565 0
-1075 -179 -589 0
-1075 -179 -613 0
-1075 -179 -571 0
-1075 -179 -595 0
-1075 -179 -619 0
-1075 -179 -577 0
-1075 -179 -601 0
-1075 -179 -625 0
-1075 -180 -571 0
-1075 -180 -595 0
-1075 -180 -619 0
-1075 -180 -577 0
-1075 -180 -601 0
-1075 -180 -625 0
-1075 -181 -577 0
-1075 -181 -601 0
-1075 -181 -625 0
-1075 -182 0
-1075 85 0
-1075 -179 192 0
-1075 -180 193 0
-1075 -181 194 0
-1075 -240 0
-1076 235 0
-1076 -65 -179 -176 0
-1076 -65 -180 -177 0
-1076 -65 -181 -178 0
-1076 71 0
-1076 -71 -179 1328 542 0
-1076 -71 -180 1328 548 0
-1076 -71 -181 1328 554 0
-1076 -179 -566 0
-1076 -179 -590 0
-1076 -179 -614 0
-1076 -179 -572 0
-1076 -179 -596 0
-1076 -179 -620 0
-1076 -179 -578 0
-1076 -179 -602 0
-1076 -179 -626 0
-1076 -180 -572 0
-1076 -180 -596 0
-1076 -180 -620 0
-1076 -180 -578 0
-1076 -180 -602 0
-1076 -180 -626 0
-1076 -181 -578 0
-1076 -181 -602 0
-1076 -181 -626 0
-1076 -182 0
-1076 86 0
-1076 -179 192 0
-1076 -180 193 0
-1076 -181 194 0
-1076 -240 0
-1077 235 0
-1077 -66 -179 -176 0
-1077 -66 -180 -177 0
-1077 -66 -181 -178 0
-1077 72 0
-1077 -72 -179 1329 543 0
-1077 -72 -180 1329 549 0
-1077 -72 -181 1329 555 0
-1077 -179 -567 0
-1077 -179 -591 0
-1077 -179 -615 0
-1077 -179 -573 0
-1077 -179 -597 0
-1077 -179 -621 0
-1077 -179 -579 0
-1077 -179 -603 0
-1077 -179 -627 0
-1077 -180 -573 0
-1077 -180 -597 0
-1077 -180 -621 0
-1077 -180 -579 0
-1077 -180 -603 0
-1077 -180 -627 0
-1077 -181 -579 0
-1077 -181 -603 0
-1077 -181 -627 0
-1077 -182 0
-1077 87 0
-1077 -179 192 0
-1077 -180 193 0
-1077 -181 194 0
-1077 -240 0
-1078 235 0
-1078 -67 -179 -176 0
-1078 -67 -180 -177 0
-1078 -67 -181 -178 0
-1078 73 0
-1078 -73 -179 1330 544 0
-1078 -73 -180 1330 550 0
-1078 -73 -181 1330 556 0
-1078 -179 -568 0
-1078 -179 -592 0
-1078 -179 -616 0
-1078 -179 -574 0
-1078 -179 -598 0
-1078 -179 -622 0
-1078 -179 -580 0
-1078 -179 -604 0
-1078 -179 -628 0
-1078 -180 -574 0
-1078 -180 -598 0
-1078 -180 -622 0
-1078 -180 -580 0
-1078 -180 -604 0
-1078 -180 -628 0
-1078 -181 -580 0
-1078 -181 -604 0
-1078 -181 -628 0
-1078 -182 0
-1078 88 0
-1078 -179 192 0
-1078 -180 193 0
-1078 -181 194 0
-1078 -240 0
-1079 235 0
-1079 -68 -179 -176 0
-1079 -68 -180 -177 0
-1079 -68 -181 -178 0
-1079 74 0
-1079 -74 -179 1331 545 0
-1079 -74 -180 1331 551 0
-1079 -74 -181 1331 557 0
-1079 -179 -569 0
-1079 -179 -593 0
-1079 -179 -617 0
-1079 -179 -575 0
-1079 -179 -599 0
-1079 -179 -623 0
-1079 -179 -581 0
-1079 -179 -605 0
-1079 -179 -629 0
-1079 -180 -575 0
-1079 -180 -599 0
-1079 -180 -623 0
-1079 -180 -581 0
-1079 -180 -605 0
-1079 -180 -629 0
-1079 -181 -581 0
-1079 -181 -605 0
-1079 -181 -629 0
-1079 -182 0
-1079 89 0
-1079 -179 192 0
-1079 -180 193 0
-1079 -181 194 0
-1079 -240 0
-1080 235 0
-1080 -69 -179 -176 0
-1080 -69 -180 -177 0
-1080 -69 -181 -178 0
-1080 75 0
-1080 -75 -179 1332 546 0
-1080 -75 -180 1332 552 0
-1080 -75 -181 1332 558 0
-1080 -179 -570 0
-1080 -179 -594 0
-1080 -179 -618 0
-1080 -179 -576 0
-1080 -179 -600 0
-1080 -179 -624 0
-1080 -179 -582 0
-1080 -179 -606 0
-1080 -179 -630 0
-1080 -180 -576 0
-1080 -180 -600 0
-1080 -180 -624 0
-1080 -180 -582 0
-1080 -180 -606 0
-1080 -180 -630 0
-1080 -181 -582 0
-1080 -181 -606 0
-1080 -181 -630 0
-1080 -182 0
-1080 90 0
-1080 -179 192 0
-1080 -180 193 0
-1080 -181 194 0
-1080 -240 0
-1081 235 0
-1081 -64 -183 -176 0
-1081 -64 -184 -177 0
-1081 -64 -185 -178 0
-1081 76 0
-1081 -76 -183 1333 541 0
-1081 -76 -184 1333 547 0
-1081 -76 -185 1333 553 0
-1081 -183 -565 0
-1081 -183 -589 0
-1081 -183 -613 0
-1081 -183 -571 0
-1081 -183 -595 0
-1081 -183 -619 0
-1081 -183 -577 0
-1081 -183 -601 0
-1081 -183 -625 0
-1081 -184 -571 0
-1081 -184 -595 0
-1081 -184 -619 0
-1081 -184 -577 0
-1081 -184 -601 0
-1081 -184 -625 0
-1081 -185 -577 0
-1081 -185 -601 0
-1081 -185 -625 0
-1081 -186 0
-1081 85 0
-1081 -183 192 0
-1081 -184 193 0
-1081 -185 194 0
-1081 -241 0
-1082 235 0
-1082 -65 -183 -176 0
-1082 -65 -184 -177 0
-1082 -65 -185 -178 0
-1082 76 77 0
-1082 -76 -183 1334 542 0
-1082 -76 -184 1334 548 0
-1082 -76 -185 1334 554 0
-1082 -77 -183 1334 542 0
-1082 -77 -184 1334 548 0
-1082 -77 -185 1334 554 0
-1082 -183 -566 0
-1082 -183 -590 0
-1082 -183 -614 0
-1082 -183 -572 0
-1082 -183 -596 0
-1082 -183 -620 0
-1082 -183 -578 0
-1082 -183 -602 0
-1082 -183 -626 0
-1082 -184 -572 0
-1082 -184 -596 0
-1082 -184 -620 0
-1082 -184 -578 0
-1082 -184 -602 0
-1082 -184 -626 0
-1082 -185 -578 0
-1082 -185 -602 0
-1082 -185 -626 0
-1082 -186 0
-1082 86 0
-1082 -183 192 0
-1082 -184 193 0
-1082 -185 194 0
-1082 -241 0
-1083 235 0
-1083 -66 -183 -176 0
-1083 -66 -184 -177 0
-1083 -66 -185 -178 0
-1083 77 78 0
-1083 -77 -183 1335 543 0
-1083 -77 -184 1335 549 0
-1083 -77 -185 1335 555 0
-1083 -78 -183 1335 543 0
-1083 -78 -184 1335 549 0
-1083 -78 -185 1335 555 0
-1083 -183 -567 0
-1083 -183 -591 0
-1083 -183 -615 0
-1083 -183 -573 0
-1083 -183 -597 0
-1083 -183 -621 0
-1083 -183 -579 0
-1083 -183 -603 0
-1083 -183 -627 0
-1083 -184 -573 0
-1083 -184 -597 0
-1083 -184 -621 0
-1083 -184 -579 0
-1083 -184 -603 0
-1083 -184 -627 0
-1083 -185 -579 0
-1083 -185 -603 0
-1083 -185 -627 0
-1083 -186 0
-1083 87 0
-1083 -183 192 0
-1083 -184 193 0
-1083 -185 194 0
-1083 -241 0
-1084 235 0
-1084 -67 -183 -176 0
-1084 -67 -184 -177 0
-1084 -67 -185 -178 0
-1084 78 79 0
-1084 -78 -183 1336 544 0
-1084 -78 -184 1336 550 0
-1084 -78 -185 1336 556 0
-1084 -79 -183 1336 544 0
-1084 -79 -184 1336 550 0
-1084 -79 -185 1336 556 0
-1084 -183 -568 0
-1084 -183 -592 0
-1084 -183 -616 0
-1084 -183 -574 0
-1084 -183 -598 0
-1084 -183 -622 0
-1084 -183 -580 0
-1084 -183 -604 0
-1084 -183 -628 0
-1084 -184 -574 0
-1084 -184 -598 0
-1084 -184 -622 0
-1084 -184 -580 0
-1084 -184 -604 0
-1084 -184 -628 0
-1084 -185 -580 0
-1084 -185 -604 0
-1084 -185 -628 0
-1084 -186 0
-1084 88 0
-1084 -183 192 0
-1084 -184 193 0
-1084 -185 194 0
-1084 -241 0
-1085 235 0
-1085 -68 -183 -176 0
-1085 -68 -184 -177 0
-1085 -68 -185 -178 0
-1085 79 80 0
-1085 -79 -183 1337 545 0
-1085 -79 -184 1337 551 0
-1085 -79 -185 1337 557 0
-1085 -80 -183 1337 545 0
-1085 -80 -184 1337 551 0
-1085 -80 -185 1337 557 0
-1085 -183 -569 0
-1085 -183 -593 0
-1085 -183 -617 0
-1085 -183 -575 0
-1085 -183 -599 0
-1085 -183 -623 0
-1085 -183 -581 0
-1085 -183 -605 0
-1085 -183 -629 0
-1085 -184 -575 0
-1085 -184 -599 0
-1085 -184 -623 0
-1085 -184 -581 0
-1085 -184 -605 0
-1085 -184 -629 0
-1085 -185 -581 0
-1085 -185 -605 0
-1085 -185 -629 0
-1085 -186 0
-1085 89 0
-1085 -183 192 0
-1085 -184 193 0
-1085 -185 194 0
-1085 -241 0
-1086 235 0
-1086 -69 -183 -176 0
-1086 -69 -184 -177 0
-1086 -69 -185 -178 0
-1086 80 0
-1086 -80 -183 1338 546 0
-1086 -80 -184 1338 552 0
-1086 -80 -185 1338 558 0
-1086 -183 -570 0
-1086 -183 -594 0
-1086 -183 -618 0
-1086 -183 -576 0
-1086 -183 -600 0
-1086 -183 -624 0
-1086 -183 -582 0
-1086 -183 -606 0
-1086 -183 -630 0
-1086 -184 -576 0
-1086 -184 -600 0
-1086 -184 -624 0
-1086 -184 -582 0
-1086 -184 -606 0
-1086 -184 -630 0
-1086 -185 -582 0
-1086 -185 -606 0
-1086 -185 -630 0
-1086 -186 0
-1086 90 0
-1086 -183 192 0
-1086 -184 193 0
-1086 -185 194 0
-1086 -241 0
-1087 235 0
-1087 -64 -187 -176 0
-1087 -64 -188 -177 0
-1087 -64 -189 -178 0
-1087 81 0
-1087 -81 -187 1339 541 0
-1087 -81 -188 1339 547 0
-1087 -81 -189 1339 553 0
-1087 -187 -565 0
-1087 -187 -589 0
-1087 -187 -613 0
-1087 -187 -571 0
-1087 -187 -595 0
-1087 -187 -619 0
-1087 -187 -577 0
-1087 -187 -601 0
-1087 -187 -625 0
-1087 -188 -571 0
-1087 -188 -595 0
-1087 -188 -619 0
-1087 -188 -577 0
-1087 -188 -601 0
-1087 -188 -625 0
-1087 -189 -577 0
-1087 -189 -601 0
-1087 -189 -625 0
-1087 -190 0
-1087 85 0
-1087 -187 192 0
-1087 -188 193 0
-1087 -189 194 0
-1087 -242 0
-1088 235 0
-1088 -65 -187 -176 0
-1088 -65 -188 -177 0
-1088 -65 -189 -178 0
-1088 81 82 0
-1088 -81 -187 1340 542 0
-1088 -81 -188 1340 548 0
-1088 -81 -189 1340 554 0
-1088 -82 -187 1340 542 0
-1088 -82 -188 1340 548 0
-1088 -82 -189 1340 554 0
-1088 -187 -566 0
-1088 -187 -590 0
-1088 -187 -614 0
-1088 -187 -572 0
-1088 -187 -596 0
-1088 -187 -620 0
-1088 -187 -578 0
-1088 -187 -602 0
-1088 -187 -626 0
-1088 -188 -572 0
-1088 -188 -596 0
-1088 -188 -620 0
-1088 -188 -578 0
-1088 -188 -602 0
-1088 -188 -626 0
-1088 -189 -578 0
-1088 -189 -602 0
-1088 -189 -626 0
-1088 -190 0
-1088 86 0
-1088 -187 192 0
-1088 -188 193 0
-1088 -189 194 0
-1088 -242 0
-1089 235 0
-1089 -66 -187 -176 0
-1089 -66 -188 -177 0
-1089 -66 -189 -178 0
-1089 81 82 83 0
-1089 -81 -187 1341 543 0
-1089 -81 -188 1341 549 0
-1089 -81 -189 1341 555 0
-1089 -82 -187 1341 543 0
-1089 -82 -188 1341 549 0
-1089 -82 -189 1341 555 0
-1089 -83 -187 1341 543 0
-1089 -83 -188 1341 549 0
-1089 -83 -189 1341 555 0
-1089 -187 -567 0
-1089 -187 -591 0
-1089 -187 -615 0
-1089 -187 -573 0
-1089 -187 -597 0
-1089 -187 -621 0
-1089 -187 -579 0
-1089 -187 -603 0
-1089 -187 -627 0
-1089 -188 -573 0
-1089 -188 -597 0
-1089 -188 -621 0
-1089 -188 -579 0
-1089 -188 -603 0
-1089 -188 -627 0
-1089 -189 -579 0
-1089 -189 -603 0
-1089 -189 -627 0
-1089 -190 0
-1089 87 0
-1089 -187 192 0
-1089 -188 193 0
-1089 -189 194 0
-1089 -242 0
-1090 235 0
-1090 -67 -187 -176 0
-1090 -67 -188 -177 0
-1090 -67 -189 -178 0
-1090 82 83 84 0
-1090 -82 -187 1342 544 0
-1090 -82 -188 1342 550 0
-1090 -82 -189 1342 556 0
-1090 -83 -187 1342 544 0
-1090 -83 -188 1342 550 0
-1090 -83 -189 1342 556 0
-1090 -84 -187 1342 544 0
-1090 -84 -188 1342 550 0
-1090 -84 -189 1342 556 0
-1090 -187 -568 0
-1090 -187 -592 0
-1090 -187 -616 0
-1090 -187 -574 0
-1090 -187 -598 0
-1090 -187 -622 0
-1090 -187 -580 0
-1090 -187 -604 0
-1090 -187 -628 0
-1090 -188 -574 0
-1090 -188 -598 0
-1090 -188 -622 0
-1090 -188 -580 0
-1090 -188 -604 0
-1090 -188 -628 0
-1090 -189 -580 0
-1090 -189 -604 0
-1090 -189 -628 0
-1090 -190 0
-1090 88 0
-1090 -187 192 0
-1090 -188 193 0
-1090 -189 194 0
-1090 -242 0
-1091 235 0
-1091 -68 -187 -176 0
-1091 -68 -188 -177 0
-1091 -68 -189 -178 0
-1091 83 84 0
-1091 -83 -187 1343 545 0
-1091 -83 -188 1343 551 0
-1091 -83 -189 1343 557 0
-1091 -84 -187 1343 545 0
-1091 -84 -188 1343 551 0
-1091 -84 -189 1343 557 0
-1091 -187 -569 0
-1091 -187 -593 0
-1091 -187 -617 0
-1091 -187 -575 0
-1091 -187 -599 0
-1091 -187 -623 0
-1091 -187 -581 0
-1091 -187 -605 0
-1091 -187 -629 0
-1091 -188 -575 0
-1091 -188 -599 0
-1091 -188 -623 0
-1091 -188 -581 0
-1091 -188 -605 0
-1091 -188 -629 0
-1091 -189 -581 0
-1091 -189 -605 0
-1091 -189 -629 0
-1091 -190 0
-1091 89 0
-1091 -187 192 0
-1091 -188 193 0
-1091 -189 194 0
-1091 -242 0
-1092 235 0
-1092 -69 -187 -176 0
-1092 -69 -188 -177 0
-1092 -69 -189 -178 0
-1092 84 0
-1092 -84 -187 1344 546 0
-1092 -84 -188 1344 552 0
-1092 -84 -189 1344 558 0
-1092 -187 -570 0
-1092 -187 -594 0
-1092 -187 -618 0
-1092 -187 -576 0
-1092 -187 -600 0
-1092 -187 -624 0
-1092 -187 -582 0
-1092 -187 -606 0
-1092 -187 -630 0
-1092 -188 -576 0
-1092 -188 -600 0
-1092 -188 -624 0
-1092 -188 -582 0
-1092 -188 -606 0
-1092 -188 -630 0
-1092 -189 -582 0
-1092 -189 -606 0
-1092 -189 -630 0
-1092 -190 0
-1092 90 0
-1092 -187 192 0
-1092 -188 193 0
-1092 -189 194 0
-1092 -242 0
-1093 235 0
-1093 -64 -175 0
-1093 -559 0
-1093 -583 0
-1093 -607 0
-1093 -565 0
-1093 -589 0
-1093 -613 0
-1093 -571 0
-1093 -595 0
-1093 -619 0
-1093 -577 0
-1093 -601 0
-1093 -625 0
-1093 85 0
-1093 191 0
-1094 235 0
-1094 -65 -175 0
-1094 -560 0
-1094 -584 0
-1094 -608 0
-1094 -566 0
-1094 -590 0
-1094 -614 0
-1094 -572 0
-1094 -596 0
-1094 -620 0
-1094 -578 0
-1094 -602 0
-1094 -626 0
-1094 86 0
-1094 191 0
-1095 235 0
-1095 -66 -175 0
-1095 -561 0
-1095 -585 0
-1095 -609 0
-1095 -567 0
-1095 -591 0
-1095 -615 0
-1095 -573 0
-1095 -597 0
-1095 -621 0
-1095 -579 0
-1095 -603 0
-1095 -627 0
-1095 87 0
-1095 191 0
-1096 235 0
-1096 -67 -175 0
-1096 -562 0
-1096 -586 0
-1096 -610 0
-1096 -568 0
-1096 -592 0
-1096 -616 0
-1096 -574 0
-1096 -598 0
-1096 -622 0
-1096 -580 0
-1096 -604 0
-1096 -628 0
-1096 88 0
-1096 191 0
-1097 235 0
-1097 -68 -175 0
-1097 -563 0
-1097 -587 0
-1097 -611 0
-1097 -569 0
-1097 -593 0
-1097 -617 0
-1097 -575 0
-1097 -599 0
-1097 -623 0
-1097 -581 0
-1097 -605 0
-1097 -629 0
-1097 89 0
-1097 191 0
-1098 235 0
-1098 -69 -175 0
-1098 -564 0
-1098 -588 0
-1098 -612 0
-1098 -570 0
-1098 -594 0
-1098 -618 0
-1098 -576 0
-1098 -600 0
-1098 -624 0
-1098 -582 0
-1098 -606 0
-1098 -630 0
-1098 90 0
-1098 191 0
-1099 236 0
-1099 -70 -175 -180 0
-1099 -70 -176 -181 0
-1099 -70 -177 -182 0
-1099 64 0
-1099 -64 -175 1321 565 0
-1099 -64 -176 1321 571 0
-1099 -64 -177 1321 577 0
-1099 -175 -541 0
-1099 -175 -589 0
-1099 -175 -613 0
-1099 -175 -547 0
-1099 -175 -595 0
-1099 -175 -619 0
-1099 -175 -553 0
-1099 -175 -601 0
-1099 -175 -625 0
-1099 -176 -547 0
-1099 -176 -595 0
-1099 -176 -619 0
-1099 -176 -553 0
-1099 -176 -601 0
-1099 -176 -625 0
-1099 -177 -553 0
-1099 -177 -601 0
-1099 -177 -625 0
-1099 -178 0
-1099 91 0
-1099 -175 196 0
-1099 -176 197 0
-1099 -177 198 0
-1099 -239 0
-1100 236 0
-1100 -71 -175 -180 0
-1100 -71 -176 -181 0
-1100 -71 -177 -182 0
-1100 65 0
-1100 -65 -175 1322 566 0
-1100 -65 -176 1322 572 0
-1100 -65 -177 1322 578 0
-1100 -175 -542 0
-1100 -175 -590 0
-1100 -175 -614 0
-1100 -175 -548 0
-1100 -175 -596 0
-1100 -175 -620 0
-1100 -175 -554 0
-1100 -175 -602 0
-1100 -175 -626 0
-1100 -176 -548 0
-1100 -176 -596 0
-1100 -176 -620 0
-1100 -176 -554 0
-1100 -176 -602 0
-1100 -176 -626 0
-1100 -177 -554 0
-1100 -177 -602 0
-1100 -177 -626 0
-1100 -178 0
-1100 92 0
-1100 -175 196 0
-1100 -176 197 0
-1100 -177 198 0
-1100 -239 0
-1101 236 0
-1101 -72 -175 -180 0
-1101 -72 -176 -181 0
-1101 -72 -177 -182 0
-1101 66 0
-1101 -66 -175 1323 567 0
-1101 -66 -176 1323 573 0
-1101 -66 -177 1323 579 0
-1101 -175 -543 0
-1101 -175 -591 0
-1101 -175 -615 0
-1101 -175 -549 0
-1101 -175 -597 0
-1101 -175 -621 0
-1101 -175 -555 0
-1101 -175 -603 0
-1101 -175 -627 0
-1101 -176 -549 0
-1101 -176 -597 0
-1101 -176 -621 0
-1101 -176 -555 0
-1101 -176 -603 0
-1101 -176 -627 0
-1101 -177 -555 0
-1101 -177 -603 0
-1101 -177 -627 0
-1101 -178 0
-1101 93 0
-1101 -175 196 0
-1101 -176 197 0
-1101 -177 198 0
-1101 -239 0
-1102 236 0
-1102 -73 -175 -180 0
-1102 -73 -176 -181 0
-1102 -73 -177 -182 0
-1102 67 0
-1102 -67 -175 1324 568 0
-1102 -67 -176 1324 574 0
-1102 -67 -177 1324 580 0
-1102 -175 -544 0
-1102 -175 -592 0
-1102 -175 -616 0
-1102 -175 -550 0
-1102 -175 -598 0
-1102 -175 -622 0
-1102 -175 -556 0
-1102 -175 -604 0
-1102 -175 -628 0
-1102 -176 -550 0
-1102 -176 -598 0
-1102 -176 -622 0
-1102 -176 -556 0
-1102 -176 -604 0
-1102 -176 -628 0
-1102 -177 -556 0
-1102 -177 -604 0
-1102 -177 -628 0
-1102 -178 0
-1102 94 0
-1102 -175 196 0
-1102 -176 197 0
-1102 -177 198 0
-1102 -239 0
-1103 236 0
-1103 -74 -175 -180 0
-1103 -74 -176 -181 0
-1103 -74 -177 -182 0
-1103 68 0
-1103 -68 -175 1325 569 0
-1103 -68 -176 1325 575 0
-1103 -68 -177 1325 581 0
-1103 -175 -545 0
-1103 -175 -593 0
-1103 -175 -617 0
-1103 -175 -551 0
-1103 -175 -599 0
-1103 -175 -623 0
-1103 -175 -557 0
-1103 -175 -605 0
-1103 -175 -629 0
-1103 -176 -551 0
-1103 -176 -599 0
-1103 -176 -623 0
-1103 -176 -557 0
-1103 -176 -605 0
-1103 -176 -629 0
-1103 -177 -557 0
-1103 -177 -605 0
-1103 -177 -629 0
-1103 -178 0
-1103 95 0
-1103 -175 196 0
-1103 -176 197 0
-1103 -177 198 0
-1103 -239 0
-1104 236 0
-1104 -75 -175 -180 0
-1104 -75 -176 -181 0
-1104 -75 -177 -182 0
-1104 69 0
-1104 -69 -175 1326 570 0
-1104 -69 -176 1326 576 0
-1104 -69 -177 1326 582 0
-1104 -175 -546 0
-1104 -175 -594 0
-1104 -175 -618 0
-1104 -175 -552 0
-1104 -175 -600 0
-1104 -175 -624 0
-1104 -175 -558 0
-1104 -175 -606 0
-1104 -175 -630 0
-1104 -176 -552 0
-1104 -176 -600 0
-1104 -176 -624 0
-1104 -176 -558 0
-1104 -176 -606 0
-1104 -176 -630 0
-1104 -177 -558 0
-1104 -177 -606 0
-1104 -177 -630 0
-1104 -178 0
-1104 96 0
-1104 -175 196 0
-1104 -176 197 0
-1104 -177 198 0
-1104 -239 0
-1105 236 0
-1105 -70 -183 -180 0
-1105 -70 -184 -181 0
-1105 -70 -185 -182 0
-1105 76 0
-1105 -76 -183 1333 565 0
-1105 -76 -184 1333 571 0
-1105 -76 -185 1333 577 0
-1105 -183 -541 0
-1105 -183 -589 0
-1105 -183 -613 0
-1105 -183 -547 0
-1105 -183 -595 0
-1105 -183 -619 0
-1105 -183 -553 0
-1105 -183 -601 0
-1105 -183 -625 0
-1105 -184 -547 0
-1105 -184 -595 0
-1105 -184 -619 0
-1105 -184 -553 0
-1105 -184 -601 0
-1105 -184 -625 0
-1105 -185 -553 0
-1105 -185 -601 0
-1105 -185 -625 0
-1105 -186 0
-1105 91 0
-1105 -183 196 0
-1105 -184 197 0
-1105 -185 198 0
-1105 -241 0
-1106 236 0
-1106 -71 -183 -180 0
-1106 -71 -184 -181 0
-1106 -71 -185 -182 0
-1106 76 77 0
-1106 -76 -183 1334 566 0
-1106 -76 -184 1334 572 0
-1106 -76 -185 1334 578 0
-1106 -77 -183 1334 566 0
-1106 -77 -184 1334 572 0
-1106 -77 -185 1334 578 0
-1106 -183 -542 0
-1106 -183 -590 0
-1106 -183 -614 0
-1106 -183 -548 0
-1106 -183 -596 0
-1106 -183 -620 0
-1106 -183 -554 0
-1106 -183 -602 0
-1106 -183 -626 0
-1106 -184 -548 0
-1106 -184 -596 0
-1106 -184 -620 0
-1106 -184 -554 0
-1106 -184 -602 0
-1106 -184 -626 0
-1106 -185 -554 0
-1106 -185 -602 0
-1106 -185 -626 0
-1106 -186 0
-1106 92 0
-1106 -183 196 0
-1106 -184 197 0
-1106 -185 198 0
-1106 -241 0
-1107 236 0
-1107 -72 -183 -180 0
-1107 -72 -184 -181 0
-1107 -72 -185 -182 0
-1107 77 78 0
-1107 -77 -183 1335 567 0
-1107 -77 -184 1335 573 0
-1107 -77 -185 1335 579 0
-1107 -78 -183 1335 567 0
-1107 -78 -184 1335 573 0
-1107 -78 -185 1335 579 0
-1107 -183 -543 0
-1107 -183 -591 0
-1107 -183 -615 0
-1107 -183 -549 0
-1107 -183 -597 0
-1107 -183 -621 0
-1107 -183 -555 0
-1107 -183 -603 0
-1107 -183 -627 0
-1107 -184 -549 0
-1107 -184 -597 0
-1107 -184 -621 0
-1107 -184 -555 0
-1107 -184 -603 0
-1107 -184 -627 0
-1107 -185 -555 0
-1107 -185 -603 0
-1107 -185 -627 0
-1107 -186 0
-1107 93 0
-1107 -183 196 0
-1107 -184 197 0
-1107 -185 198 0
-1107 -241 0
-1108 236 0
-1108 -73 -183 -180 0
-1108 -73 -184 -181 0
-1108 -73 -185 -182 0
-1108 78 79 0
-1108 -78 -183 1336 568 0
-1108 -78 -184 1336 574 0
-1108 -78 -185 1336 580 0
-1108 -79 -183 1336 568 0
-1108 -79 -184 1336 574 0
-1108 -79 -185 1336 580 0
-1108 -183 -544 0
-1108 -183 -592 0
-1108 -183 -616 0
-1108 -183 -550 0
-1108 -183 -598 0
-1108 -183 -622 0
-1108 -183 -556 0
-1108 -183 -604 0
-1108 -183 -628 0
-1108 -184 -550 0
-1108 -184 -598 0
-1108 -184 -622 0
-1108 -184 -556 0
-1108 -184 -604 0
-1108 -184 -628 0
-1108 -185 -556 0
-1108 -185 -604 0
-1108 -185 -628 0
-1108 -186 0
-1108 94 0
-1108 -183 196 0
-1108 -184 197 0
-1108 -185 198 0
-1108 -241 0
-1109 236 0
-1109 -74 -183 -180 0
-1109 -74 -184 -181 0
-1109 -74 -185 -182 0
-1109 79 80 0
-1109 -79 -183 1337 569 0
-1109 -79 -184 1337 575 0
-1109 -79 -185 1337 581 0
-1109 -80 -183 1337 569 0
-1109 -80 -184 1337 575 0
-1109 -80 -185 1337 581 0
-1109 -183 -545 0
-1109 -183 -593 0
-1109 -183 -617 0
-1109 -183 -551 0
-1109 -183 -599 0
-1109 -183 -623 0
-1109 -183 -557 0
-1109 -183 -605 0
-1109 -183 -629 0
-1109 -184 -551 0
-1109 -184 -599 0
-1109 -184 -623 0
-1109 -184 -557 0
-1109 -184 -605 0
-1109 -184 -629 0
-1109 -185 -557 0
-1109 -185 -605 0
-1109 -185 -629 0
-1109 -186 0
-1109 95 0
-1109 -183 196 0
-1109 -184 197 0
-1109 -185 198 0
-1109 -241 0
-1110 236 0
-1110 -75 -183 -180 0
-1110 -75 -184 -181 0
-1110 -75 -185 -182 0
-1110 80 0
-1110 -80 -183 1338 570 0
-1110 -80 -184 1338 576 0
-1110 -80 -185 1338 582 0
-1110 -183 -546 0
-1110 -183 -594 0
-1110 -183 -618 0
-1110 -183 -552 0
-1110 -183 -600 0
-1110 -183 -624 0
-1110 -183 -558 0
-1110 -183 -606 0
-1110 -183 -630 0
-1110 -184 -552 0
-1110 -184 -600 0
-1110 -184 -624 0
-1110 -184 -558 0
-1110 -184 -606 0
-1110 -184 -630 0
-1110 -185 -558 0
-1110 -185 -606 0
-1110 -185 -630 0
-1110 -186 0
-1110 96 0
-1110 -183 196 0
-1110 -184 197 0
-1110 -185 198 0
-1110 -241 0
-1111 236 0
-1111 -70 -187 -180 0
-1111 -70 -188 -181 0
-1111 -70 -189 -182 0
-1111 81 0
-1111 -81 -187 1339 565 0
-1111 -81 -188 1339 571 0
-1111 -81 -189 1339 577 0
-1111 -187 -541 0
-1111 -187 -589 0
-1111 -187 -613 0
-1111 -187 -547 0
-1111 -187 -595 0
-1111 -187 -619 0
-1111 -187 -553 0
-1111 -187 -601 0
-1111 -187 -625 0
-1111 -188 -547 0
-1111 -188 -595 0
-1111 -188 -619 0
-1111 -188 -553 0
-1111 -188 -601 0
-1111 -188 -625 0
-1111 -189 -553 0
-1111 -189 -601 0
-1111 -189 -625 0
-1111 -190 0
-1111 91 0
-1111 -187 196 0
-1111 -188 197 0
-1111 -189 198 0
-1111 -242 0
-1112 236 0
-1112 -71 -187 -180 0
-1112 -71 -188 -181 0
-1112 -71 -189 -182 0
-1112 81 82 0
-1112 -81 -187 1340 566 0
-1112 -81 -188 1340 572 0
-1112 -81 -189 1340 578 0
-1112 -82 -187 1340 566 0
-1112 -82 -188 1340 572 0
-1112 -82 -189 1340 578 0
-1112 -187 -542 0
-1112 -187 -590 0
-1112 -187 -614 0
-1112 -187 -548 0
-1112 -187 -596 0
-1112 -187 -620 0
-1112 -187 -554 0
-1112 -187 -602 0
-1112 -187 -626 0
-1112 -188 -548 0
-1112 -188 -596 0
-1112 -188 -620 0
-1112 -188 -554 0
-1112 -188 -602 0
-1112 -188 -626 0
-1112 -189 -554 0
-1112 -189 -602 0
-1112 -189 -626 0
-1112 -190 0
-1112 92 0
-1112 -187 196 0
-1112 -188 197 0
-1112 -189 198 0
-1112 -242 0
-1113 236 0
-1113 -72 -187 -180 0
-1113 -72 -188 -181 0
-1113 -72 -189 -182 0
-1113 81 82 83 0
-1113 -81 -187 1341 567 0
-1113 -81 -188 1341 573 0
-1113 -81 -189 1341 579 0
-1113 -82 -187 1341 567 0
-1113 -82 -188 1341 573 0
-1113 -82 -189 1341 579 0
-1113 -83 -187 1341 567 0
-1113 -83 -188 1341 573 0
-1113 -83 -189 1341 579 0
-1113 -187 -543 0
-1113 -187 -591 0
-1113 -187 -615 0
-1113 -187 -549 0
-1113 -187 -597 0
-1113 -187 -621 0
-1113 -187 -555 0
-1113 -187 -603 0
-1113 -187 -627 0
-1113 -188 -549 0
-1113 -188 -597 0
-1113 -188 -621 0
-1113 -188 -555 0
-1113 -188 -603 0
-1113 -188 -627 0
-1113 -189 -555 0
-1113 -189 -603 0
-1113 -189 -627 0
-1113 -190 0
-1113 93 0
-1113 -187 196 0
-1113 -188 197 0
-1113 -189 198 0
-1113 -242 0
-1114 236 0
-1114 -73 -187 -180 0
-1114 -73 -188 -181 0
-1114 -73 -189 -182 0
-1114 82 83 84 0
-1114 -82 -187 1342 568 0
-1114 -82 -188 1342 574 0
-1114 -82 -189 1342 580 0
-1114 -83 -187 1342 568 0
-1114 -83 -188 1342 574 0
-1114 -83 -189 1342 580 0
-1114 -84 -187 1342 568 0
-1114 -84 -188 1342 574 0
-1114 -84 -189 1342 580 0
-1114 -187 -544 0
-1114 -187 -592 0
-1114 -187 -616 0
-1114 -187 -550 0
-1114 -187 -598 0
-1114 -187 -622 0
-1114 -187 -556 0
-1114 -187 -604 0
-1114 -187 -628 0
-1114 -188 -550 0
-1114 -188 -598 0
-1114 -188 -622 0
-1114 -188 -556 0
-1114 -188 -604 0
-1114 -188 -628 0
-1114 -189 -556 0
-1114 -189 -604 0
-1114 -189 -628 0
-1114 -190 0
-1114 94 0
-1114 -187 196 0
-1114 -188 197 0
-1114 -189 198 0
-1114 -242 0
-1115 236 0
-1115 -74 -187 -180 0
-1115 -74 -188 -181 0
-1115 -74 -189 -182 0
-1115 83 84 0
-1115 -83 -187 1343 569 0
-1115 -83 -188 1343 575 0
-1115 -83 -189 1343 581 0
-1115 -84 -187 1343 569 0
-1115 -84 -188 1343 575 0
-1115 -84 -189 1343 581 0
-1115 -187 -545 0
-1115 -187 -593 0
-1115 -187 -617 0
-1115 -187 -551 0
-1115 -187 -599 0
-1115 -187 -623 0
-1115 -187 -557 0
-1115 -187 -605 0
-1115 -187 -629 0
-1115 -188 -551 0
-1115 -188 -599 0
-1115 -188 -623 0
-1115 -188 -557 0
-1115 -188 -605 0
-1115 -188 -629 0
-1115 -189 -557 0
-1115 -189 -605 0
-1115 -189 -629 0
-1115 -190 0
-1115 95 0
-1115 -187 196 0
-1115 -188 197 0
-1115 -189 198 0
-1115 -242 0
-1116 236 0
-1116 -75 -187 -180 0
-1116 -75 -188 -181 0
-1116 -75 -189 -182 0
-1116 84 0
-1116 -84 -187 1344 570 0
-1116 -84 -188 1344 576 0
-1116 -84 -189 1344 582 0
-1116 -187 -546 0
-1116 -187 -594 0
-1116 -187 -618 0
-1116 -187 -552 0
-1116 -187 -600 0
-1116 -187 -624 0
-1116 -187 -558 0
-1116 -187 -606 0
-1116 -187 -630 0
-1116 -188 -552 0
-1116 -188 -600 0
-1116 -188 -624 0
-1116 -188 -558 0
-1116 -188 -606 0
-1116 -188 -630 0
-1116 -189 -558 0
-1116 -189 -606 0
-1116 -189 -630 0
-1116 -190 0
-1116 96 0
-1116 -187 196 0
-1116 -188 197 0
-1116 -189 198 0
-1116 -242 0
-1117 236 0
-1117 -70 -179 0
-1117 -535 0
-1117 -583 0
-1117 -607 0
-1117 -541 0
-1117 -589 0
-1117 -613 0
-1117 -547 0
-1117 -595 0
-1117 -619 0
-1117 -553 0
-1117 -601 0
-1117 -625 0
-1117 91 0
-1117 195 0
-1118 236 0
-1118 -71 -179 0
-1118 -536 0
-1118 -584 0
-1118 -608 0
-1118 -542 0
-1118 -590 0
-1118 -614 0
-1118 -548 0
-1118 -596 0
-1118 -620 0
-1118 -554 0
-1118 -602 0
-1118 -626 0
-1118 92 0
-1118 195 0
-1119 236 0
-1119 -72 -179 0
-1119 -537 0
-1119 -585 0
-1119 -609 0
-1119 -543 0
-1119 -591 0
-1119 -615 0
-1119 -549 0
-1119 -597 0
-1119 -621 0
-1119 -555 0
-1119 -603 0
-1119 -627 0
-1119 93 0
-1119 195 0
-1120 236 0
-1120 -73 -179 0
-1120 -538 0
-1120 -586 0
-1120 -610 0
-1120 -544 0
-1120 -592 0
-1120 -616 0
-1120 -550 0
-1120 -598 0
-1120 -622 0
-1120 -556 0
-1120 -604 0
-1120 -628 0
-1120 94 0
-1120 195 0
-1121 236 0
-1121 -74 -179 0
-1121 -539 0
-1121 -587 0
-1121 -611 0
-1121 -545 0
-1121 -593 0
-1121 -617 0
-1121 -551 0
-1121 -599 0
-1121 -623 0
-1121 -557 0
-1121 -605 0
-1121 -629 0
-1121 95 0
-1121 195 0
-1122 236 0
-1122 -75 -179 0
-1122 -540 0
-1122 -588 0
-1122 -612 0
-1122 -546 0
-1122 -594 0
-1122 -618 0
-1122 -552 0
-1122 -600 0
-1122 -624 0
-1122 -558 0
-1122 -606 0
-1122 -630 0
-1122 96 0
-1122 195 0
-1123 237 0
-1123 -76 -175 -184 0
-1123 -76 -176 -185 0
-1123 -76 -177 -186 0
-1123 64 65 0
-1123 -64 -175 1321 589 0
-1123 -64 -176 1321 595 0
-1123 -64 -177 1321 601 0
-1123 -65 -175 1322 590 0
-1123 -65 -176 1322 596 0
-1123 -65 -177 1322 602 0
-1123 -175 -541 0
-1123 -175 -565 0
-1123 -175 -613 0
-1123 -175 -547 0
-1123 -175 -571 0
-1123 -175 -619 0
-1123 -175 -553 0
-1123 -175 -577 0
-1123 -175 -625 0
-1123 -175 -542 0
-1123 -175 -566 0
-1123 -175 -614 0
-1123 -175 -548 0
-1123 -175 -572 0
-1123 -175 -620 0
-1123 -175 -554 0
-1123 -175 -578 0
-1123 -175 -626 0
-1123 -176 -547 0
-1123 -176 -571 0
-1123 -176 -619 0
-1123 -176 -553 0
-1123 -176 -577 0
-1123 -176 -625 0
-1123 -176 -548 0
-1123 -176 -572 0
-1123 -176 -620 0
-1123 -176 -554 0
-1123 -176 -578 0
-1123 -176 -626 0
-1123 -177 -553 0
-1123 -177 -577 0
-1123 -177 -625 0
-1123 -177 -554 0
-1123 -177 -578 0
-1123 -177 -626 0
-1123 -178 0
-1123 97 0
-1123 -175 200 0
-1123 -176 201 0
-1123 -177 202 0
-1123 -239 0
-1124 237 0
-1124 -77 -175 -184 0
-1124 -77 -176 -185 0
-1124 -77 -177 -186 0
-1124 65 66 0
-1124 -65 -175 1322 590 0
-1124 -65 -176 1322 596 0
-1124 -65 -177 1322 602 0
-1124 -66 -175 1323 591 0
-1124 -66 -176 1323 597 0
-1124 -66 -177 1323 603 0
-1124 -175 -542 0
-1124 -175 -566 0
-1124 -175 -614 0
-1124 -175 -548 0
-1124 -175 -572 0
-1124 -175 -620 0
-1124 -175 -554 0
-1124 -175 -578 0
-1124 -175 -626 0
-1124 -175 -543 0
-1124 -175 -567 0
-1124 -175 -615 0
-1124 -175 -549 0
-1124 -175 -573 0
-1124 -175 -621 0
-1124 -175 -555 0
-1124 -175 -579 0
-1124 -175 -627 0
-1124 -176 -548 0
-1124 -176 -572 0
-1124 -176 -620 0
-1124 -176 -554 0
-1124 -176 -578 0
-1124 -176 -626 0
-1124 -176 -549 0
-1124 -176 -573 0
-1124 -176 -621 0
-1124 -176 -555 0
-1124 -176 -579 0
-1124 -176 -627 0
-1124 -177 -554 0
-1124 -177 -578 0
-1124 -177 -626 0
-1124 -177 -555 0
-1124 -177 -579 0
-1124 -177 -627 0
-1124 -178 0
-1124 98 0
-1124 -175 200 0
-1124 -176 201 0
-1124 -177 202 0
-1124 -239 0
-1125 237 0
-1125 -78 -175 -184 0
-1125 -78 -176 -185 0
-1125 -78 -177 -186 0
-1125 66 67 0
-1125 -66 -175 1323 591 0
-1125 -66 -176 1323 597 0
-1125 -66 -177 1323 603 0
-1125 -67 -175 1324 592 0
-1125 -67 -176 1324 598 0
-1125 -67 -177 1324 604 0
-1125 -175 -543 0
-1125 -175 -567 0
-1125 -175 -615 0
-1125 -175 -549 0
-1125 -175 -573 0
-1125 -175 -621 0
-1125 -175 -555 0
-1125 -175 -579 0
-1125 -175 -627 0
-1125 -175 -544 0
-1125 -175 -568 0
-1125 -175 -616 0
-1125 -175 -550 0
-1125 -175 -574 0
-1125 -175 -622 0
-1125 -175 -556 0
-1125 -175 -580 0
-1125 -175 -628 0
-1125 -176 -549 0
-1125 -176 -573 0
-1125 -176 -621 0
-1125 -176 -555 0
-1125 -176 -579 0
-1125 -176 -627 0
-1125 -176 -550 0
-1125 -176 -574 0
-1125 -176 -622 0
-1125 -176 -556 0
-1125 -176 -580 0
-1125 -176 -628 0
-1125 -177 -555 0
-1125 -177 -579 0
-1125 -177 -627 0
-1125 -177 -556 0
-1125 -177 -580 0
-1125 -177 -628 0
-1125 -178 0
-1125 99 0
-1125 -175 200 0
-1125 -176 201 0
-1125 -177 202 0
-1125 -239 0
-1126 237 0
-1126 -79 -175 -184 0
-1126 -79 -176 -185 0
-1126 -79 -177 -186 0
-1126 67 68 0
-1126 -67 -175 1324 592 0
-1126 -67 -176 1324 598 0
-1126 -67 -177 1324 604 0
-1126 -68 -175 1325 593 0
-1126 -68 -176 1325 599 0
-1126 -68 -177 1325 605 0
-1126 -175 -544 0
-1126 -175 -568 0
-1126 -175 -616 0
-1126 -175 -550 0
-1126 -175 -574 0
-1126 -175 -622 0
-1126 -175 -556 0
-1126 -175 -580 0
-1126 -175 -628 0
-1126 -175 -545 0
-1126 -175 -569 0
-1126 -175 -617 0
-1126 -175 -551 0
-1126 -175 -575 0
-1126 -175 -623 0
-1126 -175 -557 0
-1126 -175 -581 0
-1126 -175 -629 0
-1126 -176 -550 0
-1126 -176 -574 0
-1126 -176 -622 0
-1126 -176 -556 0
-1126 -176 -580 0
-1126 -176 -628 0
-1126 -176 -551 0
-1126 -176 -575 0
-1126 -176 -623 0
-1126 -176 -557 0
-1126 -176 -581 0
-1126 -176 -629 0
-1126 -177 -556 0
-1126 -177 -580 0
-1126 -177 -628 0
-1126 -177 -557 0
-1126 -177 -581 0
-1126 -177 -629 0
-1126 -178 0
-1126 100 0
-1126 -175 200 0
-1126 -176 201 0
-1126 -177 202 0
-1126 -239 0
-1127 237 0
-1127 -80 -175 -184 0
-1127 -80 -176 -185 0
-1127 -80 -177 -186 0
-1127 68 69 0
-1127 -68 -175 1325 593 0
-1127 -68 -176 1325 599 0
-1127 -68 -177 1325 605 0
-1127 -69 -175 1326 594 0
-1127 -69 -176 1326 600 0
-1127 -69 -177 1326 606 0
-1127 -175 -545 0
-1127 -175 -569 0
-1127 -175 -617 0
-1127 -175 -551 0
-1127 -175 -575 0
-1127 -175 -623 0
-1127 -175 -557 0
-1127 -175 -581 0
-1127 -175 -629 0
-1127 -175 -546 0
-1127 -175 -570 0
-1127 -175 -618 0
-1127 -175 -552 0
-1127 -175 -576 0
-1127 -175 -624 0
-1127 -175 -558 0
-1127 -175 -582 0
-1127 -175 -630 0
-1127 -176 -551 0
-1127 -176 -575 0
-1127 -176 -623 0
-1127 -176 -557 0
-1127 -176 -581 0
-1127 -176 -629 0
-1127 -176 -552 0
-1127 -176 -576 0
-1127 -176 -624 0
-1127 -176 -558 0
-1127 -176 -582 0
-1127 -176 -630 0
-1127 -177 -557 0
-1127 -177 -581 0
-1127 -177 -629 0
-1127 -177 -558 0
-1127 -177 -582 0
-1127 -177 -630 0
-1127 -178 0
-1127 101 0
-1127 -175 200 0
-1127 -176 201 0
-1127 -177 202 0
-1127 -239 0
-1128 237 0
-1128 -76 -179 -184 0
-1128 -76 -180 -185 0
-1128 -76 -181 -186 0
-1128 70 71 0
-1128 -70 -179 1327 589 0
-1128 -70 -180 1327 595 0
-1128 -70 -181 1327 601 0
-1128 -71 -179 1328 590 0
-1128 -71 -180 1328 596 0
-1128 -71 -181 1328 602 0
-1128 -179 -541 0
-1128 -179 -565 0
-1128 -179 -613 0
-1128 -179 -547 0
-1128 -179 -571 0
-1128 -179 -619 0
-1128 -179 -553 0
-1128 -179 -577 0
-1128 -179 -625 0
-1128 -179 -542 0
-1128 -179 -566 0
-1128 -179 -614 0
-1128 -179 -548 0
-1128 -179 -572 0
-1128 -179 -620 0
-1128 -179 -554 0
-1128 -179 -578 0
-1128 -179 -626 0
-1128 -180 -547 0
-1128 -180 -571 0
-1128 -180 -619 0
-1128 -180 -553 0
-1128 -180 -577 0
-1128 -180 -625 0
-1128 -180 -548 0
-1128 -180 -572 0
-1128 -180 -620 0
-1128 -180 -554 0
-1128 -180 -578 0
-1128 -180 -626 0
-1128 -181 -553 0
-1128 -181 -577 0
-1128 -181 -625 0
-1128 -181 -554 0
-1128 -181 -578 0
-1128 -181 -626 0
-1128 -182 0
-1128 97 0
-1128 -179 200 0
-1128 -180 201 0
-1128 -181 202 0
-1128 -240 0
-1129 237 0
-1129 -77 -179 -184 0
-1129 -77 -180 -185 0
-1129 -77 -181 -186 0
-1129 71 72 0
-1129 -71 -179 1328 590 0
-1129 -71 -180 1328 596 0
-1129 -71 -181 1328 602 0
-1129 -72 -179 1329 591 0
-1129 -72 -180 1329 597 0
-1129 -72 -181 1329 603 0
-1129 -179 -542 0
-1129 -179 -566 0
-1129 -179 -614 0
-1129 -179 -548 0
-1129 -179 -572 0
-1129 -179 -620 0
-1129 -179 -554 0
-1129 -179 -578 0
-1129 -179 -626 0
-1129 -179 -543 0
-1129 -179 -567 0
-1129 -179 -615 0
-1129 -179 -549 0
-1129 -179 -573 0
-1129 -179 -621 0
-1129 -179 -555 0
-1129 -179 -579 0
-1129 -179 -627 0
-1129 -180 -548 0
-1129 -180 -572 0
-1129 -180 -620 0
-1129 -180 -554 0
-1129 -180 -578 0
-1129 -180 -626 0
-1129 -180 -549 0
-1129 -180 -573 0
-1129 -180 -621 0
-1129 -180 -555 0
-1129 -180 -579 0
-1129 -180 -627 0
-1129 -181 -554 0
-1129 -181 -578 0
-1129 -181 -626 0
-1129 -181 -555 0
-1129 -181 -579 0
-1129 -181 -627 0
-1129 -182 0
-1129 98 0
-1129 -179 200 0
-1129 -180 201 0
-1129 -181 202 0
-1129 -240 0
-1130 237 0
-1130 -78 -179 -184 0
-1130 -78 -180 -185 0
-1130 -78 -181 -186 0
-1130 72 73 0
-1130 -72 -179 1329 591 0
-1130 -72 -180 1329 597 0
-1130 -72 -181 1329 603 0
-1130 -73 -179 1330 592 0
-1130 -73 -180 1330 598 0
-1130 -73 -181 1330 604 0
-1130 -179 -543 0
-1130 -179 -567 0
-1130 -179 -615 0
-1130 -179 -549 0
-1130 -179 -573 0
-1130 -179 -621 0
-1130 -179 -555 0
-1130 -179 -579 0
-1130 -179 -627 0
-1130 -179 -544 0
-1130 -179 -568 0
-1130 -179 -616 0
-1130 -179 -550 0
-1130 -179 -574 0
-1130 -179 -622 0
-1130 -179 -556 0
-1130 -179 -580 0
-1130 -179 -628 0
-1130 -180 -549 0
-1130 -180 -573 0
-1130 -180 -621 0
-1130 -180 -555 0
-1130 -180 -579 0
-1130 -180 -627 0
-1130 -180 -550 0
-1130 -180 -574 0
-1130 -180 -622 0
-1130 -180 -556 0
-1130 -180 -580 0
-1130 -180 -628 0
-1130 -181 -555 0
-1130 -181 -579 0
-1130 -181 -627 0
-1130 -181 -556 0
-1130 -181 -580 0
-1130 -181 -628 0
-1130 -182 0
-1130 99 0
-1130 -179 200 0
-1130 -180 201 0
-1130 -181 202 0
-1130 -240 0
-1131 237 0
-1131 -79 -179 -184 0
-1131 -79 -180 -185 0
-1131 -79 -181 -186 0
-1131 73 74 0
-1131 -73 -179 1330 592 0
-1131 -73 -180 1330 598 0
-1131 -73 -181 1330 604 0
-1131 -74 -179 1331 593 0
-1131 -74 -180 1331 599 0
-1131 -74 -181 1331 605 0
-1131 -179 -544 0
-1131 -179 -568 0
-1131 -179 -616 0
-1131 -179 -550 0
-1131 -179 -574 0
-1131 -179 -622 0
-1131 -179 -556 0
-1131 -179 -580 0
-1131 -179 -628 0
-1131 -179 -545 0
-1131 -179 -569 0
-1131 -179 -617 0
-1131 -179 -551 0
-1131 -179 -575 0
-1131 -179 -623 0
-1131 -179 -557 0
-1131 -179 -581 0
-1131 -179 -629 0
-1131 -180 -550 0
-1131 -180 -574 0
-1131 -180 -622 0
-1131 -180 -556 0
-1131 -180 -580 0
-1131 -180 -628 0
-1131 -180 -551 0
-1131 -180 -575 0
-1131 -180 -623 0
-1131 -180 -557 0
-1131 -180 -581 0
-1131 -180 -629 0
-1131 -181 -556 0
-1131 -181 -580 0
-1131 -181 -628 0
-1131 -181 -557 0
-1131 -181 -581 0
-1131 -181 -629 0
-1131 -182 0
-1131 100 0
-1131 -179 200 0
-1131 -180 201 0
-1131 -181 202 0
-1131 -240 0
-1132 237 0
-1132 -80 -179 -184 0
-1132 -80 -180 -185 0
-1132 -80 -181 -186 0
-1132 74 75 0
-1132 -74 -179 1331 593 0
-1132 -74 -180 1331 599 0
-1132 -74 -181 1331 605 0
-1132 -75 -179 1332 594 0
-1132 -75 -180 1332 600 0
-1132 -75 -181 1332 606 0
-1132 -179 -545 0
-1132 -179 -569 0
-1132 -179 -617 0
-1132 -179 -551 0
-1132 -179 -575 0
-1132 -179 -623 0
-1132 -179 -557 0
-1132 -179 -581 0
-1132 -179 -629 0
-1132 -179 -546 0
-1132 -179 -570 0
-1132 -179 -618 0
-1132 -179 -552 0
-1132 -179 -576 0
-1132 -179 -624 0
-1132 -179 -558 0
-1132 -179 -582 0
-1132 -179 -630 0
-1132 -180 -551 0
-1132 -180 -575 0
-1132 -180 -623 0
-1132 -180 -557 0
-1132 -180 -581 0
-1132 -180 -629 0
-1132 -180 -552 0
-1132 -180 -576 0
-1132 -180 -624 0
-1132 -180 -558 0
-1132 -180 -582 0
-1132 -180 -630 0
-1132 -181 -557 0
-1132 -181 -581 0
-1132 -181 -629 0
-1132 -181 -558 0
-1132 -181 -582 0
-1132 -181 -630 0
-1132 -182 0
-1132 101 0
-1132 -179 200 0
-1132 -180 201 0
-1132 -181 202 0
-1132 -240 0
-1133 237 0
-1133 -76 -187 -184 0
-1133 -76 -188 -185 0
-1133 -76 -189 -186 0
-1133 81 82 0
-1133 -81 -187 1339 589 0
-1133 -81 -188 1339 595 0
-1133 -81 -189 1339 601 0
-1133 -81 -187 1340 590 0
-1133 -81 -188 1340 596 0
-1133 -81 -189 1340 602 0
-1133 -82 -187 1340 590 0
-1133 -82 -188 1340 596 0
-1133 -82 -189 1340 602 0
-1133 -187 -541 0
-1133 -187 -565 0
-1133 -187 -613 0
-1133 -187 -547 0
-1133 -187 -571 0
-1133 -187 -619 0
-1133 -187 -553 0
-1133 -187 -577 0
-1133 -187 -625 0
-1133 -187 -542 0
-1133 -187 -566 0
-1133 -187 -614 0
-1133 -187 -548 0
-1133 -187 -572 0
-1133 -187 -620 0
-1133 -187 -554 0
-1133 -187 -578 0
-1133 -187 -626 0
-1133 -188 -547 0
-1133 -188 -571 0
-1133 -188 -619 0
-1133 -188 -553 0
-1133 -188 -577 0
-1133 -188 -625 0
-1133 -188 -548 0
-1133 -188 -572 0
-1133 -188 -620 0
-1133 -188 -554 0
-1133 -188 -578 0
-1133 -188 -626 0
-1133 -189 -553 0
-1133 -189 -577 0
-1133 -189 -625 0
-1133 -189 -554 0
-1133 -189 -578 0
-1133 -189 -626 0
-1133 -190 0
-1133 97 0
-1133 -187 200 0
-1133 -188 201 0
-1133 -189 202 0
-1133 -242 0
-1134 237 0
-1134 -77 -187 -184 0
-1134 -77 -188 -185 0
-1134 -77 -189 -186 0
-1134 81 82 83 0
-1134 -81 -187 1340 590 0
-1134 -81 -188 1340 596 0
-1134 -81 -189 1340 602 0
-1134 -81 -187 1341 591 0
-1134 -81 -188 1341 597 0
-1134 -81 -189 1341 603 0
-1134 -82 -187 1340 590 0
-1134 -82 -188 1340 596 0
-1134 -82 -189 1340 602 0
-1134 -82 -187 1341 591 0
-1134 -82 -188 1341 597 0
-1134 -82 -189 1341 603 0
-1134 -83 -187 1341 591 0
-1134 -83 -188 1341 597 0
-1134 -83 -189 1341 603 0
-1134 -187 -542 0
-1134 -187 -566 0
-1134 -187 -614 0
-1134 -187 -548 0
-1134 -187 -572 0
-1134 -187 -620 0
-1134 -187 -554 0
-1134 -187 -578 0
-1134 -187 -626 0
-1134 -187 -543 0
-1134 -187 -567 0
-1134 -187 -615 0
-1134 -187 -549 0
-1134 -187 -573 0
-1134 -187 -621 0
-1134 -187 -555 0
-1134 -187 -579 0
-1134 -187 -627 0
-1134 -188 -548 0
-1134 -188 -572 0
-1134 -188 -620 0
-1134 -188 -554 0
-1134 -188 -578 0
-1134 -188 -626 0
-1134 -188 -549 0
-1134 -188 -573 0
-1134 -188 -621 0
-1134 -188 -555 0
-1134 -188 -579 0
-1134 -188 -627 0
-1134 -189 -554 0
-1134 -189 -578 0
-1134 -189 -626 0
-1134 -189 -555 0
-1134 -189 -579 0
-1134 -189 -627 0
-1134 -190 0
-1134 98 0
-1134 -187 200 0
-1134 -188 201 0
-1134 -189 202 0
-1134 -242 0
-1135 237 0
-1135 -78 -187 -184 0
-1135 -78 -188 -185 0
-1135 -78 -189 -186 0
-1135 81 82 83 84 0
-1135 -81 -187 1341 591 0
-1135 -81 -188 1341 597 0
-1135 -81 -189 1341 603 0
-1135 -82 -187 1341 591 0
-1135 -82 -188 1341 597 0
-1135 -82 -189 1341 603 0
-1135 -82 -187 1342 592 0
-1135 -82 -188 1342 598 0
-1135 -82 -189 1342 604 0
-1135 -83 -187 1341 591 0
-1135 -83 -188 1341 597 0
-1135 -83 -189 1341 603 0
-1135 -83 -187 1342 592 0
-1135 -83 -188 1342 598 0
-1135 -83 -189 1342 604 0
-1135 -84 -187 1342 592 0
-1135 -84 -188 1342 598 0
-1135 -84 -189 1342 604 0
-1135 -187 -543 0
-1135 -187 -567 0
-1135 -187 -615 0
-1135 -187 -549 0
-1135 -187 -573 0
-1135 -187 -621 0
-1135 -187 -555 0
-1135 -187 -579 0
-1135 -187 -627 0
-1135 -187 -544 0
-1135 -187 -568 0
-1135 -187 -616 0
-1135 -187 -550 0
-1135 -187 -574 0
-1135 -187 -622 0
-1135 -187 -556 0
-1135 -187 -580 0
-1135 -187 -628 0
-1135 -188 -549 0
-1135 -188 -573 0
-1135 -188 -621 0
-1135 -188 -555 0
-1135 -188 -579 0
-1135 -188 -627 0
-1135 -188 -550 0
-1135 -188 -574 0
-1135 -188 -622 0
-1135 -188 -556 0
-1135 -188 -580 0
-1135 -188 -628 0
-1135 -189 -555 0
-1135 -189 -579 0
-1135 -189 -627 0
-1135 -189 -556 0
-1135 -189 -580 0
-1135 -189 -628 0
-1135 -190 0
-1135 99 0
-1135 -187 200 0
-1135 -188 201 0
-1135 -189 202 0
-1135 -242 0
-1136 237 0
-1136 -79 -187 -184 0
-1136 -79 -188 -185 0
-1136 -79 -189 -186 0
-1136 82 83 84 0
-1136 -82 -187 1342 592 0
-1136 -82 -188 1342 598 0
-1136 -82 -189 1342 604 0
-1136 -83 -187 1342 592 0
-1136 -83 -188 1342 598 0
-1136 -83 -189 1342 604 0
-1136 -83 -187 1343 593 0
-1136 -83 -188 1343 599 0
-1136 -83 -189 1343 605 0
-1136 -84 -187 1342 592 0
-1136 -84 -188 1342 598 0
-1136 -84 -189 1342 604 0
-1136 -84 -187 1343 593 0
-1136 -84 -188 1343 599 0
-1136 -84 -189 1343 605 0
-1136 -187 -544 0
-1136 -187 -568 0
-1136 -187 -616 0
-1136 -187 -550 0
-1136 -187 -574 0
-1136 -187 -622 0
-1136 -187 -556 0
-1136 -187 -580 0
-1136 -187 -628 0
-1136 -187 -545 0
-1136 -187 -569 0
-1136 -187 -617 0
-1136 -187 -551 0
-1136 -187 -575 0
-1136 -187 -623 0
-1136 -187 -557 0
-1136 -187 -581 0
-1136 -187 -629 0
-1136 -188 -550 0
-1136 -188 -574 0
-1136 -188 -622 0
-1136 -188 -556 0
-1136 -188 -580 0
-1136 -188 -628 0
-1136 -188 -551 0
-1136 -188 -575 0
-1136 -188 -623 0
-1136 -188 -557 0
-1136 -188 -581 0
-1136 -188 -629 0
-1136 -189 -556 0
-1136 -189 -580 0
-1136 -189 -628 0
-1136 -189 -557 0
-1136 -189 -581 0
-1136 -189 -629 0
-1136 -190 0
-1136 100 0
-1136 -187 200 0
-1136 -188 201 0
-1136 -189 202 0
-1136 -242 0
-1137 237 0
-1137 -80 -187 -184 0
-1137 -80 -188 -185 0
-1137 -80 -189 -186 0
-1137 83 84 0
-1137 -83 -187 1343 593 0
-1137 -83 -188 1343 599 0
-1137 -83 -189 1343 605 0
-1137 -84 -187 1343 593 0
-1137 -84 -188 1343 599 0
-1137 -84 -189 1343 605 0
-1137 -84 -187 1344 594 0
-1137 -84 -188 1344 600 0
-1137 -84 -189 1344 606 0
-1137 -187 -545 0
-1137 -187 -569 0
-1137 -187 -617 0
-1137 -187 -551 0
-1137 -187 -575 0
-1137 -187 -623 0
-1137 -187 -557 0
-1137 -187 -581 0
-1137 -187 -629 0
-1137 -187 -546 0
-1137 -187 -570 0
-1137 -187 -618 0
-1137 -187 -552 0
-1137 -187 -576 0
-1137 -187 -624 0
-1137 -187 -558 0
-1137 -187 -582 0
-1137 -187 -630 0
-1137 -188 -551 0
-1137 -188 -575 0
-1137 -188 -623 0
-1137 -188 -557 0
-1137 -188 -581 0
-1137 -188 -629 0
-1137 -188 -552 0
-1137 -188 -576 0
-1137 -188 -624 0
-1137 -188 -558 0
-1137 -188 -582 0
-1137 -188 -630 0
-1137 -189 -557 0
-1137 -189 -581 0
-1137 -189 -629 0
-1137 -189 -558 0
-1137 -189 -582 0
-1137 -189 -630 0
-1137 -190 0
-1137 101 0
-1137 -187 200 0
-1137 -188 201 0
-1137 -189 202 0
-1137 -242 0
-1138 237 0
-1138 -76 -183 0
-1138 -535 0
-1138 -559 0
-1138 -607 0
-1138 -541 0
-1138 -565 0
-1138 -613 0
-1138 -547 0
-1138 -571 0
-1138 -619 0
-1138 -553 0
-1138 -577 0
-1138 -625 0
-1138 -536 0
-1138 -560 0
-1138 -608 0
-1138 -542 0
-1138 -566 0
-1138 -614 0
-1138 -548 0
-1138 -572 0
-1138 -620 0
-1138 -554 0
-1138 -578 0
-1138 -626 0
-1138 97 0
-1138 199 0
-1139 237 0
-1139 -77 -183 0
-1139 -536 0
-1139 -560 0
-1139 -608 0
-1139 -542 0
-1139 -566 0
-1139 -614 0
-1139 -548 0
-1139 -572 0
-1139 -620 0
-1139 -554 0
-1139 -578 0
-1139 -626 0
-1139 -537 0
-1139 -561 0
-1139 -609 0
-1139 -543 0
-1139 -567 0
-1139 -615 0
-1139 -549 0
-1139 -573 0
-1139 -621 0
-1139 -555 0
-1139 -579 0
-1139 -627 0
-1139 98 0
-1139 199 0
-1140 237 0
-1140 -78 -183 0
-1140 -537 0
-1140 -561 0
-1140 -609 0
-1140 -543 0
-1140 -567 0
-1140 -615 0
-1140 -549 0
-1140 -573 0
-1140 -621 0
-1140 -555 0
-1140 -579 0
-1140 -627 0
-1140 -538 0
-1140 -562 0
-1140 -610 0
-1140 -544 0
-1140 -568 0
-1140 -616 0
-1140 -550 0
-1140 -574 0
-1140 -622 0
-1140 -556 0
-1140 -580 0
-1140 -628 0
-1140 99 0
-1140 199 0
-1141 237 0
-1141 -79 -183 0
-1141 -538 0
-1141 -562 0
-1141 -610 0
-1141 -544 0
-1141 -568 0
-1141 -616 0
-1141 -550 0
-1141 -574 0
-1141 -622 0
-1141 -556 0
-1141 -580 0
-1141 -628 0
-1141 -539 0
-1141 -563 0
-1141 -611 0
-1141 -545 0
-1141 -569 0
-1141 -617 0
-1141 -551 0
-1141 -575 0
-1141 -623 0
-1141 -557 0
-1141 -581 0
-1141 -629 0
-1141 100 0
-1141 199 0
-1142 237 0
-1142 -80 -183 0
-1142 -539 0
-1142 -563 0
-1142 -611 0
-1142 -545 0
-1142 -569 0
-1142 -617 0
-1142 -551 0
-1142 -575 0
-1142 -623 0
-1142 -557 0
-1142 -581 0
-1142 -629 0
-1142 -540 0
-1142 -564 0
-1142 -612 0
-1142 -546 0
-1142 -570 0
-1142 -618 0
-1142 -552 0
-1142 -576 0
-1142 -624 0
-1142 -558 0
-1142 -582 0
-1142 -630 0
-1142 101 0
-1142 199 0
-1143 238 0
-1143 -81 -175 -188 0
-1143 -81 -176 -189 0
-1143 -81 -177 -190 0
-1143 64 65 66 0
-1143 -64 -175 1321 613 0
-1143 -64 -176 1321 619 0
-1143 -64 -177 1321 625 0
-1143 -65 -175 1322 614 0
-1143 -65 -176 1322 620 0
-1143 -65 -177 1322 626 0
-1143 -66 -175 1323 615 0
-1143 -66 -176 1323 621 0
-1143 -66 -177 1323 627 0
-1143 -175 -541 0
-1143 -175 -565 0
-1143 -175 -589 0
-1143 -175 -547 0
-1143 -175 -571 0
-1143 -175 -595 0
-1143 -175 -553 0
-1143 -175 -577 0
-1143 -175 -601 0
-1143 -175 -542 0
-1143 -175 -566 0
-1143 -175 -590 0
-1143 -175 -548 0
-1143 -175 -572 0
-1143 -175 -596 0
-1143 -175 -554 0
-1143 -175 -578 0
-1143 -175 -602 0
-1143 -175 -543 0
-1143 -175 -567 0
-1143 -175 -591 0
-1143 -175 -549 0
-1143 -175 -573 0
-1143 -175 -597 0
-1143 -175 -555 0
-1143 -175 -579 0
-1143 -175 -603 0
-1143 -176 -547 0
-1143 -176 -571 0
-1143 -176 -595 0
-1143 -176 -553 0
-1143 -176 -577 0
-1143 -176 -601 0
-1143 -176 -548 0
-1143 -176 -572 0
-1143 -176 -596 0
-1143 -176 -554 0
-1143 -176 -578 0
-1143 -176 -602 0
-1143 -176 -549 0
-1143 -176 -573 0
-1143 -176 -597 0
-1143 -176 -555 0
-1143 -176 -579 0
-1143 -176 -603 0
-1143 -177 -553 0
-1143 -177 -577 0
-1143 -177 -601 0
-1143 -177 -554 0
-1143 -177 -578 0
-1143 -177 -602 0
-1143 -177 -555 0
-1143 -177 -579 0
-1143 -177 -603 0
-1143 -178 0
-1143 102 0
-1143 -175 204 0
-1143 -176 205 0
-1143 -177 206 0
-1143 -239 0
-1144 238 0
-1144 -82 -175 -188 0
-1144 -82 -176 -189 0
-1144 -82 -177 -190 0
-1144 65 66 67 0
-1144 -65 -175 1322 614 0
-1144 -65 -176 1322 620 0
-1144 -65 -177 1322 626 0
-1144 -66 -175 1323 615 0
-1144 -66 -176 1323 621 0
-1144 -66 -177 1323 627 0
-1144 -67 -175 1324 616 0
-1144 -67 -176 1324 622 0
-1144 -67 -177 1324 628 0
-1144 -175 -542 0
-1144 -175 -566 0
-1144 -175 -590 0
-1144 -175 -548 0
-1144 -175 -572 0
-1144 -175 -596 0
-1144 -175 -554 0
-1144 -175 -578 0
-1144 -175 -602 0
-1144 -175 -543 0
-1144 -175 -567 0
-1144 -175 -591 0
-1144 -175 -549 0
-1144 -175 -573 0
-1144 -175 -597 0
-1144 -175 -555 0
-1144 -175 -579 0
-1144 -175 -603 0
-1144 -175 -544 0
-1144 -175 -568 0
-1144 -175 -592 0
-1144 -175 -550 0
-1144 -175 -574 0
-1144 -175 -598 0
-1144 -175 -556 0
-1144 -175 -580 0
-1144 -175 -604 0
-1144 -176 -548 0
-1144 -176 -572 0
-1144 -176 -596 0
-1144 -176 -554 0
-1144 -176 -578 0
-1144 -176 -602 0
-1144 -176 -549 0
-1144 -176 -573 0
-1144 -176 -597 0
-1144 -176 -555 0
-1144 -176 -579 0
-1144 -176 -603 0
-1144 -176 -550 0
-1144 -176 -574 0
-1144 -176 -598 0
-1144 -176 -556 0
-1144 -176 -580 0
-1144 -176 -604 0
-1144 -177 -554 0
-1144 -177 -578 0
-1144 -177 -602 0
-1144 -177 -555 0
-1144 -177 -579 0
-1144 -177 -603 0
-1144 -177 -556 0
-1144 -177 -580 0
-1144 -177 -604 0
-1144 -178 0
-1144 103 0
-1144 -175 204 0
-1144 -176 205 0
-1144 -177 206 0
-1144 -239 0
-1145 238 0
-1145 -83 -175 -188 0
-1145 -83 -176 -189 0
-1145 -83 -177 -190 0
-1145 66 67 68 0
-1145 -66 -175 1323 615 0
-1145 -66 -176 1323 621 0
-1145 -66 -177 1323 627 0
-1145 -67 -175 1324 616 0
-1145 -67 -176 1324 622 0
-1145 -67 -177 1324 628 0
-1145 -68 -175 1325 617 0
-1145 -68 -176 1325 623 0
-1145 -68 -177 1325 629 0
-1145 -175 -543 0
-1145 -175 -567 0
-1145 -175 -591 0
-1145 -175 -549 0
-1145 -175 -573 0
-1145 -175 -597 0
-1145 -175 -555 0
-1145 -175 -579 0
-1145 -175 -603 0
-1145 -175 -544 0
-1145 -175 -568 0
-1145 -175 -592 0
-1145 -175 -550 0
-1145 -175 -574 0
-1145 -175 -598 0
-1145 -175 -556 0
-1145 -175 -580 0
-1145 -175 -604 0
-1145 -175 -545 0
-1145 -175 -569 0
-1145 -175 -593 0
-1145 -175 -551 0
-1145 -175 -575 0
-1145 -175 -599 0
-1145 -175 -557 0
-1145 -175 -581 0
-1145 -175 -605 0
-1145 -176 -549 0
-1145 -176 -573 0
-1145 -176 -597 0
-1145 -176 -555 0
-1145 -176 -579 0
-1145 -176 -603 0
-1145 -176 -550 0
-1145 -176 -574 0
-1145 -176 -598 0
-1145 -176 -556 0
-1145 -176 -580 0
-1145 -176 -604 0
-1145 -176 -551 0
-1145 -176 -575 0
-1145 -176 -599 0
-1145 -176 -557 0
-1145 -176 -581 0
-1145 -176 -605 0
-1145 -177 -555 0
-1145 -177 -579 0
-1145 -177 -603 0
-1145 -177 -556 0
-1145 -177 -580 0
-1145 -177 -604 0
-1145 -177 -557 0
-1145 -177 -581 0
-1145 -177 -605 0
-1145 -178 0
-1145 104 0
-1145 -175 204 0
-1145 -176 205 0
-1145 -177 206 0
-1145 -239 0
-1146 238 0
-1146 -84 -175 -188 0
-1146 -84 -176 -189 0
-1146 -84 -177 -190 0
-1146 67 68 69 0
-1146 -67 -175 1324 616 0
-1146 -67 -176 1324 622 0
-1146 -67 -177 1324 628 0
-1146 -68 -175 1325 617 0
-1146 -68 -176 1325 623 0
-1146 -68 -177 1325 629 0
-1146 -69 -175 1326 618 0
-1146 -69 -176 1326 624 0
-1146 -69 -177 1326 630 0
-1146 -175 -544 0
-1146 -175 -568 0
-1146 -175 -592 0
-1146 -175 -550 0
-1146 -175 -574 0
-1146 -175 -598 0
-1146 -175 -556 0
-1146 -175 -580 0
-1146 -175 -604 0
-1146 -175 -545 0
-1146 -175 -569 0
-1146 -175 -593 0
-1146 -175 -551 0
-1146 -175 -575 0
-1146 -175 -599 0
-1146 -175 -557 0
-1146 -175 -581 0
-1146 -175 -605 0
-1146 -175 -546 0
-1146 -175 -570 0
-1146 -175 -594 0
-1146 -175 -552 0
-1146 -175 -576 0
-1146 -175 -600 0
-1146 -175 -558 0
-1146 -175 -582 0
-1146 -175 -606 0
-1146 -176 -550 0
-1146 -176 -574 0
-1146 -176 -598 0
-1146 -176 -556 0
-1146 -176 -580 0
-1146 -176 -604 0
-1146 -176 -551 0
-1146 -176 -575 0
-1146 -176 -599 0
-1146 -176 -557 0
-1146 -176 -581 0
-1146 -176 -605 0
-1146 -176 -552 0
-1146 -176 -576 0
-1146 -176 -600 0
-1146 -176 -558 0
-1146 -176 -582 0
-1146 -176 -606 0
-1146 -177 -556 0
-1146 -177 -580 0
-1146 -177 -604 0
-1146 -177 -557 0
-1146 -177 -581 0
-1146 -177 -605 0
-1146 -177 -558 0
-1146 -177 -582 0
-1146 -177 -606 0
-1146 -178 0
-1146 105 0
-1146 -175 204 0
-1146 -176 205 0
-1146 -177 206 0
-1146 -239 0
-1147 238 0
-1147 -81 -179 -188 0
-1147 -81 -180 -189 0
-1147 -81 -181 -190 0
-1147 70 71 72 0
-1147 -70 -179 1327 613 0
-1147 -70 -180 1327 619 0
-1147 -70 -181 1327 625 0
-1147 -71 -179 1328 614 0
-1147 -71 -180 1328 620 0
-1147 -71 -181 1328 626 0
-1147 -72 -179 1329 615 0
-1147 -72 -180 1329 621 0
-1147 -72 -181 1329 627 0
-1147 -179 -541 0
-1147 -179 -565 0
-1147 -179 -589 0
-1147 -179 -547 0
-1147 -179 -571 0
-1147 -179 -595 0
-1147 -179 -553 0
-1147 -179 -577 0
-1147 -179 -601 0
-1147 -179 -542 0
-1147 -179 -566 0
-1147 -179 -590 0
-1147 -179 -548 0
-1147 -179 -572 0
-1147 -179 -596 0
-1147 -179 -554 0
-1147 -179 -578 0
-1147 -179 -602 0
-1147 -179 -543 0
-1147 -179 -567 0
-1147 -179 -591 0
-1147 -179 -549 0
-1147 -179 -573 0
-1147 -179 -597 0
-1147 -179 -555 0
-1147 -179 -579 0
-1147 -179 -603 0
-1147 -180 -547 0
-1147 -180 -571 0
-1147 -180 -595 0
-1147 -180 -553 0
-1147 -180 -577 0
-1147 -180 -601 0
-1147 -180 -548 0
-1147 -180 -572 0
-1147 -180 -596 0
-1147 -180 -554 0
-1147 -180 -578 0
-1147 -180 -602 0
-1147 -180 -549 0
-1147 -180 -573 0
-1147 -180 -597 0
-1147 -180 -555 0
-1147 -180 -579 0
-1147 -180 -603 0
-1147 -181 -553 0
-1147 -181 -577 0
-1147 -181 -601 0
-1147 -181 -554 0
-1147 -181 -578 0
-1147 -181 -602 0
-1147 -181 -555 0
-1147 -181 -579 0
-1147 -181 -603 0
-1147 -182 0
-1147 102 0
-1147 -179 204 0
-1147 -180 205 0
-1147 -181 206 0
-1147 -240 0
-1148 238 0
-1148 -82 -179 -188 0
-1148 -82 -180 -189 0
-1148 -82 -181 -190 0
-1148 71 72 73 0
-1148 -71 -179 1328 614 0
-1148 -71 -180 1328 620 0
-1148 -71 -181 1328 626 0
-1148 -72 -179 1329 615 0
-1148 -72 -180 1329 621 0
-1148 -72 -181 1329 627 0
-1148 -73 -179 1330 616 0
-1148 -73 -180 1330 622 0
-1148 -73 -181 1330 628 0
-1148 -179 -542 0
-1148 -179 -566 0
-1148 -179 -590 0
-1148 -179 -548 0
-1148 -179 -572 0
-1148 -179 -596 0
-1148 -179 -554 0
-1148 -179 -578 0
-1148 -179 -602 0
-1148 -179 -543 0
-1148 -179 -567 0
-1148 -179 -591 0
-1148 -179 -549 0
-1148 -179 -573 0
-1148 -179 -597 0
-1148 -179 -555 0
-1148 -179 -579 0
-1148 -179 -603 0
-1148 -179 -544 0
-1148 -179 -568 0
-1148 -179 -592 0
-1148 -179 -550 0
-1148 -179 -574 0
-1148 -179 -598 0
-1148 -179 -556 0
-1148 -179 -580 0
-1148 -179 -604 0
-1148 -180 -548 0
-1148 -180 -572 0
-1148 -180 -596 0
-1148 -180 -554 0
-1148 -180 -578 0
-1148 -180 -602 0
-1148 -180 -549 0
-1148 -180 -573 0
-1148 -180 -597 0
-1148 -180 -555 0
-1148 -180 -579 0
-1148 -180 -603 0
-1148 -180 -550 0
-1148 -180 -574 0
-1148 -180 -598 0
-1148 -180 -556 0
-1148 -180 -580 0
-1148 -180 -604 0
-1148 -181 -554 0
-1148 -181 -578 0
-1148 -181 -602 0
-1148 -181 -555 0
-1148 -181 -579 0
-1148 -181 -603 0
-1148 -181 -556 0
-1148 -181 -580 0
-1148 -181 -604 0
-1148 -182 0
-1148 103 0
-1148 -179 204 0
-1148 -180 205 0
-1148 -181 206 0
-1148 -240 0
-1149 238 0
-1149 -83 -179 -188 0
-1149 -83 -180 -189 0
-1149 -83 -181 -190 0
-1149 72 73 74 0
-1149 -72 -179 1329 615 0
-1149 -72 -180 1329 621 0
-1149 -72 -181 1329 627 0
-1149 -73 -179 1330 616 0
-1149 -73 -180 1330 622 0
-1149 -73 -181 1330 628 0
-1149 -74 -179 1331 617 0
-1149 -74 -180 1331 623 0
-1149 -74 -181 1331 629 0
-1149 -179 -543 0
-1149 -179 -567 0
-1149 -179 -591 0
-1149 -179 -549 0
-1149 -179 -573 0
-1149 -179 -597 0
-1149 -179 -555 0
-1149 -179 -579 0
-1149 -179 -603 0
-1149 -179 -544 0
-1149 -179 -568 0
-1149 -179 -592 0
-1149 -179 -550 0
-1149 -179 -574 0
-1149 -179 -598 0
-1149 -179 -556 0
-1149 -179 -580 0
-1149 -179 -604 0
-1149 -179 -545 0
-1149 -179 -569 0
-1149 -179 -593 0
-1149 -179 -551 0
-1149 -179 -575 0
-1149 -179 -599 0
-1149 -179 -557 0
-1149 -179 -581 0
-1149 -179 -605 0
-1149 -180 -549 0
-1149 -180 -573 0
-1149 -180 -597 0
-1149 -180 -555 0
-1149 -180 -579 0
-1149 -180 -603 0
-1149 -180 -550 0
-1149 -180 -574 0
-1149 -180 -598 0
-1149 -180 -556 0
-1149 -180 -580 0
-1149 -180 -604 0
-1149 -180 -551 0
-1149 -180 -575 0
-1149 -180 -599 0
-1149 -180 -557 0
-1149 -180 -581 0
-1149 -180 -605 0
-1149 -181 -555 0
-1149 -181 -579 0
-1149 -181 -603 0
-1149 -181 -556 0
-1149 -181 -580 0
-1149 -181 -604 0
-1149 -181 -557 0
-1149 -181 -581 0
-1149 -181 -605 0
-1149 -182 0
-1149 104 0
-1149 -179 204 0
-1149 -180 205 0
-1149 -181 206 0
-1149 -240 0
-1150 238 0
-1150 -84 -179 -188 0
-1150 -84 -180 -189 0
-1150 -84 -181 -190 0
-1150 73 74 75 0
-1150 -73 -179 1330 616 0
-1150 -73 -180 1330 622 0
-1150 -73 -181 1330 628 0
-1150 -74 -179 1331 617 0
-1150 -74 -180 1331 623 0
-1150 -74 -181 1331 629 0
-1150 -75 -179 1332 618 0
-1150 -75 -180 1332 624 0
-1150 -75 -181 1332 630 0
-1150 -179 -544 0
-1150 -179 -568 0
-1150 -179 -592 0
-1150 -179 -550 0
-1150 -179 -574 0
-1150 -179 -598 0
-1150 -179 -556 0
-1150 -179 -580 0
-1150 -179 -604 0
-1150 -179 -545 0
-1150 -179 -569 0
-1150 -179 -593 0
-1150 -179 -551 0
-1150 -179 -575 0
-1150 -179 -599 0
-1150 -179 -557 0
-1150 -179 -581 0
-1150 -179 -605 0
-1150 -179 -546 0
-1150 -179 -570 0
-1150 -179 -594 0
-1150 -179 -552 0
-1150 -179 -576 0
-1150 -179 -600 0
-1150 -179 -558 0
-1150 -179 -582 0
-1150 -179 -606 0
-1150 -180 -550 0
-1150 -180 -574 0
-1150 -180 -598 0
-1150 -180 -556 0
-1150 -180 -580 0
-1150 -180 -604 0
-1150 -180 -551 0
-1150 -180 -575 0
-1150 -180 -599 0
-1150 -180 -557 0
-1150 -180 -581 0
-1150 -180 -605 0
-1150 -180 -552 0
-1150 -180 -576 0
-1150 -180 -600 0
-1150 -180 -558 0
-1150 -180 -582 0
-1150 -180 -606 0
-1150 -181 -556 0
-1150 -181 -580 0
-1150 -181 -604 0
-1150 -181 -557 0
-1150 -181 -581 0
-1150 -181 -605 0
-1150 -181 -558 0
-1150 -181 -582 0
-1150 -181 -606 0
-1150 -182 0
-1150 105 0
-1150 -179 204 0
-1150 -180 205 0
-1150 -181 206 0
-1150 -240 0
-1151 238 0
-1151 -81 -183 -188 0
-1151 -81 -184 -189 0
-1151 -81 -185 -190 0
-1151 76 77 78 0
-1151 -76 -183 1333 613 0
-1151 -76 -184 1333 619 0
-1151 -76 -185 1333 625 0
-1151 -76 -183 1334 614 0
-1151 -76 -184 1334 620 0
-1151 -76 -185 1334 626 0
-1151 -77 -183 1334 614 0
-1151 -77 -184 1334 620 0
-1151 -77 -185 1334 626 0
-1151 -77 -183 1335 615 0
-1151 -77 -184 1335 621 0
-1151 -77 -185 1335 627 0
-1151 -78 -183 1335 615 0
-1151 -78 -184 1335 621 0
-1151 -78 -185 1335 627 0
-1151 -183 -541 0
-1151 -183 -565 0
-1151 -183 -589 0
-1151 -183 -547 0
-1151 -183 -571 0
-1151 -183 -595 0
-1151 -183 -553 0
-1151 -183 -577 0
-1151 -183 -601 0
-1151 -183 -542 0
-1151 -183 -566 0
-1151 -183 -590 0
-1151 -183 -548 0
-1151 -183 -572 0
-1151 -183 -596 0
-1151 -183 -554 0
-1151 -183 -578 0
-1151 -183 -602 0
-1151 -183 -543 0
-1151 -183 -567 0
-1151 -183 -591 0
-1151 -183 -549 0
-1151 -183 -573 0
-1151 -183 -597 0
-1151 -183 -555 0
-1151 -183 -579 0
-1151 -183 -603 0
-1151 -184 -547 0
-1151 -184 -571 0
-1151 -184 -595 0
-1151 -184 -553 0
-1151 -184 -577 0
-1151 -184 -601 0
-1151 -184 -548 0
-1151 -184 -572 0
-1151 -184 -596 0
-1151 -184 -554 0
-1151 -184 -578 0
-1151 -184 -602 0
-1151 -184 -549 0
-1151 -184 -573 0
-1151 -184 -597 0
-1151 -184 -555 0
-1151 -184 -579 0
-1151 -184 -603 0
-1151 -185 -553 0
-1151 -185 -577 0
-1151 -185 -601 0
-1151 -185 -554 0
-1151 -185 -578 0
-1151 -185 -602 0
-1151 -185 -555 0
-1151 -185 -579 0
-1151 -185 -603 0
-1151 -186 0
-1151 102 0
-1151 -183 204 0
-1151 -184 205 0
-1151 -185 206 0
-1151 -241 0
-1152 238 0
-1152 -82 -183 -188 0
-1152 -82 -184 -189 0
-1152 -82 -185 -190 0
-1152 76 77 78 79 0
-1152 -76 -183 1334 614 0
-1152 -76 -184 1334 620 0
-1152 -76 -185 1334 626 0
-1152 -77 -183 1334 614 0
-1152 -77 -184 1334 620 0
-1152 -77 -185 1334 626 0
-1152 -77 -183 1335 615 0
-1152 -77 -184 1335 621 0
-1152 -77 -185 1335 627 0
-1152 -78 -183 1335 615 0
-1152 -78 -184 1335 621 0
-1152 -78 -185 1335 627 0
-1152 -78 -183 1336 616 0
-1152 -78 -184 1336 622 0
-1152 -78 -185 1336 628 0
-1152 -79 -183 1336 616 0
-1152 -79 -184 1336 622 0
-1152 -79 -185 1336 628 0
-1152 -183 -542 0
-1152 -183 -566 0
-1152 -183 -590 0
-1152 -183 -548 0
-1152 -183 -572 0
-1152 -183 -596 0
-1152 -183 -554 0
-1152 -183 -578 0
-1152 -183 -602 0
-1152 -183 -543 0
-1152 -183 -567 0
-1152 -183 -591 0
-1152 -183 -549 0
-1152 -183 -573 0
-1152 -183 -597 0
-1152 -183 -555 0
-1152 -183 -579 0
-1152 -183 -603 0
-1152 -183 -544 0
-1152 -183 -568 0
-1152 -183 -592 0
-1152 -183 -550 0
-1152 -183 -574 0
-1152 -183 -598 0
-1152 -183 -556 0
-1152 -183 -580 0
-1152 -183 -604 0
-1152 -184 -548 0
-1152 -184 -572 0
-1152 -184 -596 0
-1152 -184 -554 0
-1152 -184 -578 0
-1152 -184 -602 0
-1152 -184 -549 0
-1152 -184 -573 0
-1152 -184 -597 0
-1152 -184 -555 0
-1152 -184 -579 0
-1152 -184 -603 0
-1152 -184 -550 0
-1152 -184 -574 0
-1152 -184 -598 0
-1152 -184 -556 0
-1152 -184 -580 0
-1152 -184 -604 0
-1152 -185 -554 0
-1152 -185 -578 0
-1152 -185 -602 0
-1152 -185 -555 0
-1152 -185 -579 0
-1152 -185 -603 0
-1152 -185 -556 0
-1152 -185 -580 0
-1152 -185 -604 0
-1152 -186 0
-1152 103 0
-1152 -183 204 0
-1152 -184 205 0
-1152 -185 206 0
-1152 -241 0
-1153 238 0
-1153 -83 -183 -188 0
-1153 -83 -184 -189 0
-1153 -83 -185 -190 0
-1153 77 78 79 80 0
-1153 -77 -183 1335 615 0
-1153 -77 -184 1335 621 0
-1153 -77 -185 1335 627 0
-1153 -78 -183 1335 615 0
-1153 -78 -184 1335 621 0
-1153 -78 -185 1335 627 0
-1153 -78 -183 1336 616 0
-1153 -78 -184 1336 622 0
-1153 -78 -185 1336 628 0
-1153 -79 -183 1336 616 0
-1153 -79 -184 1336 622 0
-1153 -79 -185 1336 628 0
-1153 -79 -183 1337 617 0
-1153 -79 -184 1337 623 0
-1153 -79 -185 1337 629 0
-1153 -80 -183 1337 617 0
-1153 -80 -184 1337 623 0
-1153 -80 -185 1337 629 0
-1153 -183 -543 0
-1153 -183 -567 0
-1153 -183 -591 0
-1153 -183 -549 0
-1153 -183 -573 0
-1153 -183 -597 0
-1153 -183 -555 0
-1153 -183 -579 0
-1153 -183 -603 0
-1153 -183 -544 0
-1153 -183 -568 0
-1153 -183 -592 0
-1153 -183 -550 0
-1153 -183 -574 0
-1153 -183 -598 0
-1153 -183 -556 0
-1153 -183 -580 0
-1153 -183 -604 0
-1153 -183 -545 0
-1153 -183 -569 0
-1153 -183 -593 0
-1153 -183 -551 0
-1153 -183 -575 0
-1153 -183 -599 0
-1153 -183 -557 0
-1153 -183 -581 0
-1153 -183 -605 0
-1153 -184 -549 0
-1153 -184 -573 0
-1153 -184 -597 0
-1153 -184 -555 0
-1153 -184 -579 0
-1153 -184 -603 0
-1153 -184 -550 0
-1153 -184 -574 0
-1153 -184 -598 0
-1153 -184 -556 0
-1153 -184 -580 0
-1153 -184 -604 0
-1153 -184 -551 0
-1153 -184 -575 0
-1153 -184 -599 0
-1153 -184 -557 0
-1153 -184 -581 0
-1153 -184 -605 0
-1153 -185 -555 0
-1153 -185 -579 0
-1153 -185 -603 0
-1153 -185 -556 0
-1153 -185 -580 0
-1153 -185 -604 0
-1153 -185 -557 0
-1153 -185 -581 0
-1153 -185 -605 0
-1153 -186 0
-1153 104 0
-1153 -183 204 0
-1153 -184 205 0
-1153 -185 206 0
-1153 -241 0
-1154 238 0
-1154 -84 -183 -188 0
-1154 -84 -184 -189 0
-1154 -84 -185 -190 0
-1154 78 79 80 0
-1154 -78 -183 1336 616 0
-1154 -78 -184 1336 622 0
-1154 -78 -185 1336 628 0
-1154 -79 -183 1336 616 0
-1154 -79 -184 1336 622 0
-1154 -79 -185 1336 628 0
-1154 -79 -183 1337 617 0
-1154 -79 -184 1337 623 0
-1154 -79 -185 1337 629 0
-1154 -80 -183 1337 617 0
-1154 -80 -184 1337 623 0
-1154 -80 -185 1337 629 0
-1154 -80 -183 1338 618 0
-1154 -80 -184 1338 624 0
-1154 -80 -185 1338 630 0
-1154 -183 -544 0
-1154 -183 -568 0
-1154 -183 -592 0
-1154 -183 -550 0
-1154 -183 -574 0
-1154 -183 -598 0
-1154 -183 -556 0
-1154 -183 -580 0
-1154 -183 -604 0
-1154 -183 -545 0
-1154 -183 -569 0
-1154 -183 -593 0
-1154 -183 -551 0
-1154 -183 -575 0
-1154 -183 -599 0
-1154 -183 -557 0
-1154 -183 -581 0
-1154 -183 -605 0
-1154 -183 -546 0
-1154 -183 -570 0
-1154 -183 -594 0
-1154 -183 -552 0
-1154 -183 -576 0
-1154 -183 -600 0
-1154 -183 -558 0
-1154 -183 -582 0
-1154 -183 -606 0
-1154 -184 -550 0
-1154 -184 -574 0
-1154 -184 -598 0
-1154 -184 -556 0
-1154 -184 -580 0
-1154 -184 -604 0
-1154 -184 -551 0
-1154 -184 -575 0
-1154 -184 -599 0
-1154 -184 -557 0
-1154 -184 -581 0
-1154 -184 -605 0
-1154 -184 -552 0
-1154 -184 -576 0
-1154 -184 -600 0
-1154 -184 -558 0
-1154 -184 -582 0
-1154 -184 -606 0
-1154 -185 -556 0
-1154 -185 -580 0
-1154 -185 -604 0
-1154 -185 -557 0
-1154 -185 -581 0
-1154 -185 -605 0
-1154 -185 -558 0
-1154 -185 -582 0
-1154 -185 -606 0
-1154 -186 0
-1154 105 0
-1154 -183 204 0
-1154 -184 205 0
-1154 -185 206 0
-1154 -241 0
-1155 238 0
-1155 -81 -187 0
-1155 -535 0
-1155 -559 0
-1155 -583 0
-1155 -541 0
-1155 -565 0
-1155 -589 0
-1155 -547 0
-1155 -571 0
-1155 -595 0
-1155 -553 0
-1155 -577 0
-1155 -601 0
-1155 -536 0
-1155 -560 0
-1155 -584 0
-1155 -542 0
-1155 -566 0
-1155 -590 0
-1155 -548 0
-1155 -572 0
-1155 -596 0
-1155 -554 0
-1155 -578 0
-1155 -602 0
-1155 -537 0
-1155 -561 0
-1155 -585 0
-1155 -543 0
-1155 -567 0
-1155 -591 0
-1155 -549 0
-1155 -573 0
-1155 -597 0
-1155 -555 0
-1155 -579 0
-1155 -603 0
-1155 102 0
-1155 203 0
-1156 238 0
-1156 -82 -187 0
-1156 -536 0
-1156 -560 0
-1156 -584 0
-1156 -542 0
-1156 -566 0
-1156 -590 0
-1156 -548 0
-1156 -572 0
-1156 -596 0
-1156 -554 0
-1156 -578 0
-1156 -602 0
-1156 -537 0
-1156 -561 0
-1156 -585 0
-1156 -543 0
-1156 -567 0
-1156 -591 0
-1156 -549 0
-1156 -573 0
-1156 -597 0
-1156 -555 0
-1156 -579 0
-1156 -603 0
-1156 -538 0
-1156 -562 0
-1156 -586 0
-1156 -544 0
-1156 -568 0
-1156 -592 0
-1156 -550 0
-1156 -574 0
-1156 -598 0
-1156 -556 0
-1156 -580 0
-1156 -604 0
-1156 103 0
-1156 203 0
-1157 238 0
-1157 -83 -187 0
-1157 -537 0
-1157 -561 0
-1157 -585 0
-1157 -543 0
-1157 -567 0
-1157 -591 0
-1157 -549 0
-1157 -573 0
-1157 -597 0
-1157 -555 0
-1157 -579 0
-1157 -603 0
-1157 -538 0
-1157 -562 0
-1157 -586 0
-1157 -544 0
-1157 -568 0
-1157 -592 0
-1157 -550 0
-1157 -574 0
-1157 -598 0
-1157 -556 0
-1157 -580 0
-1157 -604 0
-1157 -539 0
-1157 -563 0
-1157 -587 0
-1157 -545 0
-1157 -569 0
-1157 -593 0
-1157 -551 0
-1157 -575 0
-1157 -599 0
-1157 -557 0
-1157 -581 0
-1157 -605 0
-1157 104 0
-1157 203 0
-1158 238 0
-1158 -84 -187 0
-1158 -538 0
-1158 -562 0
-1158 -586 0
-1158 -544 0
-1158 -568 0
-1158 -592 0
-1158 -550 0
-1158 -574 0
-1158 -598 0
-1158 -556 0
-1158 -580 0
-1158 -604 0
-1158 -539 0
-1158 -563 0
-1158 -587 0
-1158 -545 0
-1158 -569 0
-1158 -593 0
-1158 -551 0
-1158 -575 0
-1158 -599 0
-1158 -557 0
-1158 -581 0
-1158 -605 0
-1158 -540 0
-1158 -564 0
-1158 -588 0
-1158 -546 0
-1158 -570 0
-1158 -594 0
-1158 -552 0
-1158 -576 0
-1158 -600 0
-1158 -558 0
-1158 -582 0
-1158 -606 0
-1158 105 0
-1158 203 0
64 -85 1075 1076 1077 1078 1079 1080 1081 1082 1083 1084 1085 1086 1087 1088 1089 1090 1091 1092 1093 1094 1095 1096 1097 1098 0
-64 85 1075 1076 1077 1078 1079 1080 1081 1082 1083 1084 1085 1086 1087 1088 1089 1090 1091 1092 1093 1094 1095 1096 1097 1098 0
65 -86 1075 1076 1077 1078 1079 1080 1081 1082 1083 1084 1085 1086 1087 1088 1089 1090 1091 1092 1093 1094 1095 1096 1097 1098 0
-65 86 1075 1076 1077 1078 1079 1080 1081 1082 1083 1084 1085 1086 1087 1088 1089 1090 1091 1092 1093 1094 1095 1096 1097 1098 0
66 -87 1075 1076 1077 1078 1079 1080 1081 1082 1083 1084 1085 1086 1087 1088 1089 1090 1091 1092 1093 1094 1095 1096 1097 1098 0
-66 87 1075 1076 1077 1078 1079 1080 1081 1082 1083 1084 1085 1086 1087 1088 1089 1090 1091 1092 1093 1094 1095 1096 1097 1098 0
67 -88 1075 1076 1077 1078 1079 1080 1081 1082 1083 1084 1085 1086 1087 1088 1089 1090 1091 1092 1093 1094 1095 1096 1097 1098 0
-67 88 1075 1076 1077 1078 1079 1080 1081 1082 1083 1084 1085 1086 1087 1088 1089 1090 1091 1092 1093 1094 1095 1096 1097 1098 0
68 -89 1075 1076 1077 1078 1079 1080 1081 1082 1083 1084 1085 1086 1087 1088 1089 1090 1091 1092 1093 1094 1095 1096 1097 1098 0
-68 89 1075 1076 1077 1078 1079 1080 1081 1082 1083 1084 1085 1086 1087 1088 1089 1090 1091 1092 1093 1094 1095 1096 1097 1098 0
69 -90 1075 1076 1077 1078 1079 1080 1081 1082 1083 1084 1085 1086 1087 1088 1089 1090 1091 1092 1093 1094 1095 1096 1097 1098 0
-69 90 1075 1076 1077 1078 1079 1080 1081 1082 1083 1084 1085 1086 1087 1088 1089 1090 1091 1092 1093 1094 1095 1096 1097 1098 0
175 -191 1075 1076 1077 1078 1079 1080 1081 1082 1083 1084 1085 1086 1087 1088 1089 1090 1091 1092 1093 1094 1095 1096 1097 1098 0
-175 191 1075 1076 1077 1078 1079 1080 1081 1082 1083 1084 1085 1086 1087 1088 1089 1090 1091 1092 1093 1094 1095 1096 1097 1098 0
176 -192 1075 1076 1077 1078 1079 1080 1081 1082 1083 1084 1085 1086 1087 1088 1089 1090 1091 1092 1093 1094 1095 1096 1097 1098 0
-176 192 1075 1076 1077 1078 1079 1080 1081 1082 1083 1084 1085 1086 1087 1088 1089 1090 1091 1092 1093 1094 1095 1096 1097 1098 0
177 -193 1075 1076 1077 1078 1079 1080 1081 1082 1083 1084 1085 1086 1087 1088 1089 1090 1091 1092 1093 1094 1095 1096 1097 1098 0
-177 193 1075 1076 1077 1078 1079 1080 1081 1082 1083 1084 1085 1086 1087 1088 1089 1090 1091 1092 1093 1094 1095 1096 1097 1098 0
178 -194 1075 1076 1077 1078 1079 1080 1081 1082 1083 1084 1085 1086 1087 1088 1089 1090 1091 1092 1093 1094 1095 1096 1097 1098 0
-178 194 1075 1076 1077 1078 1079 1080 1081 1082 1083 1084 1085 1086 1087 1088 1089 1090 1091 1092 1093 1094 1095 1096 1097 1098 0
70 -91 1099 1100 1101 1102 1103 1104 1105 1106 1107 1108 1109 1110 1111 1112 1113 1114 1115 1116 1117 1118 1119 1120 1121 1122 0
-70 91 1099 1100 1101 1102 1103 1104 1105 1106 1107 1108 1109 1110 1111 1112 1113 1114 1115 1116 1117 1118 1119 1120 1121 1122 0
71 -92 1099 1100 1101 1102 1103 1104 1105 1106 1107 1108 1109 1110 1111 1112 1113 1114 1115 1116 1117 1118 1119 1120 1121 1122 0
-71 92 1099 1100 1101 1102 1103 1104 1105 1106 1107 1108 1109 1110 1111 1112 1113 1114 1115 1116 1117 1118 1119 1120 1121 1122 0
72 -93 1099 1100 1101 1102 1103 1104 1105 1106 1107 1108 1109 1110 1111 1112 1113 1114 1115 1116 1117 1118 1119 1120 1121 1122 0
-72 93 1099 1100 1101 1102 1103 1104 1105 1106 1107 1108 1109 1110 1111 1112 1113 1114 1115 1116 1117 1118 1119 1120 1121 1122 0
73 -94 1099 1100 1101 1102 1103 1104 1105 1106 1107 1108 1109 1110 1111 1112 1113 1114 1115 1116 1117 1118 1119 1120 1121 1122 0
-73 94 1099 1100 1101 1102 1103 1104 1105 1106 1107 1108 1109 1110 1111 1112 1113 1114 1115 1116 1117 1118 1119 1120 1121 1122 0
74 -95 1099 1100 1101 1102 1103 1104 1105 1106 1107 1108 1109 1110 1111 1112 1113 1114 1115 1116 1117 1118 1119 1120 1121 1122 0
-74 95 1099 1100 1101 1102 1103 1104 1105 1106 1107 1108 1109 1110 1111 1112 1113 1114 1115 1116 1117 1118 1119 1120 1121 1122 0
75 -96 1099 1100 1101 1102 1103 1104 1105 1106 1107 1108 1109 1110 1111 1112 1113 1114 1115 1116 1117 1118 1119 1120 1121 1122 0
-75 96 1099 1100 1101 1102 1103 1104 1105 1106 1107 1108 1109 1110 1111 1112 1113 1114 1115 1116 1117 1118 1119 1120 1121 1122 0
179 -195 1099 1100 1101 1102 1103 1104 1105 1106 1107 1108 1109 1110 1111 1112 1113 1114 1115 1116 1117 1118 1119 1120 1121 1122 0
-179 195 1099 1100 1101 1102 1103 1104 1105 1106 1107 1108 1109 1110 1111 1112 1113 1114 1115 1116 1117 1118 1119 1120 1121 1122 0
180 -196 1099 1100 1101 1102 1103 1104 1105 1106 1107 1108 1109 1110 1111 1112 1113 1114 1115 1116 1117 1118 1119 1120 1121 1122 0
-180 196 1099 1100 1101 1102 1103 1104 1105 1106 1107 1108 1109 1110 1111 1112 1113 1114 1115 1116 1117 1118 1119 1120 1121 1122 0
181 -197 1099 1100 1101 1102 1103 1104 1105 1106 1107 1108 1109 1110 1111 1112 1113 1114 1115 1116 1117 1118 1119 1120 1121 1122 0
-181 197 1099 1100 1101 1102 1103 1104 1105 1106 1107 1108 1109 1110 1111 1112 1113 1114 1115 1116 1117 1118 1119 1120 1121 1122 0
182 -198 1099 1100 1101 1102 1103 1104 1105 1106 1107 1108 1109 1110 1111 1112 1113 1114 1115 1116 1117 1118 1119 1120 1121 1122 0
-182 198 1099 1100 1101 1102 1103 1104 1105 1106 1107 1108 1109 1110 1111 1112 1113 1114 1115 1116 1117 1118 1119 1120 1121 1122 0
76 -97 1123 1124 1125 1126 1127 1128 1129 1130 1131 1132 1133 1134 1135 1136 1137 1138 1139 1140 1141 1142 0
-76 97 1123 1124 1125 1126 1127 1128 1129 1130 1131 1132 1133 1134 1135 1136 1137 1138 1139 1140 1141 1142 0
77 -98 1123 1124 1125 1126 1127 1128 1129 1130 1131 1132 1133 1134 1135 1136 1137 1138 1139 1140 1141 1142 0
-77 98 1123 1124 1125 1126 1127 1128 1129 1130 1131 1132 1133 1134 1135 1136 1137 1138 1139 1140 1141 1142 0
78 -99 1123 1124 1125 1126 1127 1128 1129 1130 1131 1132 1133 1134 1135 1136 1137 1138 1139 1140 1141 1142 0
-78 99 1123 1124 1125 1126 1127 1128 1129 1130 1131 1132 1133 1134 1135 1136 1137 1138 1139 1140 1141 1142 0
79 -100 1123 1124 1125 1126 1127 1128 1129 1130 1131 1132 1133 1134 1135 1136 1137 1138 1139 1140 1141 1142 0
-79 100 1123 1124 1125 1126 1127 1128 1129 1130 1131 1132 1133 1134 1135 1136 1137 1138 1139 1140 1141 1142 0
80 -101 1123 1124 1125 1126 1127 1128 1129 1130 1131 1132 1133 1134 1135 1136 1137 1138 1139 1140 1141 1142 0
-80 101 1123 1124 1125 1126 1127 1128 1129 1130 1131 1132 1133 1134 1135 1136 1137 1138 1139 1140 1141 1142 0
183 -199 1123 1124 1125 1126 1127 1128 1129 1130 1131 1132 1133 1134 1135 1136 1137 1138 1139 1140 1141 1142 0
-183 199 1123 1124 1125 1126 1127 1128 1129 1130 1131 1132 1133 1134 1135 1136 1137 1138 1139 1140 1141 1142 0
184 -200 1123 1124 1125 1126 1127 1128 1129 1130 1131 1132 1133 1134 1135 1136 1137 1138 1139 1140 1141 1142 0
-184 200 1123 1124 1125 1126 1127 1128 1129 1130 1131 1132 1133 1134 1135 1136 1137 1138 1139 1140 1141 1142 0
185 -201 1123 1124 1125 1126 1127 1128 1129 1130 1131 1132 1133 1134 1135 1136 1137 1138 1139 1140 1141 1142 0
-185 201 1123 1124 1125 1126 1127 1128 1129 1130 1131 1132 1133 1134 1135 1136 1137 1138 1139 1140 1141 1142 0
186 -202 1123 1124 1125 1126 1127 1128 1129 1130 1131 1132 1133 1134 1135 1136 1137 1138 1139 1140 1141 1142 0
-186 202 1123 1124 1125 1126 1127 1128 1129 1130 1131 1132 1133 1134 1135 1136 1137 1138 1139 1140 1141 1142 0
81 -102 1143 1144 1145 1146 1147 1148 1149 1150 1151 1152 1153 1154 1155 1156 1157 1158 0
-81 102 1143 1144 1145 1146 1147 1148 1149 1150 1151 1152 1153 1154 1155 1156 1157 1158 0
82 -103 1143 1144 1145 1146 1147 1148 1149 1150 1151 1152 1153 1154 1155 1156 1157 1158 0
-82 103 1143 1144 1145 1146 1147 1148 1149 1150 1151 1152 1153 1154 1155 1156 1157 1158 0
83 -104 1143 1144 1145 1146 1147 1148 1149 1150 1151 1152 1153 1154 1155 1156 1157 1158 0
-83 104 1143 1144 1145 1146 1147 1148 1149 1150 1151 1152 1153 1154 1155 1156 1157 1158 0
84 -105 1143 1144 1145 1146 1147 1148 1149 1150 1151 1152 1153 1154 1155 1156 1157 1158 0
-84 105 1143 1144 1145 1146 1147 1148 1149 1150 1151 1152 1153 1154 1155 1156 1157 1158 0
187 -203 1143 1144 1145 1146 1147 1148 1149 1150 1151 1152 1153 1154 1155 1156 1157 1158 0
-187 203 1143 1144 1145 1146 1147 1148 1149 1150 1151 1152 1153 1154 1155 1156 1157 1158 0
188 -204 1143 1144 1145 1146 1147 1148 1149 1150 1151 1152 1153 1154 1155 1156 1157 1158 0
-188 204 1143 1144 1145 1146 1147 1148 1149 1150 1151 1152 1153 1154 1155 1156 1157 1158 0
189 -205 1143 1144 1145 1146 1147 1148 1149 1150 1151 1152 1153 1154 1155 1156 1157 1158 0
-189 205 1143 1144 1145 1146 1147 1148 1149 1150 1151 1152 1153 1154 1155 1156 1157 1158 0
190 -206 1143 1144 1145 1146 1147 1148 1149 1150 1151 1152 1153 1154 1155 1156 1157 1158 0
-190 206 1143 1144 1145 1146 1147 1148 1149 1150 1151 1152 1153 1154 1155 1156 1157 1158 0
1075 1076 1077 1078 1079 1080 1081 1082 1083 1084 1085 1086 1087 1088 1089 1090 1091 1092 1093 1094 1095 1096 1097 1098 1099 1100 1101 1102 1103 1104 1105 1106 1107 1108 1109 1110 1111 1112 1113 1114 1115 1116 1117 1118 1119 1120 1121 1122 1123 1124 1125 1126 1127 1128 1129 1130 1131 1132 1133 1134 1135 1136 1137 1138 1139 1140 1141 1142 1143 1144 1145 1146 1147 1148 1149 1150 1151 1152 1153 1154 1155 1156 1157 1158 0
-1075 -1076 0
-1075 -1077 0
-1075 -1078 0
-1075 -1079 0
-1075 -1080 0
-1075 -1081 0
-1075 -1082 0
-1075 -1083 0
-1075 -1084 0
-1075 -1085 0
-1075 -1086 0
-1075 -1087 0
-1075 -1088 0
-1075 -1089 0
-1075 -1090 0
-1075 -1091 0
-1075 -1092 0
-1075 -1093 0
-1075 -1094 0
-1075 -1095 0
-1075 -1096 0
-1075 -1097 0
-1075 -1098 0
-1075 -1099 0
-1075 -1100 0
-1075 -1101 0
-1075 -1102 0
-1075 -1103 0
-1075 -1104 0
-1075 -1105 0
-1075 -1106 0
-1075 -1107 0
-1075 -1108 0
-1075 -1109 0
-1075 -1110 0
-1075 -1111 0
-1075 -1112 0
-1075 -1113 0
-1075 -1114 0
-1075 -1115 0
-1075 -1116 0
-1075 -1117 0
-1075 -1118 0
-1075 -1119 0
-1075 -1120 0
-1075 -1121 0
-1075 -1122 0
-1075 -1123 0
-1075 -1124 0
-1075 -1125 0
-1075 -1126 0
-1075 -1127 0
-1075 -1128 0
-1075 -1129 0
-1075 -1130 0
-1075 -1131 0
-1075 -1132 0
-1075 -1133 0
-1075 -1134 0
-1075 -1135 0
-1075 -1136 0
-1075 -1137 0
-1075 -1138 0
-1075 -1139 0
-1075 -1140 0
-1075 -1141 0
-1075 -1142 0
-1075 -1143 0
-1075 -1144 0
-1075 -1145 0
-1075 -1146 0
-1075 -1147 0
-1075 -1148 0
-1075 -1149 0
-1075 -1150 0
-1075 -1151 0
-1075 -1152 0
-1075 -1153 0
-1075 -1154 0
-1075 -1155 0
-1075 -1156 0
-1075 -1157 0
-1075 -1158 0
-1076 -1077 0
-1076 -1078 0
-1076 -1079 0
-1076 -1080 0
-1076 -1081 0
-1076 -1082 0
-1076 -1083 0
-1076 -1084 0
-1076 -1085 0
-1076 -1086 0
-1076 -1087 0
-1076 -1088 0
-1076 -1089 0
-1076 -1090 0
-1076 -1091 0
-1076 -1092 0
-1076 -1093 0
-1076 -1094 0
-1076 -1095 0
-1076 -1096 0
-1076 -1097 0
-1076 -1098 0
-1076 -1099 0
-1076 -1100 0
-1076 -1101 0
-1076 -1102 0
-1076 -1103 0
-1076 -1104 0
-1076 -1105 0
-1076 -1106 0
-1076 -1107 0
-1076 -1108 0
-1076 -1109 0
-1076 -1110 0
-1076 -1111 0
-1076 -1112 0
-1076 -1113 0
-1076 -1114 0
-1076 -1115 0
-1076 -1116 0
-1076 -1117 0
-1076 -1118 0
-1076 -1119 0
-1076 -1120 0
-1076 -1121 0
-1076 -1122 0
-1076 -1123 0
-1076 -1124 0
-1076 -1125 0
-1076 -1126 0
-1076 -1127 0
-1076 -1128 0
-1076 -1129 0
-1076 -1130 0
-1076 -1131 0
-1076 -1132 0
-1076 -1133 0
-1076 -1134 0
-1076 -1135 0
-1076 -1136 0
-1076 -1137 0
-1076 -1138 0
-1076 -1139 0
-1076 -1140 0
-1076 -1141 0
-1076 -1142 0
-1076 -1143 0
-1076 -1144 0
-1076 -1145 0
-1076 -1146 0
-1076 -1147 0
-1076 -1148 0
-1076 -1149 0
-1076 -1150 0
-1076 -1151 0
-1076 -1152 0
-1076 -1153 0
-1076 -1154 0
-1076 -1155 0
-1076 -1156 0
-1076 -1157 0
-1076 -1158 0
-1077 -1078 0
-1077 -1079 0
-1077 -1080 0
-1077 -1081 0
-1077 -1082 0
-1077 -1083 0
-1077 -1084 0
-1077 -1085 0
-1077 -1086 0
-1077 -1087 0
-1077 -1088 0
-1077 -1089 0
-1077 -1090 0
-1077 -1091 0
-1077 -1092 0
-1077 -1093 0
-1077 -1094 0
-1077 -1095 0
-1077 -1096 0
-1077 -1097 0
-1077 -1098 0
-1077 -1099 0
-1077 -1100 0
-1077 -1101 0
-1077 -1102 0
-1077 -1103 0
-1077 -1104 0
-1077 -1105 0
-1077 -1106 0
-1077 -1107 0
-1077 -1108 0
-1077 -1109 0
-1077 -1110 0
-1077 -1111 0
-1077 -1112 0
-1077 -1113 0
-1077 -1114 0
-1077 -1115 0
-1077 -1116 0
-1077 -1117 0
-1077 -1118 0
-1077 -1119 0
-1077 -1120 0
-1077 -1121 0
-1077 -1122 0
-1077 -1123 0
-1077 -1124 0
-1077 -1125 0
-1077 -1126 0
-1077 -1127 0
-1077 -1128 0
-1077 -1129 0
-1077 -1130 0
-1077 -1131 0
-1077 -1132 0
-1077 -1133 0
-1077 -1134 0
-1077 -1135 0
-1077 -1136 0
-1077 -1137 0
-1077 -1138 0
-1077 -1139 0
-1077 -1140 0
-1077 -1141 0
-1077 -1142 0
-1077 -1143 0
-1077 -1144 0
-1077 -1145 0
-1077 -1146 0
-1077 -1147 0
-1077 -1148 0
-1077 -1149 0
-1077 -1150 0
-1077 -1151 0
-1077 -1152 0
-1077 -1153 0
-1077 -1154 0
-1077 -1155 0
-1077 -1156 0
-1077 -1157 0
-1077 -1158 0
-1078 -1079 0
-1078 -1080 0
-1078 -1081 0
-1078 -1082 0
-1078 -1083 0
-1078 -1084 0
-1078 -1085 0
-1078 -1086 0
-1078 -1087 0
-1078 -1088 0
-1078 -1089 0
-1078 -1090 0
-1078 -1091 0
-1078 -1092 0
-1078 -1093 0
-1078 -1094 0
-1078 -1095 0
-1078 -1096 0
-1078 -1097 0
-1078 -1098 0
-1078 -1099 0
-1078 -1100 0
-1078 -1101 0
-1078 -1102 0
-1078 -1103 0
-1078 -1104 0
-1078 -1105 0
-1078 -1106 0
-1078 -1107 0
-1078 -1108 0
-1078 -1109 0
-1078 -1110 0
-1078 -1111 0
-1078 -1112 0
-1078 -1113 0
-1078 -1114 0
-1078 -1115 0
-1078 -1116 0
-1078 -1117 0
-1078 -1118 0
-1078 -1119 0
-1078 -1120 0
-1078 -1121 0
-1078 -1122 0
-1078 -1123 0
-1078 -1124 0
-1078 -1125 0
-1078 -1126 0
-1078 -1127 0
-1078 -1128 0
-1078 -1129 0
-1078 -1130 0
-1078 -1131 0
-1078 -1132 0
-1078 -1133 0
-1078 -1134 0
-1078 -1135 0
-1078 -1136 0
-1078 -1137 0
-1078 -1138 0
-1078 -1139 0
-1078 -1140 0
-1078 -1141 0
-1078 -1142 0
-1078 -1143 0
-1078 -1144 0
-1078 -1145 0
-1078 -1146 0
-1078 -1147 0
-1078 -1148 0
-1078 -1149 0
-1078 -1150 0
-1078 -1151 0
-1078 -1152 0
-1078 -1153 0
-1078 -1154 0
-1078 -1155 0
-1078 -1156 0
-1078 -1157 0
-1078 -1158 0
-1079 -1080 0
-1079 -1081 0
-1079 -1082 0
-1079 -1083 0
-1079 -1084 0
-1079 -1085 0
-1079 -1086 0
-1079 -1087 0
-1079 -1088 0
-1079 -1089 0
-1079 -1090 0
-1079 -1091 0
-1079 -1092 0
-1079 -1093 0
-1079 -1094 0
-1079 -1095 0
-1079 -1096 0
-1079 -1097 0
-1079 -1098 0
-1079 -1099 0
-1079 -1100 0
-1079 -1101 0
-1079 -1102 0
-1079 -1103 0
-1079 -1104 0
-1079 -1105 0
-1079 -1106 0
-1079 -1107 0
-1079 -1108 0
-1079 -1109 0
-1079 -1110 0
-1079 -1111 0
-1079 -1112 0
-1079 -1113 0
-1079 -1114 0
-1079 -1115 0
-1079 -1116 0
-1079 -1117 0
-1079 -1118 0
-1079 -1119 0
-1079 -1120 0
-1079 -1121 0
-1079 -1122 0
-1079 -1123 0
-1079 -1124 0
-1079 -1125 0
-1079 -1126 0
-1079 -1127 0
-1079 -1128 0
-1079 -1129 0
-1079 -1130 0
-1079 -1131 0
-1079 -1132 0
-1079 -1133 0
-1079 -1134 0
-1079 -1135 0
-1079 -1136 0
-1079 -1137 0
-1079 -1138 0
-1079 -1139 0
-1079 -1140 0
-1079 -1141 0
-1079 -1142 0
-1079 -1143 0
-1079 -1144 0
-1079 -1145 0
-1079 -1146 0
-1079 -1147 0
-1079 -1148 0
-1079 -1149 0
-1079 -1150 0
-1079 -1151 0
-1079 -1152 0
-1079 -1153 0
-1079 -1154 0
-1079 -1155 0
-1079 -1156 0
-1079 -1157 0
-1079 -1158 0
-1080 -1081 0
-1080 -1082 0
-1080 -1083 0
-1080 -1084 0
-1080 -1085 0
-1080 -1086 0
-1080 -1087 0
-1080 -1088 0
-1080 -1089 0
-1080 -1090 0
-1080 -1091 0
-1080 -1092 0
-1080 -1093 0
-1080 -1094 0
-1080 -1095 0
-1080 -1096 0
-1080 -1097 0
-1080 -1098 0
-1080 -1099 0
-1080 -1100 0
-1080 -1101 0
-1080 -1102 0
-1080 -1103 0
-1080 -1104 0
-1080 -1105 0
-1080 -1106 0
-1080 -1107 0
-1080 -1108 0
-1080 -1109 0
-1080 -1110 0
-1080 -1111 0
-1080 -1112 0
-1080 -1113 0
-1080 -1114 0
-1080 -1115 0
-1080 -1116 0
-1080 -1117 0
-1080 -1118 0
-1080 -1119 0
-1080 -1120 0
-1080 -1121 0
-1080 -1122 0
-1080 -1123 0
-1080 -1124 0
-1080 -1125 0
-1080 -1126 0
-1080 -1127 0
-1080 -1128 0
-1080 -1129 0
-1080 -1130 0
-1080 -1131 0
-1080 -1132 0
-1080 -1133 0
-1080 -1134 0
-1080 -1135 0
-1080 -1136 0
-1080 -1137 0
-1080 -1138 0
-1080 -1139 0
-1080 -1140 0
-1080 -1141 0
-1080 -1142 0
-1080 -1143 0
-1080 -1144 0
-1080 -1145 0
-1080 -1146 0
-1080 -1147 0
-1080 -1148 0
-1080 -1149 0
-1080 -1150 0
-1080 -1151 0
-1080 -1152 0
-1080 -1153 0
-1080 -1154 0
-1080 -1155 0
-1080 -1156 0
-1080 -1157 0
-1080 -1158 0
-1081 -1082 0
-1081 -1083 0
-1081 -1084 0
-1081 -1085 0
-1081 -1086 0
-1081 -1087 0
-1081 -1088 0
-1081 -1089 0
-1081 -1090 0
-1081 -1091 0
-1081 -1092 0
-1081 -1093 0
-1081 -1094 0
-1081 -1095 0
-1081 -1096 0
-1081 -1097 0
-1081 -1098 0
-1081 -1099 0
-1081 -1100 0
-1081 -1101 0
-1081 -1102 0
-1081 -1103 0
-1081 -1104 0
-1081 -1105 0
-1081 -1106 0
-1081 -1107 0
-1081 -1108 0
-1081 -1109 0
-1081 -1110 0
-1081 -1111 0
-1081 -1112 0
-1081 -1113 0
-1081 -1114 0
-1081 -1115 0
-1081 -1116 0
-1081 -1117 0
-1081 -1118 0
-1081 -1119 0
-1081 -1120 0
-1081 -1121 0
-1081 -1122 0
-1081 -1123 0
-1081 -1124 0
-1081 -1125 0
-1081 -1126 0
-1081 -1127 0
-1081 -1128 0
-1081 -1129 0
-1081 -1130 0
-1081 -1131 0
-1081 -1132 0
-1081 -1133 0
-1081 -1134 0
-1081 -1135 0
-1081 -1136 0
-1081 -1137 0
-1081 -1138 0
-1081 -1139 0
-1081 -1140 0
-1081 -1141 0
-1081 -1142 0
-1081 -1143 0
-1081 -1144 0
-1081 -1145 0
-1081 -1146 0
-1081 -1147 0
-1081 -1148 0
-1081 -1149 0
-1081 -1150 0
-1081 -1151 0
-1081 -1152 0
-1081 -1153 0
-1081 -1154 0
-1081 -1155 0
-1081 -1156 0
-1081 -1157 0
-1081 -1158 0
-1082 -1083 0
-1082 -1084 0
-1082 -1085 0
-1082 -1086 0
-1082 -1087 0
-1082 -1088 0
-1082 -1089 0
-1082 -1090 0
-1082 -1091 0
-1082 -1092 0
-1082 -1093 0
-1082 -1094 0
-1082 -1095 0
-1082 -1096 0
-1082 -1097 0
-1082 -1098 0
-1082 -1099 0
-1082 -1100 0
-1082 -1101 0
-1082 -1102 0
-1082 -1103 0
-1082 -1104 0
-1082 -1105 0
-1082 -1106 0
-1082 -1107 0
-1082 -1108 0
-1082 -1109 0
-1082 -1110 0
-1082 -1111 0
-1082 -1112 0
-1082 -1113 0
-1082 -1114 0
-1082 -1115 0
-1082 -1116 0
-1082 -1117 0
-1082 -1118 0
-1082 -1119 0
-1082 -1120 0
-1082 -1121 0
-1082 -1122 0
-1082 -1123 0
-1082 -1124 0
-1082 -1125 0
-1082 -1126 0
-1082 -1127 0
-1082 -1128 0
-1082 -1129 0
-1082 -1130 0
-1082 -1131 0
-1082 -1132 0
-1082 -1133 0
-1082 -1134 0
-1082 -1135 0
-1082 -1136 0
-1082 -1137 0
-1082 -1138 0
-1082 -1139 0
-1082 -1140 0
-1082 -1141 0
-1082 -1142 0
-1082 -1143 0
-1082 -1144 0
-1082 -1145 0
-1082 -1146 0
-1082 -1147 0
-1082 -1148 0
-1082 -1149 0
-1082 -1150 0
-1082 -1151 0
-1082 -1152 0
-1082 -1153 0
-1082 -1154 0
-1082 -1155 0
-1082 -1156 0
-1082 -1157 0
-1082 -1158 0
-1083 -1084 0
-1083 -1085 0
-1083 -1086 0
-1083 -1087 0
-1083 -1088 0
-1083 -1089 0
-1083 -1090 0
-1083 -1091 0
-1083 -1092 0
-1083 -1093 0
-1083 -1094 0
-1083 -1095 0
-1083 -1096 0
-1083 -1097 0
-1083 -1098 0
-1083 -1099 0
-1083 -1100 0
-1083 -1101 0
-1083 -1102 0
-1083 -1103 0
-1083 -1104 0
-1083 -1105 0
-1083 -1106 0
-1083 -1107 0
-1083 -1108 0
-1083 -1109 0
-1083 -1110 0
-1083 -1111 0
-1083 -1112 0
-1083 -1113 0
-1083 -1114 0
-1083 -1115 0
-1083 -1116 0
-1083 -1117 0
-1083 -1118 0
-1083 -1119 0
-1083 -1120 0
-1083 -1121 0
-1083 -1122 0
-1083 -1123 0
-1083 -1124 0
-1083 -1125 0
-1083 -1126 0
-1083 -1127 0
-1083 -1128 0
-1083 -1129 0
-1083 -1130 0
-1083 -1131 0
-1083 -1132 0
-1083 -1133 0
-1083 -1134 0
-1083 -1135 0
-1083 -1136 0
-1083 -1137 0
-1083 -1138 0
-1083 -1139 0
-1083 -1140 0
-1083 -1141 0
-1083 -1142 0
-1083 -1143 0
-1083 -1144 0
-1083 -1145 0
-1083 -1146 0
-1083 -1147 0
-1083 -1148 0
-1083 -1149 0
-1083 -1150 0
-1083 -1151 0
-1083 -1152 0
-1083 -1153 0
-1083 -1154 0
-1083 -1155 0
-1083 -1156 0
-1083 -1157 0
-1083 -1158 0
-1084 -1085 0
-1084 -1086 0
-1084 -1087 0
-1084 -1088 0
-1084 -1089 0
-1084 -1090 0
-1084 -1091 0
-1084 -1092 0
-1084 -1093 0
-1084 -1094 0
-1084 -1095 0
-1084 -1096 0
-1084 -1097 0
-1084 -1098 0
-1084 -1099 0
-1084 -1100 0
-1084 -1101 0
-1084 -1102 0
-1084 -1103 0
-1084 -1104 0
-1084 -1105 0
-1084 -1106 0
-1084 -1107 0
-1084 -1108 0
-1084 -1109 0
-1084 -1110 0
-1084 -1111 0
-1084 -1112 0
-1084 -1113 0
-1084 -1114 0
-1084 -1115 0
-1084 -1116 0
-1084 -1117 0
-1084 -1118 0
-1084 -1119 0
-1084 -1120 0
-1084 -1121 0
-1084 -1122 0
-1084 -1123 0
-1084 -1124 0
-1084 -1125 0
-1084 -1126 0
-1084 -1127 0
-1084 -1128 0
-1084 -1129 0
-1084 -1130 0
-1084 -1131 0
-1084 -1132 0
-1084 -1133 0
-1084 -1134 0
-1084 -1135 0
-1084 -1136 0
-1084 -1137 0
-1084 -1138 0
-1084 -1139 0
-1084 -1140 0
-1084 -1141 0
-1084 -1142 0
-1084 -1143 0
-1084 -1144 0
-1084 -1145 0
-1084 -1146 0
-1084 -1147 0
-1084 -1148 0
-1084 -1149 0
-1084 -1150 0
-1084 -1151 0
-1084 -1152 0
-1084 -1153 0
-1084 -1154 0
-1084 -1155 0
-1084 -1156 0
-1084 -1157 0
-1084 -1158 0
-1085 -1086 0
-1085 -1087 0
-1085 -1088 0
-1085 -1089 0
-1085 -1090 0
-1085 -1091 0
-1085 -1092 0
-1085 -1093 0
-1085 -1094 0
-1085 -1095 0
-1085 -1096 0
-1085 -1097 0
-1085 -1098 0
-1085 -1099 0
-1085 -1100 0
-1085 -1101 0
-1085 -1102 0
-1085 -1103 0
-1085 -1104 0
-1085 -1105 0
-1085 -1106 0
-1085 -1107 0
-1085 -1108 0
-1085 -1109 0
-1085 -1110 0
-1085 -1111 0
-1085 -1112 0
-1085 -1113 0
-1085 -1114 0
-1085 -1115 0
-1085 -1116 0
-1085 -1117 0
-1085 -1118 0
-1085 -1119 0
-1085 -1120 0
-1085 -1121 0
-1085 -1122 0
-1085 -1123 0
-1085 -1124 0
-1085 -1125 0
-1085 -1126 0
-1085 -1127 0
-1085 -1128 0
-1085 -1129 0
-1085 -1130 0
-1085 -1131 0
-1085 -1132 0
-1085 -1133 0
-1085 -1134 0
-1085 -1135 0
-1085 -1136 0
-1085 -1137 0
-1085 -1138 0
-1085 -1139 0
-1085 -1140 0
-1085 -1141 0
-1085 -1142 0
-1085 -1143 0
-1085 -1144 0
-1085 -1145 0
-1085 -1146 0
-1085 -1147 0
-1085 -1148 0
-1085 -1149 0
-1085 -1150 0
-1085 -1151 0
-1085 -1152 0
-1085 -1153 0
-1085 -1154 0
-1085 -1155 0
-1085 -1156 0
-1085 -1157 0
-1085 -1158 0
-1086 -1087 0
-1086 -1088 0
-1086 -1089 0
-1086 -1090 0
-1086 -1091 0
-1086 -1092 0
-1086 -1093 0
-1086 -1094 0
-1086 -1095 0
-1086 -1096 0
-1086 -1097 0
-1086 -1098 0
-1086 -1099 0
-1086 -1100 0
-1086 -1101 0
-1086 -1102 0
-1086 -1103 0
-1086 -1104 0
-1086 -1105 0
-1086 -1106 0
-1086 -1107 0
-1086 -1108 0
-1086 -1109 0
-1086 -1110 0
-1086 -1111 0
-1086 -1112 0
-1086 -1113 0
-1086 -1114 0
-1086 -1115 0
-1086 -1116 0
-1086 -1117 0
-1086 -1118 0
-1086 -1119 0
-1086 -1120 0
-1086 -1121 0
-1086 -1122 0
-1086 -1123 0
-1086 -1124 0
-1086 -1125 0
-1086 -1126 0
-1086 -1127 0
-1086 -1128 0
-1086 -1129 0
-1086 -1130 0
-1086 -1131 0
-1086 -1132 0
-1086 -1133 0
-1086 -1134 0
-1086 -1135 0
-1086 -1136 0
-1086 -1137 0
-1086 -1138 0
-1086 -1139 0
-1086 -1140 0
-1086 -1141 0
-1086 -1142 0
-1086 -1143 0
-1086 -1144 0
-1086 -1145 0
-1086 -1146 0
-1086 -1147 0
-1086 -1148 0
-1086 -1149 0
-1086 -1150 0
-1086 -1151 0
-1086 -1152 0
-1086 -1153 0
-1086 -1154 0
-1086 -1155 0
-1086 -1156 0
-1086 -1157 0
-1086 -1158 0
-1087 -1088 0
-1087 -1089 0
-1087 -1090 0
-1087 -1091 0
-1087 -1092 0
-1087 -1093 0
-1087 -1094 0
-1087 -1095 0
-1087 -1096 0
-1087 -1097 0
-1087 -1098 0
-1087 -1099 0
-1087 -1100 0
-1087 -1101 0
-1087 -1102 0
-1087 -1103 0
-1087 -1104 0
-1087 -1105 0
-1087 -1106 0
-1087 -1107 0
-1087 -1108 0
-1087 -1109 0
-1087 -1110 0
-1087 -1111 0
-1087 -1112 0
-1087 -1113 0
-1087 -1114 0
-1087 -1115 0
-1087 -1116 0
-1087 -1117 0
-1087 -1118 0
-1087 -1119 0
-1087 -1120 0
-1087 -1121 0
-1087 -1122 0
-1087 -1123 0
-1087 -1124 0
-1087 -1125 0
-1087 -1126 0
-1087 -1127 0
-1087 -1128 0
-1087 -1129 0
-1087 -1130 0
-1087 -1131 0
-1087 -1132 0
-1087 -1133 0
-1087 -1134 0
-1087 -1135 0
-1087 -1136 0
-1087 -1137 0
-1087 -1138 0
-1087 -1139 0
-1087 -1140 0
-1087 -1141 0
-1087 -1142 0
-1087 -1143 0
-1087 -1144 0
-1087 -1145 0
-1087 -1146 0
-1087 -1147 0
-1087 -1148 0
-1087 -1149 0
-1087 -1150 0
-1087 -1151 0
-1087 -1152 0
-1087 -1153 0
-1087 -1154 0
-1087 -1155 0
-1087 -1156 0
-1087 -1157 0
-1087 -1158 0
-1088 -1089 0
-1088 -1090 0
-1088 -1091 0
-1088 -1092 0
-1088 -1093 0
-1088 -1094 0
-1088 -1095 0
-1088 -1096 0
-1088 -1097 0
-1088 -1098 0
-1088 -1099 0
-1088 -1100 0
-1088 -1101 0
-1088 -1102 0
-1088 -1103 0
-1088 -1104 0
-1088 -1105 0
-1088 -1106 0
-1088 -1107 0
-1088 -1108 0
-1088 -1109 0
-1088 -1110 0
-1088 -1111 0
-1088 -1112 0
-1088 -1113 0
-1088 -1114 0
-1088 -1115 0
-1088 -1116 0
-1088 -1117 0
-1088 -1118 0
-1088 -1119 0
-1088 -1120 0
-1088 -1121 0
-1088 -1122 0
-1088 -1123 0
-1088 -1124 0
-1088 -1125 0
-1088 -1126 0
-1088 -1127 0
-1088 -1128 0
-1088 -1129 0
-1088 -1130 0
-1088 -1131 0
-1088 -1132 0
-1088 -1133 0
-1088 -1134 0
-1088 -1135 0
-1088 -1136 0
-1088 -1137 0
-1088 -1138 0
-1088 -1139 0
-1088 -1140 0
-1088 -1141 0
-1088 -1142 0
-1088 -1143 0
-1088 -1144 0
-1088 -1145 0
-1088 -1146 0
-1088 -1147 0
-1088 -1148 0
-1088 -1149 0
-1088 -1150 0
-1088 -1151 0
-1088 -1152 0
-1088 -1153 0
-1088 -1154 0
-1088 -1155 0
-1088 -1156 0
-1088 -1157 0
-1088 -1158 0
-1089 -1090 0
-1089 -1091 0
-1089 -1092 0
-1089 -1093 0
-1089 -1094 0
-1089 -1095 0
-1089 -1096 0
-1089 -1097 0
-1089 -1098 0
-1089 -1099 0
-1089 -1100 0
-1089 -1101 0
-1089 -1102 0
-1089 -1103 0
-1089 -1104 0
-1089 -1105 0
-1089 -1106 0
-1089 -1107 0
-1089 -1108 0
-1089 -1109 0
-1089 -1110 0
-1089 -1111 0
-1089 -1112 0
-1089 -1113 0
-1089 -1114 0
-1089 -1115 0
-1089 -1116 0
-1089 -1117 0
-1089 -1118 0
-1089 -1119 0
-1089 -1120 0
-1089 -1121 0
-1089 -1122 0
-1089 -1123 0
-1089 -1124 0
-1089 -1125 0
-1089 -1126 0
-1089 -1127 0
-1089 -1128 0
-1089 -1129 0
-1089 -1130 0
-1089 -1131 0
-1089 -1132 0
-1089 -1133 0
-1089 -1134 0
-1089 -1135 0
-1089 -1136 0
-1089 -1137 0
-1089 -1138 0
-1089 -1139 0
-1089 -1140 0
-1089 -1141 0
-1089 -1142 0
-1089 -1143 0
-1089 -1144 0
-1089 -1145 0
-1089 -1146 0
-1089 -1147 0
-1089 -1148 0
-1089 -1149 0
-1089 -1150 0
-1089 -1151 0
-1089 -1152 0
-1089 -1153 0
-1089 -1154 0
-1089 -1155 0
-1089 -1156 0
-1089 -1157 0
-1089 -1158 0
-1090 -1091 0
-1090 -1092 0
-1090 -1093 0
-1090 -1094 0
-1090 -1095 0
-1090 -1096 0
-1090 -1097 0
-1090 -1098 0
-1090 -1099 0
-1090 -1100 0
-1090 -1101 0
-1090 -1102 0
-1090 -1103 0
-1090 -1104 0
-1090 -1105 0
-1090 -1106 0
-1090 -1107 0
-1090 -1108 0
-1090 -1109 0
-1090 -1110 0
-1090 -1111 0
-1090 -1112 0
-1090 -1113 0
-1090 -1114 0
-1090 -1115 0
-1090 -1116 0
-1090 -1117 0
-1090 -1118 0
-1090 -1119 0
-1090 -1120 0
-1090 -1121 0
-1090 -1122 0
-1090 -1123 0
-1090 -1124 0
-1090 -1125 0
-1090 -1126 0
-1090 -1127 0
-1090 -1128 0
-1090 -1129 0
-1090 -1130 0
-1090 -1131 0
-1090 -1132 0
-1090 -1133 0
-1090 -1134 0
-1090 -1135 0
-1090 -1136 0
-1090 -1137 0
-1090 -1138 0
-1090 -1139 0
-1090 -1140 0
-1090 -1141 0
-1090 -1142 0
-1090 -1143 0
-1090 -1144 0
-1090 -1145 0
-1090 -1146 0
-1090 -1147 0
-1090 -1148 0
-1090 -1149 0
-1090 -1150 0
-1090 -1151 0
-1090 -1152 0
-1090 -1153 0
-1090 -1154 0
-1090 -1155 0
-1090 -1156 0
-1090 -1157 0
-1090 -1158 0
-1091 -1092 0
-1091 -1093 0
-1091 -1094 0
-1091 -1095 0
-1091 -1096 0
-1091 -1097 0
-1091 -1098 0
-1091 -1099 0
-1091 -1100 0
-1091 -1101 0
-1091 -1102 0
-1091 -1103 0
-1091 -1104 0
-1091 -1105 0
-1091 -1106 0
-1091 -1107 0
-1091 -1108 0
-1091 -1109 0
-1091 -1110 0
-1091 -1111 0
-1091 -1112 0
-1091 -1113 0
-1091 -1114 0
-1091 -1115 0
-1091 -1116 0
-1091 -1117 0
-1091 -1118 0
-1091 -1119 0
-1091 -1120 0
-1091 -1121 0
-1091 -1122 0
-1091 -1123 0
-1091 -1124 0
-1091 -1125 0
-1091 -1126 0
-1091 -1127 0
-1091 -1128 0
-1091 -1129 0
-1091 -1130 0
-1091 -1131 0
-1091 -1132 0
-1091 -1133 0
-1091 -1134 0
-1091 -1135 0
-1091 -1136 0
-1091 -1137 0
-1091 -1138 0
-1091 -1139 0
-1091 -1140 0
-1091 -1141 0
-1091 -1142 0
-1091 -1143 0
-1091 -1144 0
-1091 -1145 0
-1091 -1146 0
-1091 -1147 0
-1091 -1148 0
-1091 -1149 0
-1091 -1150 0
-1091 -1151 0
-1091 -1152 0
-1091 -1153 0
-1091 -1154 0
-1091 -1155 0
-1091 -1156 0
-1091 -1157 0
-1091 -1158 0
-1092 -1093 0
-1092 -1094 0
-1092 -1095 0
-1092 -1096 0
-1092 -1097 0
-1092 -1098 0
-1092 -1099 0
-1092 -1100 0
-1092 -1101 0
-1092 -1102 0
-1092 -1103 0
-1092 -1104 0
-1092 -1105 0
-1092 -1106 0
-1092 -1107 0
-1092 -1108 0
-1092 -1109 0
-1092 -1110 0
-1092 -1111 0
-1092 -1112 0
-1092 -1113 0
-1092 -1114 0
-1092 -1115 0
-1092 -1116 0
-1092 -1117 0
-1092 -1118 0
-1092 -1119 0
-1092 -1120 0
-1092 -1121 0
-1092 -1122 0
-1092 -1123 0
-1092 -1124 0
-1092 -1125 0
-1092 -1126 0
-1092 -1127 0
-1092 -1128 0
-1092 -1129 0
-1092 -1130 0
-1092 -1131 0
-1092 -1132 0
-1092 -1133 0
-1092 -1134 0
-1092 -1135 0
-1092 -1136 0
-1092 -1137 0
-1092 -1138 0
-1092 -1139 0
-1092 -1140 0
-1092 -1141 0
-1092 -1142 0
-1092 -1143 0
-1092 -1144 0
-1092 -1145 0
-1092 -1146 0
-1092 -1147 0
-1092 -1148 0
-1092 -1149 0
-1092 -1150 0
-1092 -1151 0
-1092 -1152 0
-1092 -1153 0
-1092 -1154 0
-1092 -1155 0
-1092 -1156 0
-1092 -1157 0
-1092 -1158 0
-1093 -1094 0
-1093 -1095 0
-1093 -1096 0
-1093 -1097 0
-1093 -1098 0
-1093 -1099 0
-1093 -1100 0
-1093 -1101 0
-1093 -1102 0
-1093 -1103 0
-1093 -1104 0
-1093 -1105 0
-1093 -1106 0
-1093 -1107 0
-1093 -1108 0
-1093 -1109 0
-1093 -1110 0
-1093 -1111 0
-1093 -1112 0
-1093 -1113 0
-1093 -1114 0
-1093 -1115 0
-1093 -1116 0
-1093 -1117 0
-1093 -1118 0
-1093 -1119 0
-1093 -1120 0
-1093 -1121 0
-1093 -1122 0
-1093 -1123 0
-1093 -1124 0
-1093 -1125 0
-1093 -1126 0
-1093 -1127 0
-1093 -1128 0
-1093 -1129 0
-1093 -1130 0
-1093 -1131 0
-1093 -1132 0
-1093 -1133 0
-1093 -1134 0
-1093 -1135 0
-1093 -1136 0
-1093 -1137 0
-1093 -1138 0
-1093 -1139 0
-1093 -1140 0
-1093 -1141 0
-1093 -1142 0
-1093 -1143 0
-1093 -1144 0
-1093 -1145 0
-1093 -1146 0
-1093 -1147 0
-1093 -1148 0
-1093 -1149 0
-1093 -1150 0
-1093 -1151 0
-1093 -1152 0
-1093 -1153 0
-1093 -1154 0
-1093 -1155 0
-1093 -1156 0
-1093 -1157 0
-1093 -1158 0
-1094 -1095 0
-1094 -1096 0
-1094 -1097 0
-1094 -1098 0
-1094 -1099 0
-1094 -1100 0
-1094 -1101 0
-1094 -1102 0
-1094 -1103 0
-1094 -1104 0
-1094 -1105 0
-1094 -1106 0
-1094 -1107 0
-1094 -1108 0
-1094 -1109 0
-1094 -1110 0
-1094 -1111 0
-1094 -1112 0
-1094 -1113 0
-1094 -1114 0
-1094 -1115 0
-1094 -1116 0
-1094 -1117 0
-1094 -1118 0
-1094 -1119 0
-1094 -1120 0
-1094 -1121 0
-1094 -1122 0
-1094 -1123 0
-1094 -1124 0
-1094 -1125 0
-1094 -1126 0
-1094 -1127 0
-1094 -1128 0
-1094 -1129 0
-1094 -1130 0
-1094 -1131 0
-1094 -1132 0
-1094 -1133 0
-1094 -1134 0
-1094 -1135 0
-1094 -1136 0
-1094 -1137 0
-1094 -1138 0
-1094 -1139 0
-1094 -1140 0
-1094 -1141 0
-1094 -1142 0
-1094 -1143 0
-1094 -1144 0
-1094 -1145 0
-1094 -1146 0
-1094 -1147 0
-1094 -1148 0
-1094 -1149 0
-1094 -1150 0
-1094 -1151 0
-1094 -1152 0
-1094 -1153 0
-1094 -1154 0
-1094 -1155 0
-1094 -1156 0
-1094 -1157 0
-1094 -1158 0
-1095 -1096 0
-1095 -1097 0
-1095 -1098 0
-1095 -1099 0
-1095 -1100 0
-1095 -1101 0
-1095 -1102 0
-1095 -1103 0
-1095 -1104 0
-1095 -1105 0
-1095 -1106 0
-1095 -1107 0
-1095 -1108 0
-1095 -1109 0
-1095 -1110 0
-1095 -1111 0
-1095 -1112 0
-1095 -1113 0
-1095 -1114 0
-1095 -1115 0
-1095 -1116 0
-1095 -1117 0
-1095 -1118 0
-1095 -1119 0
-1095 -1120 0
-1095 -1121 0
-1095 -1122 0
-1095 -1123 0
-1095 -1124 0
-1095 -1125 0
-1095 -1126 0
-1095 -1127 0
-1095 -1128 0
-1095 -1129 0
-1095 -1130 0
-1095 -1131 0
-1095 -1132 0
-1095 -1133 0
-1095 -1134 0
-1095 -1135 0
-1095 -1136 0
-1095 -1137 0
-1095 -1138 0
-1095 -1139 0
-1095 -1140 0
-1095 -1141 0
-1095 -1142 0
-1095 -1143 0
-1095 -1144 0
-1095 -1145 0
-1095 -1146 0
-1095 -1147 0
-1095 -1148 0
-1095 -1149 0
-1095 -1150 0
-1095 -1151 0
-1095 -1152 0
-1095 -1153 0
-1095 -1154 0
-1095 -1155 0
-1095 -1156 0
-1095 -1157 0
-1095 -1158 0
-1096 -1097 0
-1096 -1098 0
-1096 -1099 0
-1096 -1100 0
-1096 -1101 0
-1096 -1102 0
-1096 -1103 0
-1096 -1104 0
-1096 -1105 0
-1096 -1106 0
-1096 -1107 0
-1096 -1108 0
-1096 -1109 0
-1096 -1110 0
-1096 -1111 0
-1096 -1112 0
-1096 -1113 0
-1096 -1114 0
-1096 -1115 0
-1096 -1116 0
-1096 -1117 0
-1096 -1118 0
-1096 -1119 0
-1096 -1120 0
-1096 -1121 0
-1096 -1122 0
-1096 -1123 0
-1096 -1124 0
-1096 -1125 0
-1096 -1126 0
-1096 -1127 0
-1096 -1128 0
-1096 -1129 0
-1096 -1130 0
-1096 -1131 0
-1096 -1132 0
-1096 -1133 0
-1096 -1134 0
-1096 -1135 0
-1096 -1136 0
-1096 -1137 0
-1096 -1138 0
-1096 -1139 0
-1096 -1140 0
-1096 -1141 0
-1096 -1142 0
-1096 -1143 0
-1096 -1144 0
-1096 -1145 0
-1096 -1146 0
-1096 -1147 0
-1096 -1148 0
-1096 -1149 0
-1096 -1150 0
-1096 -1151 0
-1096 -1152 0
-1096 -1153 0
-1096 -1154 0
-1096 -1155 0
-1096 -1156 0
-1096 -1157 0
-1096 -1158 0
-1097 -1098 0
-1097 -1099 0
-1097 -1100 0
-1097 -1101 0
-1097 -1102 0
-1097 -1103 0
-1097 -1104 0
-1097 -1105 0
-1097 -1106 0
-1097 -1107 0
-1097 -1108 0
-1097 -1109 0
-1097 -1110 0
-1097 -1111 0
-1097 -1112 0
-1097 -1113 0
-1097 -1114 0
-1097 -1115 0
-1097 -1116 0
-1097 -1117 0
-1097 -1118 0
-1097 -1119 0
-1097 -1120 0
-1097 -1121 0
-1097 -1122 0
-1097 -1123 0
-1097 -1124 0
-1097 -1125 0
-1097 -1126 0
-1097 -1127 0
-1097 -1128 0
-1097 -1129 0
-1097 -1130 0
-1097 -1131 0
-1097 -1132 0
-1097 -1133 0
-1097 -1134 0
-1097 -1135 0
-1097 -1136 0
-1097 -1137 0
-1097 -1138 0
-1097 -1139 0
-1097 -1140 0
-1097 -1141 0
-1097 -1142 0
-1097 -1143 0
-1097 -1144 0
-1097 -1145 0
-1097 -1146 0
-1097 -1147 0
-1097 -1148 0
-1097 -1149 0
-1097 -1150 0
-1097 -1151 0
-1097 -1152 0
-1097 -1153 0
-1097 -1154 0
-1097 -1155 0
-1097 -1156 0
-1097 -1157 0
-1097 -1158 0
-1098 -1099 0
-1098 -1100 0
-1098 -1101 0
-1098 -1102 0
-1098 -1103 0
-1098 -1104 0
-1098 -1105 0
-1098 -1106 0
-1098 -1107 0
-1098 -1108 0
-1098 -1109 0
-1098 -1110 0
-1098 -1111 0
-1098 -1112 0
-1098 -1113 0
-1098 -1114 0
-1098 -1115 0
-1098 -1116 0
-1098 -1117 0
-1098 -1118 0
-1098 -1119 0
-1098 -1120 0
-1098 -1121 0
-1098 -1122 0
-1098 -1123 0
-1098 -1124 0
-1098 -1125 0
-1098 -1126 0
-1098 -1127 0
-1098 -1128 0
-1098 -1129 0
-1098 -1130 0
-1098 -1131 0
-1098 -1132 0
-1098 -1133 0
-1098 -1134 0
-1098 -1135 0
-1098 -1136 0
-1098 -1137 0
-1098 -1138 0
-1098 -1139 0
-1098 -1140 0
-1098 -1141 0
-1098 -1142 0
-1098 -1143 0
-1098 -1144 0
-1098 -1145 0
-1098 -1146 0
-1098 -1147 0
-1098 -1148 0
-1098 -1149 0
-1098 -1150 0
-1098 -1151 0
-1098 -1152 0
-1098 -1153 0
-1098 -1154 0
-1098 -1155 0
-1098 -1156 0
-1098 -1157 0
-1098 -1158 0
-1099 -1100 0
-1099 -1101 0
-1099 -1102 0
-1099 -1103 0
-1099 -1104 0
-1099 -1105 0
-1099 -1106 0
-1099 -1107 0
-1099 -1108 0
-1099 -1109 0
-1099 -1110 0
-1099 -1111 0
-1099 -1112 0
-1099 -1113 0
-1099 -1114 0
-1099 -1115 0
-1099 -1116 0
-1099 -1117 0
-1099 -1118 0
-1099 -1119 0
-1099 -1120 0
-1099 -1121 0
-1099 -1122 0
-1099 -1123 0
-1099 -1124 0
-1099 -1125 0
-1099 -1126 0
-1099 -1127 0
-1099 -1128 0
-1099 -1129 0
-1099 -1130 0
-1099 -1131 0
-1099 -1132 0
-1099 -1133 0
-1099 -1134 0
-1099 -1135 0
-1099 -1136 0
-1099 -1137 0
-1099 -1138 0
-1099 -1139 0
-1099 -1140 0
-1099 -1141 0
-1099 -1142 0
-1099 -1143 0
-1099 -1144 0
-1099 -1145 0
-1099 -1146 0
-1099 -1147 0
-1099 -1148 0
-1099 -1149 0
-1099 -1150 0
-1099 -1151 0
-1099 -1152 0
-1099 -1153 0
-1099 -1154 0
-1099 -1155 0
-1099 -1156 0
-1099 -1157 0
-1099 -1158 0
-1100 -1101 0
-1100 -1102 0
-1100 -1103 0
-1100 -1104 0
-1100 -1105 0
-1100 -1106 0
-1100 -1107 0
-1100 -1108 0
-1100 -1109 0
-1100 -1110 0
-1100 -1111 0
-1100 -1112 0
-1100 -1113 0
-1100 -1114 0
-1100 -1115 0
-1100 -1116 0
-1100 -1117 0
-1100 -1118 0
-1100 -1119 0
-1100 -1120 0
-1100 -1121 0
-1100 -1122 0
-1100 -1123 0
-1100 -1124 0
-1100 -1125 0
-1100 -1126 0
-1100 -1127 0
-1100 -1128 0
-1100 -1129 0
-1100 -1130 0
-1100 -1131 0
-1100 -1132 0
-1100 -1133 0
-1100 -1134 0
-1100 -1135 0
-1100 -1136 0
-1100 -1137 0
-1100 -1138 0
-1100 -1139 0
-1100 -1140 0
-1100 -1141 0
-1100 -1142 0
-1100 -1143 0
-1100 -1144 0
-1100 -1145 0
-1100 -1146 0
-1100 -1147 0
-1100 -1148 0
-1100 -1149 0
-1100 -1150 0
-1100 -1151 0
-1100 -1152 0
-1100 -1153 0
-1100 -1154 0
-1100 -1155 0
-1100 -1156 0
-1100 -1157 0
-1100 -1158 0
-1101 -1102 0
-1101 -1103 0
-1101 -1104 0
-1101 -1105 0
-1101 -1106 0
-1101 -1107 0
-1101 -1108 0
-1101 -1109 0
-1101 -1110 0
-1101 -1111 0
-1101 -1112 0
-1101 -1113 0
-1101 -1114 0
-1101 -1115 0
-1101 -1116 0
-1101 -1117 0
-1101 -1118 0
-1101 -1119 0
-1101 -1120 0
-1101 -1121 0
-1101 -1122 0
-1101 -1123 0
-1101 -1124 0
-1101 -1125 0
-1101 -1126 0
-1101 -1127 0
-1101 -1128 0
-1101 -1129 0
-1101 -1130 0
-1101 -1131 0
-1101 -1132 0
-1101 -1133 0
-1101 -1134 0
-1101 -1135 0
-1101 -1136 0
-1101 -1137 0
-1101 -1138 0
-1101 -1139 0
-1101 -1140 0
-1101 -1141 0
-1101 -1142 0
-1101 -1143 0
-1101 -1144 0
-1101 -1145 0
-1101 -1146 0
-1101 -1147 0
-1101 -1148 0
-1101 -1149 0
-1101 -1150 0
-1101 -1151 0
-1101 -1152 0
-1101 -1153 0
-1101 -1154 0
-1101 -1155 0
-1101 -1156 0
-1101 -1157 0
-1101 -1158 0
-1102 -1103 0
-1102 -1104 0
-1102 -1105 0
-1102 -1106 0
-1102 -1107 0
-1102 -1108 0
-1102 -1109 0
-1102 -1110 0
-1102 -1111 0
-1102 -1112 0
-1102 -1113 0
-1102 -1114 0
-1102 -1115 0
-1102 -1116 0
-1102 -1117 0
-1102 -1118 0
-1102 -1119 0
-1102 -1120 0
-1102 -1121 0
-1102 -1122 0
-1102 -1123 0
-1102 -1124 0
-1102 -1125 0
-1102 -1126 0
-1102 -1127 0
-1102 -1128 0
-1102 -1129 0
-1102 -1130 0
-1102 -1131 0
-1102 -1132 0
-1102 -1133 0
-1102 -1134 0
-1102 -1135 0
-1102 -1136 0
-1102 -1137 0
-1102 -1138 0
-1102 -1139 0
-1102 -1140 0
-1102 -1141 0
-1102 -1142 0
-1102 -1143 0
-1102 -1144 0
-1102 -1145 0
-1102 -1146 0
-1102 -1147 0
-1102 -1148 0
-1102 -1149 0
-1102 -1150 0
-1102 -1151 0
-1102 -1152 0
-1102 -1153 0
-1102 -1154 0
-1102 -1155 0
-1102 -1156 0
-1102 -1157 0
-1102 -1158 0
-1103 -1104 0
-1103 -1105 0
-1103 -1106 0
-1103 -1107 0
-1103 -1108 0
-1103 -1109 0
-1103 -1110 0
-1103 -1111 0
-1103 -1112 0
-1103 -1113 0
-1103 -1114 0
-1103 -1115 0
-1103 -1116 0
-1103 -1117 0
-1103 -1118 0
-1103 -1119 0
-1103 -1120 0
-1103 -1121 0
-1103 -1122 0
-1103 -1123 0
-1103 -1124 0
-1103 -1125 0
-1103 -1126 0
-1103 -1127 0
-1103 -1128 0
-1103 -1129 0
-1103 -1130 0
-1103 -1131 0
-1103 -1132 0
-1103 -1133 0
-1103 -1134 0
-1103 -1135 0
-1103 -1136 0
-1103 -1137 0
-1103 -1138 0
-1103 -1139 0
-1103 -1140 0
-1103 -1141 0
-1103 -1142 0
-1103 -1143 0
-1103 -1144 0
-1103 -1145 0
-1103 -1146 0
-1103 -1147 0
-1103 -1148 0
-1103 -1149 0
-1103 -1150 0
-1103 -1151 0
-1103 -1152 0
-1103 -1153 0
-1103 -1154 0
-1103 -1155 0
-1103 -1156 0
-1103 -1157 0
-1103 -1158 0
-1104 -1105 0
-1104 -1106 0
-1104 -1107 0
-1104 -1108 0
-1104 -1109 0
-1104 -1110 0
-1104 -1111 0
-1104 -1112 0
-1104 -1113 0
-1104 -1114 0
-1104 -1115 0
-1104 -1116 0
-1104 -1117 0
-1104 -1118 0
-1104 -1119 0
-1104 -1120 0
-1104 -1121 0
-1104 -1122 0
-1104 -1123 0
-1104 -1124 0
-1104 -1125 0
-1104 -1126 0
-1104 -1127 0
-1104 -1128 0
-1104 -1129 0
-1104 -1130 0
-1104 -1131 0
-1104 -1132 0
-1104 -1133 0
-1104 -1134 0
-1104 -1135 0
-1104 -1136 0
-1104 -1137 0
-1104 -1138 0
-1104 -1139 0
-1104 -1140 0
-1104 -1141 0
-1104 -1142 0
-1104 -1143 0
-1104 -1144 0
-1104 -1145 0
-1104 -1146 0
-1104 -1147 0
-1104 -1148 0
-1104 -1149 0
-1104 -1150 0
-1104 -1151 0
-1104 -1152 0
-1104 -1153 0
-1104 -1154 0
-1104 -1155 0
-1104 -1156 0
-1104 -1157 0
-1104 -1158 0
-1105 -1106 0
-1105 -1107 0
-1105 -1108 0
-1105 -1109 0
-1105 -1110 0
-1105 -1111 0
-1105 -1112 0
-1105 -1113 0
-1105 -1114 0
-1105 -1115 0
-1105 -1116 0
-1105 -1117 0
-1105 -1118 0
-1105 -1119 0
-1105 -1120 0
-1105 -1121 0
-1105 -1122 0
-1105 -1123 0
-1105 -1124 0
-1105 -1125 0
-1105 -1126 0
-1105 -1127 0
-1105 -1128 0
-1105 -1129 0
-1105 -1130 0
-1105 -1131 0
-1105 -1132 0
-1105 -1133 0
-1105 -1134 0
-1105 -1135 0
-1105 -1136 0
-1105 -1137 0
-1105 -1138 0
-1105 -1139 0
-1105 -1140 0
-1105 -1141 0
-1105 -1142 0
-1105 -1143 0
-1105 -1144 0
-1105 -1145 0
-1105 -1146 0
-1105 -1147 0
-1105 -1148 0
-1105 -1149 0
-1105 -1150 0
-1105 -1151 0
-1105 -1152 0
-1105 -1153 0
-1105 -1154 0
-1105 -1155 0
-1105 -1156 0
-1105 -1157 0
-1105 -1158 0
-1106 -1107 0
-1106 -1108 0
-1106 -1109 0
-1106 -1110 0
-1106 -1111 0
-1106 -1112 0
-1106 -1113 0
-1106 -1114 0
-1106 -1115 0
-1106 -1116 0
-1106 -1117 0
-1106 -1118 0
-1106 -1119 0
-1106 -1120 0
-1106 -1121 0
-1106 -1122 0
-1106 -1123 0
-1106 -1124 0
-1106 -1125 0
-1106 -1126 0
-1106 -1127 0
-1106 -1128 0
-1106 -1129 0
-1106 -1130 0
-1106 -1131 0
-1106 -1132 0
-1106 -1133 0
-1106 -1134 0
-1106 -1135 0
-1106 -1136 0
-1106 -1137 0
-1106 -1138 0
-1106 -1139 0
-1106 -1140 0
-1106 -1141 0
-1106 -1142 0
-1106 -1143 0
-1106 -1144 0
-1106 -1145 0
-1106 -1146 0
-1106 -1147 0
-1106 -1148 0
-1106 -1149 0
-1106 -1150 0
-1106 -1151 0
-1106 -1152 0
-1106 -1153 0
-1106 -1154 0
-1106 -1155 0
-1106 -1156 0
-1106 -1157 0
-1106 -1158 0
-1107 -1108 0
-1107 -1109 0
-1107 -1110 0
-1107 -1111 0
-1107 -1112 0
-1107 -1113 0
-1107 -1114 0
-1107 -1115 0
-1107 -1116 0
-1107 -1117 0
-1107 -1118 0
-1107 -1119 0
-1107 -1120 0
-1107 -1121 0
-1107 -1122 0
-1107 -1123 0
-1107 -1124 0
-1107 -1125 0
-1107 -1126 0
-1107 -1127 0
-1107 -1128 0
-1107 -1129 0
-1107 -1130 0
-1107 -1131 0
-1107 -1132 0
-1107 -1133 0
-1107 -1134 0
-1107 -1135 0
-1107 -1136 0
-1107 -1137 0
-1107 -1138 0
-1107 -1139 0
-1107 -1140 0
-1107 -1141 0
-1107 -1142 0
-1107 -1143 0
-1107 -1144 0
-1107 -1145 0
-1107 -1146 0
-1107 -1147 0
-1107 -1148 0
-1107 -1149 0
-1107 -1150 0
-1107 -1151 0
-1107 -1152 0
-1107 -1153 0
-1107 -1154 0
-1107 -1155 0
-1107 -1156 0
-1107 -1157 0
-1107 -1158 0
-1108 -1109 0
-1108 -1110 0
-1108 -1111 0
-1108 -1112 0
-1108 -1113 0
-1108 -1114 0
-1108 -1115 0
-1108 -1116 0
-1108 -1117 0
-1108 -1118 0
-1108 -1119 0
-1108 -1120 0
-1108 -1121 0
-1108 -1122 0
-1108 -1123 0
-1108 -1124 0
-1108 -1125 0
-1108 -1126 0
-1108 -1127 0
-1108 -1128 0
-1108 -1129 0
-1108 -1130 0
-1108 -1131 0
-1108 -1132 0
-1108 -1133 0
-1108 -1134 0
-1108 -1135 0
-1108 -1136 0
-1108 -1137 0
-1108 -1138 0
-1108 -1139 0
-1108 -1140 0
-1108 -1141 0
-1108 -1142 0
-1108 -1143 0
-1108 -1144 0
-1108 -1145 0
-1108 -1146 0
-1108 -1147 0
-1108 -1148 0
-1108 -1149 0
-1108 -1150 0
-1108 -1151 0
-1108 -1152 0
-1108 -1153 0
-1108 -1154 0
-1108 -1155 0
-1108 -1156 0
-1108 -1157 0
-1108 -1158 0
-1109 -1110 0
-1109 -1111 0
-1109 -1112 0
-1109 -1113 0
-1109 -1114 0
-1109 -1115 0
-1109 -1116 0
-1109 -1117 0
-1109 -1118 0
-1109 -1119 0
-1109 -1120 0
-1109 -1121 0
-1109 -1122 0
-1109 -1123 0
-1109 -1124 0
-1109 -1125 0
-1109 -1126 0
-1109 -1127 0
-1109 -1128 0
-1109 -1129 0
-1109 -1130 0
-1109 -1131 0
-1109 -1132 0
-1109 -1133 0
-1109 -1134 0
-1109 -1135 0
-1109 -1136 0
-1109 -1137 0
-1109 -1138 0
-1109 -1139 0
-1109 -1140 0
-1109 -1141 0
-1109 -1142 0
-1109 -1143 0
-1109 -1144 0
-1109 -1145 0
-1109 -1146 0
-1109 -1147 0
-1109 -1148 0
-1109 -1149 0
-1109 -1150 0
-1109 -1151 0
-1109 -1152 0
-1109 -1153 0
-1109 -1154 0
-1109 -1155 0
-1109 -1156 0
-1109 -1157 0
-1109 -1158 0
-1110 -1111 0
-1110 -1112 0
-1110 -1113 0
-1110 -1114 0
-1110 -1115 0
-1110 -1116 0
-1110 -1117 0
-1110 -1118 0
-1110 -1119 0
-1110 -1120 0
-1110 -1121 0
-1110 -1122 0
-1110 -1123 0
-1110 -1124 0
-1110 -1125 0
-1110 -1126 0
-1110 -1127 0
-1110 -1128 0
-1110 -1129 0
-1110 -1130 0
-1110 -1131 0
-1110 -1132 0
-1110 -1133 0
-1110 -1134 0
-1110 -1135 0
-1110 -1136 0
-1110 -1137 0
-1110 -1138 0
-1110 -1139 0
-1110 -1140 0
-1110 -1141 0
-1110 -1142 0
-1110 -1143 0
-1110 -1144 0
-1110 -1145 0
-1110 -1146 0
-1110 -1147 0
-1110 -1148 0
-1110 -1149 0
-1110 -1150 0
-1110 -1151 0
-1110 -1152 0
-1110 -1153 0
-1110 -1154 0
-1110 -1155 0
-1110 -1156 0
-1110 -1157 0
-1110 -1158 0
-1111 -1112 0
-1111 -1113 0
-1111 -1114 0
-1111 -1115 0
-1111 -1116 0
-1111 -1117 0
-1111 -1118 0
-1111 -1119 0
-1111 -1120 0
-1111 -1121 0
-1111 -1122 0
-1111 -1123 0
-1111 -1124 0
-1111 -1125 0
-1111 -1126 0
-1111 -1127 0
-1111 -1128 0
-1111 -1129 0
-1111 -1130 0
-1111 -1131 0
-1111 -1132 0
-1111 -1133 0
-1111 -1134 0
-1111 -1135 0
-1111 -1136 0
-1111 -1137 0
-1111 -1138 0
-1111 -1139 0
-1111 -1140 0
-1111 -1141 0
-1111 -1142 0
-1111 -1143 0
-1111 -1144 0
-1111 -1145 0
-1111 -1146 0
-1111 -1147 0
-1111 -1148 0
-1111 -1149 0
-1111 -1150 0
-1111 -1151 0
-1111 -1152 0
-1111 -1153 0
-1111 -1154 0
-1111 -1155 0
-1111 -1156 0
-1111 -1157 0
-1111 -1158 0
-1112 -1113 0
-1112 -1114 0
-1112 -1115 0
-1112 -1116 0
-1112 -1117 0
-1112 -1118 0
-1112 -1119 0
-1112 -1120 0
-1112 -1121 0
-1112 -1122 0
-1112 -1123 0
-1112 -1124 0
-1112 -1125 0
-1112 -1126 0
-1112 -1127 0
-1112 -1128 0
-1112 -1129 0
-1112 -1130 0
-1112 -1131 0
-1112 -1132 0
-1112 -1133 0
-1112 -1134 0
-1112 -1135 0
-1112 -1136 0
-1112 -1137 0
-1112 -1138 0
-1112 -1139 0
-1112 -1140 0
-1112 -1141 0
-1112 -1142 0
-1112 -1143 0
-1112 -1144 0
-1112 -1145 0
-1112 -1146 0
-1112 -1147 0
-1112 -1148 0
-1112 -1149 0
-1112 -1150 0
-1112 -1151 0
-1112 -1152 0
-1112 -1153 0
-1112 -1154 0
-1112 -1155 0
-1112 -1156 0
-1112 -1157 0
-1112 -1158 0
-1113 -1114 0
-1113 -1115 0
-1113 -1116 0
-1113 -1117 0
-1113 -1118 0
-1113 -1119 0
-1113 -1120 0
-1113 -1121 0
-1113 -1122 0
-1113 -1123 0
-1113 -1124 0
-1113 -1125 0
-1113 -1126 0
-1113 -1127 0
-1113 -1128 0
-1113 -1129 0
-1113 -1130 0
-1113 -1131 0
-1113 -1132 0
-1113 -1133 0
-1113 -1134 0
-1113 -1135 0
-1113 -1136 0
-1113 -1137 0
-1113 -1138 0
-1113 -1139 0
-1113 -1140 0
-1113 -1141 0
-1113 -1142 0
-1113 -1143 0
-1113 -1144 0
-1113 -1145 0
-1113 -1146 0
-1113 -1147 0
-1113 -1148 0
-1113 -1149 0
-1113 -1150 0
-1113 -1151 0
-1113 -1152 0
-1113 -1153 0
-1113 -1154 0
-1113 -1155 0
-1113 -1156 0
-1113 -1157 0
-1113 -1158 0
-1114 -1115 0
-1114 -1116 0
-1114 -1117 0
-1114 -1118 0
-1114 -1119 0
-1114 -1120 0
-1114 -1121 0
-1114 -1122 0
-1114 -1123 0
-1114 -1124 0
-1114 -1125 0
-1114 -1126 0
-1114 -1127 0
-1114 -1128 0
-1114 -1129 0
-1114 -1130 0
-1114 -1131 0
-1114 -1132 0
-1114 -1133 0
-1114 -1134 0
-1114 -1135 0
-1114 -1136 0
-1114 -1137 0
-1114 -1138 0
-1114 -1139 0
-1114 -1140 0
-1114 -1141 0
-1114 -1142 0
-1114 -1143 0
-1114 -1144 0
-1114 -1145 0
-1114 -1146 0
-1114 -1147 0
-1114 -1148 0
-1114 -1149 0
-1114 -1150 0
-1114 -1151 0
-1114 -1152 0
-1114 -1153 0
-1114 -1154 0
-1114 -1155 0
-1114 -1156 0
-1114 -1157 0
-1114 -1158 0
-1115 -1116 0
-1115 -1117 0
-1115 -1118 0
-1115 -1119 0
-1115 -1120 0
-1115 -1121 0
-1115 -1122 0
-1115 -1123 0
-1115 -1124 0
-1115 -1125 0
-1115 -1126 0
-1115 -1127 0
-1115 -1128 0
-1115 -1129 0
-1115 -1130 0
-1115 -1131 0
-1115 -1132 0
-1115 -1133 0
-1115 -1134 0
-1115 -1135 0
-1115 -1136 0
-1115 -1137 0
-1115 -1138 0
-1115 -1139 0
-1115 -1140 0
-1115 -1141 0
-1115 -1142 0
-1115 -1143 0
-1115 -1144 0
-1115 -1145 0
-1115 -1146 0
-1115 -1147 0
-1115 -1148 0
-1115 -1149 0
-1115 -1150 0
-1115 -1151 0
-1115 -1152 0
-1115 -1153 0
-1115 -1154 0
-1115 -1155 0
-1115 -1156 0
-1115 -1157 0
-1115 -1158 0
-1116 -1117 0
-1116 -1118 0
-1116 -1119 0
-1116 -1120 0
-1116 -1121 0
-1116 -1122 0
-1116 -1123 0
-1116 -1124 0
-1116 -1125 0
-1116 -1126 0
-1116 -1127 0
-1116 -1128 0
-1116 -1129 0
-1116 -1130 0
-1116 -1131 0
-1116 -1132 0
-1116 -1133 0
-1116 -1134 0
-1116 -1135 0
-1116 -1136 0
-1116 -1137 0
-1116 -1138 0
-1116 -1139 0
-1116 -1140 0
-1116 -1141 0
-1116 -1142 0
-1116 -1143 0
-1116 -1144 0
-1116 -1145 0
-1116 -1146 0
-1116 -1147 0
-1116 -1148 0
-1116 -1149 0
-1116 -1150 0
-1116 -1151 0
-1116 -1152 0
-1116 -1153 0
-1116 -1154 0
-1116 -1155 0
-1116 -1156 0
-1116 -1157 0
-1116 -1158 0
-1117 -1118 0
-1117 -1119 0
-1117 -1120 0
-1117 -1121 0
-1117 -1122 0
-1117 -1123 0
-1117 -1124 0
-1117 -1125 0
-1117 -1126 0
-1117 -1127 0
-1117 -1128 0
-1117 -1129 0
-1117 -1130 0
-1117 -1131 0
-1117 -1132 0
-1117 -1133 0
-1117 -1134 0
-1117 -1135 0
-1117 -1136 0
-1117 -1137 0
-1117 -1138 0
-1117 -1139 0
-1117 -1140 0
-1117 -1141 0
-1117 -1142 0
-1117 -1143 0
-1117 -1144 0
-1117 -1145 0
-1117 -1146 0
-1117 -1147 0
-1117 -1148 0
-1117 -1149 0
-1117 -1150 0
-1117 -1151 0
-1117 -1152 0
-1117 -1153 0
-1117 -1154 0
-1117 -1155 0
-1117 -1156 0
-1117 -1157 0
-1117 -1158 0
-1118 -1119 0
-1118 -1120 0
-1118 -1121 0
-1118 -1122 0
-1118 -1123 0
-1118 -1124 0
-1118 -1125 0
-1118 -1126 0
-1118 -1127 0
-1118 -1128 0
-1118 -1129 0
-1118 -1130 0
-1118 -1131 0
-1118 -1132 0
-1118 -1133 0
-1118 -1134 0
-1118 -1135 0
-1118 -1136 0
-1118 -1137 0
-1118 -1138 0
-1118 -1139 0
-1118 -1140 0
-1118 -1141 0
-1118 -1142 0
-1118 -1143 0
-1118 -1144 0
-1118 -1145 0
-1118 -1146 0
-1118 -1147 0
-1118 -1148 0
-1118 -1149 0
-1118 -1150 0
-1118 -1151 0
-1118 -1152 0
-1118 -1153 0
-1118 -1154 0
-1118 -1155 0
-1118 -1156 0
-1118 -1157 0
-1118 -1158 0
-1119 -1120 0
-1119 -1121 0
-1119 -1122 0
-1119 -1123 0
-1119 -1124 0
-1119 -1125 0
-1119 -1126 0
-1119 -1127 0
-1119 -1128 0
-1119 -1129 0
-1119 -1130 0
-1119 -1131 0
-1119 -1132 0
-1119 -1133 0
-1119 -1134 0
-1119 -1135 0
-1119 -1136 0
-1119 -1137 0
-1119 -1138 0
-1119 -1139 0
-1119 -1140 0
-1119 -1141 0
-1119 -1142 0
-1119 -1143 0
-1119 -1144 0
-1119 -1145 0
-1119 -1146 0
-1119 -1147 0
-1119 -1148 0
-1119 -1149 0
-1119 -1150 0
-1119 -1151 0
-1119 -1152 0
-1119 -1153 0
-1119 -1154 0
-1119 -1155 0
-1119 -1156 0
-1119 -1157 0
-1119 -1158 0
-1120 -1121 0
-1120 -1122 0
-1120 -1123 0
-1120 -1124 0
-1120 -1125 0
-1120 -1126 0
-1120 -1127 0
-1120 -1128 0
-1120 -1129 0
-1120 -1130 0
-1120 -1131 0
-1120 -1132 0
-1120 -1133 0
-1120 -1134 0
-1120 -1135 0
-1120 -1136 0
-1120 -1137 0
-1120 -1138 0
-1120 -1139 0
-1120 -1140 0
-1120 -1141 0
-1120 -1142 0
-1120 -1143 0
-1120 -1144 0
-1120 -1145 0
-1120 -1146 0
-1120 -1147 0
-1120 -1148 0
-1120 -1149 0
-1120 -1150 0
-1120 -1151 0
-1120 -1152 0
-1120 -1153 0
-1120 -1154 0
-1120 -1155 0
-1120 -1156 0
-1120 -1157 0
-1120 -1158 0
-1121 -1122 0
-1121 -1123 0
-1121 -1124 0
-1121 -1125 0
-1121 -1126 0
-1121 -1127 0
-1121 -1128 0
-1121 -1129 0
-1121 -1130 0
-1121 -1131 0
-1121 -1132 0
-1121 -1133 0
-1121 -1134 0
-1121 -1135 0
-1121 -1136 0
-1121 -1137 0
-1121 -1138 0
-1121 -1139 0
-1121 -1140 0
-1121 -1141 0
-1121 -1142 0
-1121 -1143 0
-1121 -1144 0
-1121 -1145 0
-1121 -1146 0
-1121 -1147 0
-1121 -1148 0
-1121 -1149 0
-1121 -1150 0
-1121 -1151 0
-1121 -1152 0
-1121 -1153 0
-1121 -1154 0
-1121 -1155 0
-1121 -1156 0
-1121 -1157 0
-1121 -1158 0
-1122 -1123 0
-1122 -1124 0
-1122 -1125 0
-1122 -1126 0
-1122 -1127 0
-1122 -1128 0
-1122 -1129 0
-1122 -1130 0
-1122 -1131 0
-1122 -1132 0
-1122 -1133 0
-1122 -1134 0
-1122 -1135 0
-1122 -1136 0
-1122 -1137 0
-1122 -1138 0
-1122 -1139 0
-1122 -1140 0
-1122 -1141 0
-1122 -1142 0
-1122 -1143 0
-1122 -1144 0
-1122 -1145 0
-1122 -1146 0
-1122 -1147 0
-1122 -1148 0
-1122 -1149 0
-1122 -1150 0
-1122 -1151 0
-1122 -1152 0
-1122 -1153 0
-1122 -1154 0
-1122 -1155 0
-1122 -1156 0
-1122 -1157 0
-1122 -1158 0
-1123 -1124 0
-1123 -1125 0
-1123 -1126 0
-1123 -1127 0
-1123 -1128 0
-1123 -1129 0
-1123 -1130 0
-1123 -1131 0
-1123 -1132 0
-1123 -1133 0
-1123 -1134 0
-1123 -1135 0
-1123 -1136 0
-1123 -1137 0
-1123 -1138 0
-1123 -1139 0
-1123 -1140 0
-1123 -1141 0
-1123 -1142 0
-1123 -1143 0
-1123 -1144 0
-1123 -1145 0
-1123 -1146 0
-1123 -1147 0
-1123 -1148 0
-1123 -1149 0
-1123 -1150 0
-1123 -1151 0
-1123 -1152 0
-1123 -1153 0
-1123 -1154 0
-1123 -1155 0
-1123 -1156 0
-1123 -1157 0
-1123 -1158 0
-1124 -1125 0
-1124 -1126 0
-1124 -1127 0
-1124 -1128 0
-1124 -1129 0
-1124 -1130 0
-1124 -1131 0
-1124 -1132 0
-1124 -1133 0
-1124 -1134 0
-1124 -1135 0
-1124 -1136 0
-1124 -1137 0
-1124 -1138 0
-1124 -1139 0
-1124 -1140 0
-1124 -1141 0
-1124 -1142 0
-1124 -1143 0
-1124 -1144 0
-1124 -1145 0
-1124 -1146 0
-1124 -1147 0
-1124 -1148 0
-1124 -1149 0
-1124 -1150 0
-1124 -1151 0
-1124 -1152 0
-1124 -1153 0
-1124 -1154 0
-1124 -1155 0
-1124 -1156 0
-1124 -1157 0
-1124 -1158 0
-1125 -1126 0
-1125 -1127 0
-1125 -1128 0
-1125 -1129 0
-1125 -1130 0
-1125 -1131 0
-1125 -1132 0
-1125 -1133 0
-1125 -1134 0
-1125 -1135 0
-1125 -1136 0
-1125 -1137 0
-1125 -1138 0
-1125 -1139 0
-1125 -1140 0
-1125 -1141 0
-1125 -1142 0
-1125 -1143 0
-1125 -1144 0
-1125 -1145 0
-1125 -1146 0
-1125 -1147 0
-1125 -1148 0
-1125 -1149 0
-1125 -1150 0
-1125 -1151 0
-1125 -1152 0
-1125 -1153 0
-1125 -1154 0
-1125 -1155 0
-1125 -1156 0
-1125 -1157 0
-1125 -1158 0
-1126 -1127 0
-1126 -1128 0
-1126 -1129 0
-1126 -1130 0
-1126 -1131 0
-1126 -1132 0
-1126 -1133 0
-1126 -1134 0
-1126 -1135 0
-1126 -1136 0
-1126 -1137 0
-1126 -1138 0
-1126 -1139 0
-1126 -1140 0
-1126 -1141 0
-1126 -1142 0
-1126 -1143 0
-1126 -1144 0
-1126 -1145 0
-1126 -1146 0
-1126 -1147 0
-1126 -1148 0
-1126 -1149 0
-1126 -1150 0
-1126 -1151 0
-1126 -1152 0
-1126 -1153 0
-1126 -1154 0
-1126 -1155 0
-1126 -1156 0
-1126 -1157 0
-1126 -1158 0
-1127 -1128 0
-1127 -1129 0
-1127 -1130 0
-1127 -1131 0
-1127 -1132 0
-1127 -1133 0
-1127 -1134 0
-1127 -1135 0
-1127 -1136 0
-1127 -1137 0
-1127 -1138 0
-1127 -1139 0
-1127 -1140 0
-1127 -1141 0
-1127 -1142 0
-1127 -1143 0
-1127 -1144 0
-1127 -1145 0
-1127 -1146 0
-1127 -1147 0
-1127 -1148 0
-1127 -1149 0
-1127 -1150 0
-1127 -1151 0
-1127 -1152 0
-1127 -1153 0
-1127 -1154 0
-1127 -1155 0
-1127 -1156 0
-1127 -1157 0
-1127 -1158 0
-1128 -1129 0
-1128 -1130 0
-1128 -1131 0
-1128 -1132 0
-1128 -1133 0
-1128 -1134 0
-1128 -1135 0
-1128 -1136 0
-1128 -1137 0
-1128 -1138 0
-1128 -1139 0
-1128 -1140 0
-1128 -1141 0
-1128 -1142 0
-1128 -1143 0
-1128 -1144 0
-1128 -1145 0
-1128 -1146 0
-1128 -1147 0
-1128 -1148 0
-1128 -1149 0
-1128 -1150 0
-1128 -1151 0
-1128 -1152 0
-1128 -1153 0
-1128 -1154 0
-1128 -1155 0
-1128 -1156 0
-1128 -1157 0
-1128 -1158 0
-1129 -1130 0
-1129 -1131 0
-1129 -1132 0
-1129 -1133 0
-1129 -1134 0
-1129 -1135 0
-1129 -1136 0
-1129 -1137 0
-1129 -1138 0
-1129 -1139 0
-1129 -1140 0
-1129 -1141 0
-1129 -1142 0
-1129 -1143 0
-1129 -1144 0
-1129 -1145 0
-1129 -1146 0
-1129 -1147 0
-1129 -1148 0
-1129 -1149 0
-1129 -1150 0
-1129 -1151 0
-1129 -1152 0
-1129 -1153 0
-1129 -1154 0
-1129 -1155 0
-1129 -1156 0
-1129 -1157 0
-1129 -1158 0
-1130 -1131 0
-1130 -1132 0
-1130 -1133 0
-1130 -1134 0
-1130 -1135 0
-1130 -1136 0
-1130 -1137 0
-1130 -1138 0
-1130 -1139 0
-1130 -1140 0
-1130 -1141 0
-1130 -1142 0
-1130 -1143 0
-1130 -1144 0
-1130 -1145 0
-1130 -1146 0
-1130 -1147 0
-1130 -1148 0
-1130 -1149 0
-1130 -1150 0
-1130 -1151 0
-1130 -1152 0
-1130 -1153 0
-1130 -1154 0
-1130 -1155 0
-1130 -1156 0
-1130 -1157 0
-1130 -1158 0
-1131 -1132 0
-1131 -1133 0
-1131 -1134 0
-1131 -1135 0
-1131 -1136 0
-1131 -1137 0
-1131 -1138 0
-1131 -1139 0
-1131 -1140 0
-1131 -1141 0
-1131 -1142 0
-1131 -1143 0
-1131 -1144 0
-1131 -1145 0
-1131 -1146 0
-1131 -1147 0
-1131 -1148 0
-1131 -1149 0
-1131 -1150 0
-1131 -1151 0
-1131 -1152 0
-1131 -1153 0
-1131 -1154 0
-1131 -1155 0
-1131 -1156 0
-1131 -1157 0
-1131 -1158 0
-1132 -1133 0
-1132 -1134 0
-1132 -1135 0
-1132 -1136 0
-1132 -1137 0
-1132 -1138 0
-1132 -1139 0
-1132 -1140 0
-1132 -1141 0
-1132 -1142 0
-1132 -1143 0
-1132 -1144 0
-1132 -1145 0
-1132 -1146 0
-1132 -1147 0
-1132 -1148 0
-1132 -1149 0
-1132 -1150 0
-1132 -1151 0
-1132 -1152 0
-1132 -1153 0
-1132 -1154 0
-1132 -1155 0
-1132 -1156 0
-1132 -1157 0
-1132 -1158 0
-1133 -1134 0
-1133 -1135 0
-1133 -1136 0
-1133 -1137 0
-1133 -1138 0
-1133 -1139 0
-1133 -1140 0
-1133 -1141 0
-1133 -1142 0
-1133 -1143 0
-1133 -1144 0
-1133 -1145 0
-1133 -1146 0
-1133 -1147 0
-1133 -1148 0
-1133 -1149 0
-1133 -1150 0
-1133 -1151 0
-1133 -1152 0
-1133 -1153 0
-1133 -1154 0
-1133 -1155 0
-1133 -1156 0
-1133 -1157 0
-1133 -1158 0
-1134 -1135 0
-1134 -1136 0
-1134 -1137 0
-1134 -1138 0
-1134 -1139 0
-1134 -1140 0
-1134 -1141 0
-1134 -1142 0
-1134 -1143 0
-1134 -1144 0
-1134 -1145 0
-1134 -1146 0
-1134 -1147 0
-1134 -1148 0
-1134 -1149 0
-1134 -1150 0
-1134 -1151 0
-1134 -1152 0
-1134 -1153 0
-1134 -1154 0
-1134 -1155 0
-1134 -1156 0
-1134 -1157 0
-1134 -1158 0
-1135 -1136 0
-1135 -1137 0
-1135 -1138 0
-1135 -1139 0
-1135 -1140 0
-1135 -1141 0
-1135 -1142 0
-1135 -1143 0
-1135 -1144 0
-1135 -1145 0
-1135 -1146 0
-1135 -1147 0
-1135 -1148 0
-1135 -1149 0
-1135 -1150 0
-1135 -1151 0
-1135 -1152 0
-1135 -1153 0
-1135 -1154 0
-1135 -1155 0
-1135 -1156 0
-1135 -1157 0
-1135 -1158 0
-1136 -1137 0
-1136 -1138 0
-1136 -1139 0
-1136 -1140 0
-1136 -1141 0
-1136 -1142 0
-1136 -1143 0
-1136 -1144 0
-1136 -1145 0
-1136 -1146 0
-1136 -1147 0
-1136 -1148 0
-1136 -1149 0
-1136 -1150 0
-1136 -1151 0
-1136 -1152 0
-1136 -1153 0
-1136 -1154 0
-1136 -1155 0
-1136 -1156 0
-1136 -1157 0
-1136 -1158 0
-1137 -1138 0
-1137 -1139 0
-1137 -1140 0
-1137 -1141 0
-1137 -1142 0
-1137 -1143 0
-1137 -1144 0
-1137 -1145 0
-1137 -1146 0
-1137 -1147 0
-1137 -1148 0
-1137 -1149 0
-1137 -1150 0
-1137 -1151 0
-1137 -1152 0
-1137 -1153 0
-1137 -1154 0
-1137 -1155 0
-1137 -1156 0
-1137 -1157 0
-1137 -1158 0
-1138 -1139 0
-1138 -1140 0
-1138 -1141 0
-1138 -1142 0
-1138 -1143 0
-1138 -1144 0
-1138 -1145 0
-1138 -1146 0
-1138 -1147 0
-1138 -1148 0
-1138 -1149 0
-1138 -1150 0
-1138 -1151 0
-1138 -1152 0
-1138 -1153 0
-1138 -1154 0
-1138 -1155 0
-1138 -1156 0
-1138 -1157 0
-1138 -1158 0
-1139 -1140 0
-1139 -1141 0
-1139 -1142 0
-1139 -1143 0
-1139 -1144 0
-1139 -1145 0
-1139 -1146 0
-1139 -1147 0
-1139 -1148 0
-1139 -1149 0
-1139 -1150 0
-1139 -1151 0
-1139 -1152 0
-1139 -1153 0
-1139 -1154 0
-1139 -1155 0
-1139 -1156 0
-1139 -1157 0
-1139 -1158 0
-1140 -1141 0
-1140 -1142 0
-1140 -1143 0
-1140 -1144 0
-1140 -1145 0
-1140 -1146 0
-1140 -1147 0
-1140 -1148 0
-1140 -1149 0
-1140 -1150 0
-1140 -1151 0
-1140 -1152 0
-1140 -1153 0
-1140 -1154 0
-1140 -1155 0
-1140 -1156 0
-1140 -1157 0
-1140 -1158 0
-1141 -1142 0
-1141 -1143 0
-1141 -1144 0
-1141 -1145 0
-1141 -1146 0
-1141 -1147 0
-1141 -1148 0
-1141 -1149 0
-1141 -1150 0
-1141 -1151 0
-1141 -1152 0
-1141 -1153 0
-1141 -1154 0
-1141 -1155 0
-1141 -1156 0
-1141 -1157 0
-1141 -1158 0
-1142 -1143 0
-1142 -1144 0
-1142 -1145 0
-1142 -1146 0
-1142 -1147 0
-1142 -1148 0
-1142 -1149 0
-1142 -1150 0
-1142 -1151 0
-1142 -1152 0
-1142 -1153 0
-1142 -1154 0
-1142 -1155 0
-1142 -1156 0
-1142 -1157 0
-1142 -1158 0
-1143 -1144 0
-1143 -1145 0
-1143 -1146 0
-1143 -1147 0
-1143 -1148 0
-1143 -1149 0
-1143 -1150 0
-1143 -1151 0
-1143 -1152 0
-1143 -1153 0
-1143 -1154 0
-1143 -1155 0
-1143 -1156 0
-1143 -1157 0
-1143 -1158 0
-1144 -1145 0
-1144 -1146 0
-1144 -1147 0
-1144 -1148 0
-1144 -1149 0
-1144 -1150 0
-1144 -1151 0
-1144 -1152 0
-1144 -1153 0
-1144 -1154 0
-1144 -1155 0
-1144 -1156 0
-1144 -1157 0
-1144 -1158 0
-1145 -1146 0
-1145 -1147 0
-1145 -1148 0
-1145 -1149 0
-1145 -1150 0
-1145 -1151 0
-1145 -1152 0
-1145 -1153 0
-1145 -1154 0
-1145 -1155 0
-1145 -1156 0
-1145 -1157 0
-1145 -1158 0
-1146 -1147 0
-1146 -1148 0
-1146 -1149 0
-1146 -1150 0
-1146 -1151 0
-1146 -1152 0
-1146 -1153 0
-1146 -1154 0
-1146 -1155 0
-1146 -1156 0
-1146 -1157 0
-1146 -1158 0
-1147 -1148 0
-1147 -1149 0
-1147 -1150 0
-1147 -1151 0
-1147 -1152 0
-1147 -1153 0
-1147 -1154 0
-1147 -1155 0
-1147 -1156 0
-1147 -1157 0
-1147 -1158 0
-1148 -1149 0
-1148 -1150 0
-1148 -1151 0
-1148 -1152 0
-1148 -1153 0
-1148 -1154 0
-1148 -1155 0
-1148 -1156 0
-1148 -1157 0
-1148 -1158 0
-1149 -1150 0
-1149 -1151 0
-1149 -1152 0
-1149 -1153 0
-1149 -1154 0
-1149 -1155 0
-1149 -1156 0
-1149 -1157 0
-1149 -1158 0
-1150 -1151 0
-1150 -1152 0
-1150 -1153 0
-1150 -1154 0
-1150 -1155 0
-1150 -1156 0
-1150 -1157 0
-1150 -1158 0
-1151 -1152 0
-1151 -1153 0
-1151 -1154 0
-1151 -1155 0
-1151 -1156 0
-1151 -1157 0
-1151 -1158 0
-1152 -1153 0
-1152 -1154 0
-1152 -1155 0
-1152 -1156 0
-1152 -1157 0
-1152 -1158 0
-1153 -1154 0
-1153 -1155 0
-1153 -1156 0
-1153 -1157 0
-1153 -1158 0
-1154 -1155 0
-1154 -1156 0
-1154 -1157 0
-1154 -1158 0
-1155 -1156 0
-1155 -1157 0
-1155 -1158 0
-1156 -1157 0
-1156 -1158 0
-1157 -1158 0
-1159 239 0
-1159 -85 -195 -192 0
-1159 -85 -196 -193 0
-1159 -85 -197 -194 0
-1159 91 0
-1159 -91 -195 1351 637 0
-1159 -91 -196 1351 643 0
-1159 -91 -197 1351 649 0
-1159 -195 -661 0
-1159 -195 -685 0
-1159 -195 -709 0
-1159 -195 -667 0
-1159 -195 -691 0
-1159 -195 -715 0
-1159 -195 -673 0
-1159 -195 -697 0
-1159 -195 -721 0
-1159 -196 -667 0
-1159 -196 -691 0
-1159 -196 -715 0
-1159 -196 -673 0
-1159 -196 -697 0
-1159 -196 -721 0
-1159 -197 -673 0
-1159 -197 -697 0
-1159 -197 -721 0
-1159 -198 0
-1159 106 0
-1159 -195 208 0
-1159 -196 209 0
-1159 -197 210 0
-1159 -244 0
-1160 239 0
-1160 -86 -195 -192 0
-1160 -86 -196 -193 0
-1160 -86 -197 -194 0
-1160 92 0
-1160 -92 -195 1352 638 0
-1160 -92 -196 1352 644 0
-1160 -92 -197 1352 650 0
-1160 -195 -662 0
-1160 -195 -686 0
-1160 -195 -710 0
-1160 -195 -668 0
-1160 -195 -692 0
-1160 -195 -716 0
-1160 -195 -674 0
-1160 -195 -698 0
-1160 -195 -722 0
-1160 -196 -668 0
-1160 -196 -692 0
-1160 -196 -716 0
-1160 -196 -674 0
-1160 -196 -698 0
-1160 -196 -722 0
-1160 -197 -674 0
-1160 -197 -698 0
-1160 -197 -722 0
-1160 -198 0
-1160 107 0
-1160 -195 208 0
-1160 -196 209 0
-1160 -197 210 0
-1160 -244 0
-1161 239 0
-1161 -87 -195 -192 0
-1161 -87 -196 -193 0
-1161 -87 -197 -194 0
-1161 93 0
-1161 -93 -195 1353 639 0
-1161 -93 -196 1353 645 0
-1161 -93 -197 1353 651 0
-1161 -195 -663 0
-1161 -195 -687 0
-1161 -195 -711 0
-1161 -195 -669 0
-1161 -195 -693 0
-1161 -195 -717 0
-1161 -195 -675 0
-1161 -195 -699 0
-1161 -195 -723 0
-1161 -196 -669 0
-1161 -196 -693 0
-1161 -196 -717 0
-1161 -196 -675 0
-1161 -196 -699 0
-1161 -196 -723 0
-1161 -197 -675 0
-1161 -197 -699 0
-1161 -197 -723 0
-1161 -198 0
-1161 108 0
-1161 -195 208 0
-1161 -196 209 0
-1161 -197 210 0
-1161 -244 0
-1162 239 0
-1162 -88 -195 -192 0
-1162 -88 -196 -193 0
-1162 -88 -197 -194 0
-1162 94 0
-1162 -94 -195 1354 640 0
-1162 -94 -196 1354 646 0
-1162 -94 -197 1354 652 0
-1162 -195 -664 0
-1162 -195 -688 0
-1162 -195 -712 0
-1162 -195 -670 0
-1162 -195 -694 0
-1162 -195 -718 0
-1162 -195 -676 0
-1162 -195 -700 0
-1162 -195 -724 0
-1162 -196 -670 0
-1162 -196 -694 0
-1162 -196 -718 0
-1162 -196 -676 0
-1162 -196 -700 0
-1162 -196 -724 0
-1162 -197 -676 0
-1162 -197 -700 0
-1162 -197 -724 0
-1162 -198 0
-1162 109 0
-1162 -195 208 0
-1162 -196 209 0
-1162 -197 210 0
-1162 -244 0
-1163 239 0
-1163 -89 -195 -192 0
-1163 -89 -196 -193 0
-1163 -89 -197 -194 0
-1163 95 0
-1163 -95 -195 1355 641 0
-1163 -95 -196 1355 647 0
-1163 -95 -197 1355 653 0
-1163 -195 -665 0
-1163 -195 -689 0
-1163 -195 -713 0
-1163 -195 -671 0
-1163 -195 -695 0
-1163 -195 -719 0
-1163 -195 -677 0
-1163 -195 -701 0
-1163 -195 -725 0
-1163 -196 -671 0
-1163 -196 -695 0
-1163 -196 -719 0
-1163 -196 -677 0
-1163 -196 -701 0
-1163 -196 -725 0
-1163 -197 -677 0
-1163 -197 -701 0
-1163 -197 -725 0
-1163 -198 0
-1163 110 0
-1163 -195 208 0
-1163 -196 209 0
-1163 -197 210 0
-1163 -244 0
-1164 239 0
-1164 -90 -195 -192 0
-1164 -90 -196 -193 0
-1164 -90 -197 -194 0
-1164 96 0
-1164 -96 -195 1356 642 0
-1164 -96 -196 1356 648 0
-1164 -96 -197 1356 654 0
-1164 -195 -666 0
-1164 -195 -690 0
-1164 -195 -714 0
-1164 -195 -672 0
-1164 -195 -696 0
-1164 -195 -720 0
-1164 -195 -678 0
-1164 -195 -702 0
-1164 -195 -726 0
-1164 -196 -672 0
-1164 -196 -696 0
-1164 -196 -720 0
-1164 -196 -678 0
-1164 -196 -702 0
-1164 -196 -726 0
-1164 -197 -678 0
-1164 -197 -702 0
-1164 -197 -726 0
-1164 -198 0
-1164 111 0
-1164 -195 208 0
-1164 -196 209 0
-1164 -197 210 0
-1164 -244 0
-1165 239 0
-1165 -85 -199 -192 0
-1165 -85 -200 -193 0
-1165 -85 -201 -194 0
-1165 97 0
-1165 -97 -199 1357 637 0
-1165 -97 -200 1357 643 0
-1165 -97 -201 1357 649 0
-1165 -199 -661 0
-1165 -199 -685 0
-1165 -199 -709 0
-1165 -199 -667 0
-1165 -199 -691 0
-1165 -199 -715 0
-1165 -199 -673 0
-1165 -199 -697 0
-1165 -199 -721 0
-1165 -200 -667 0
-1165 -200 -691 0
-1165 -200 -715 0
-1165 -200 -673 0
-1165 -200 -697 0
-1165 -200 -721 0
-1165 -201 -673 0
-1165 -201 -697 0
-1165 -201 -721 0
-1165 -202 0
-1165 106 0
-1165 -199 208 0
-1165 -200 209 0
-1165 -201 210 0
-1165 -245 0
-1166 239 0
-1166 -86 -199 -192 0
-1166 -86 -200 -193 0
-1166 -86 -201 -194 0
-1166 97 98 0
-1166 -97 -199 1358 638 0
-1166 -97 -200 1358 644 0
-1166 -97 -201 1358 650 0
-1166 -98 -199 1358 638 0
-1166 -98 -200 1358 644 0
-1166 -98 -201 1358 650 0
-1166 -199 -662 0
-1166 -199 -686 0
-1166 -199 -710 0
-1166 -199 -668 0
-1166 -199 -692 0
-1166 -199 -716 0
-1166 -199 -674 0
-1166 -199 -698 0
-1166 -199 -722 0
-1166 -200 -668 0
-1166 -200 -692 0
-1166 -200 -716 0
-1166 -200 -674 0
-1166 -200 -698 0
-1166 -200 -722 0
-1166 -201 -674 0
-1166 -201 -698 0
-1166 -201 -722 0
-1166 -202 0
-1166 107 0
-1166 -199 208 0
-1166 -200 209 0
-1166 -201 210 0
-1166 -245 0
-1167 239 0
-1167 -87 -199 -192 0
-1167 -87 -200 -193 0
-1167 -87 -201 -194 0
-1167 98 99 0
-1167 -98 -199 1359 639 0
-1167 -98 -200 1359 645 0
-1167 -98 -201 1359 651 0
-1167 -99 -199 1359 639 0
-1167 -99 -200 1359 645 0
-1167 -99 -201 1359 651 0
-1167 -199 -663 0
-1167 -199 -687 0
-1167 -199 -711 0
-1167 -199 -669 0
-1167 -199 -693 0
-1167 -199 -717 0
-1167 -199 -675 0
-1167 -199 -699 0
-1167 -199 -723 0
-1167 -200 -669 0
-1167 -200 -693 0
-1167 -200 -717 0
-1167 -200 -675 0
-1167 -200 -699 0
-1167 -200 -723 0
-1167 -201 -675 0
-1167 -201 -699 0
-1167 -201 -723 0
-1167 -202 0
-1167 108 0
-1167 -199 208 0
-1167 -200 209 0
-1167 -201 210 0
-1167 -245 0
-1168 239 0
-1168 -88 -199 -192 0
-1168 -88 -200 -193 0
-1168 -88 -201 -194 0
-1168 99 100 0
-1168 -99 -199 1360 640 0
-1168 -99 -200 1360 646 0
-1168 -99 -201 1360 652 0
-1168 -100 -199 1360 640 0
-1168 -100 -200 1360 646 0
-1168 -100 -201 1360 652 0
-1168 -199 -664 0
-1168 -199 -688 0
-1168 -199 -712 0
-1168 -199 -670 0
-1168 -199 -694 0
-1168 -199 -718 0
-1168 -199 -676 0
-1168 -199 -700 0
-1168 -199 -724 0
-1168 -200 -670 0
-1168 -200 -694 0
-1168 -200 -718 0
-1168 -200 -676 0
-1168 -200 -700 0
-1168 -200 -724 0
-1168 -201 -676 0
-1168 -201 -700 0
-1168 -201 -724 0
-1168 -202 0
-1168 109 0
-1168 -199 208 0
-1168 -200 209 0
-1168 -201 210 0
-1168 -245 0
-1169 239 0
-1169 -89 -199 -192 0
-1169 -89 -200 -193 0
-1169 -89 -201 -194 0
-1169 100 101 0
-1169 -100 -199 1361 641 0
-1169 -100 -200 1361 647 0
-1169 -100 -201 1361 653 0
-1169 -101 -199 1361 641 0
-1169 -101 -200 1361 647 0
-1169 -101 -201 1361 653 0
-1169 -199 -665 0
-1169 -199 -689 0
-1169 -199 -713 0
-1169 -199 -671 0
-1169 -199 -695 0
-1169 -199 -719 0
-1169 -199 -677 0
-1169 -199 -701 0
-1169 -199 -725 0
-1169 -200 -671 0
-1169 -200 -695 0
-1169 -200 -719 0
-1169 -200 -677 0
-1169 -200 -701 0
-1169 -200 -725 0
-1169 -201 -677 0
-1169 -201 -701 0
-1169 -201 -725 0
-1169 -202 0
-1169 110 0
-1169 -199 208 0
-1169 -200 209 0
-1169 -201 210 0
-1169 -245 0
-1170 239 0
-1170 -90 -199 -192 0
-1170 -90 -200 -193 0
-1170 -90 -201 -194 0
-1170 101 0
-1170 -101 -199 1362 642 0
-1170 -101 -200 1362 648 0
-1170 -101 -201 1362 654 0
-1170 -199 -666 0
-1170 -199 -690 0
-1170 -199 -714 0
-1170 -199 -672 0
-1170 -199 -696 0
-1170 -199 -720 0
-1170 -199 -678 0
-1170 -199 -702 0
-1170 -199 -726 0
-1170 -200 -672 0
-1170 -200 -696 0
-1170 -200 -720 0
-1170 -200 -678 0
-1170 -200 -702 0
-1170 -200 -726 0
-1170 -201 -678 0
-1170 -201 -702 0
-1170 -201 -726 0
-1170 -202 0
-1170 111 0
-1170 -199 208 0
-1170 -200 209 0
-1170 -201 210 0
-1170 -245 0
-1171 239 0
-1171 -85 -203 -192 0
-1171 -85 -204 -193 0
-1171 -85 -205 -194 0
-1171 102 0
-1171 -102 -203 1363 637 0
-1171 -102 -204 1363 643 0
-1171 -102 -205 1363 649 0
-1171 -203 -661 0
-1171 -203 -685 0
-1171 -203 -709 0
-1171 -203 -667 0
-1171 -203 -691 0
-1171 -203 -715 0
-1171 -203 -673 0
-1171 -203 -697 0
-1171 -203 -721 0
-1171 -204 -667 0
-1171 -204 -691 0
-1171 -204 -715 0
-1171 -204 -673 0
-1171 -204 -697 0
-1171 -204 -721 0
-1171 -205 -673 0
-1171 -205 -697 0
-1171 -205 -721 0
-1171 -206 0
-1171 106 0
-1171 -203 208 0
-1171 -204 209 0
-1171 -205 210 0
-1171 -246 0
-1172 239 0
-1172 -86 -203 -192 0
-1172 -86 -204 -193 0
-1172 -86 -205 -194 0
-1172 102 103 0
-1172 -102 -203 1364 638 0
-1172 -102 -204 1364 644 0
-1172 -102 -205 1364 650 0
-1172 -103 -203 1364 638 0
-1172 -103 -204 1364 644 0
-1172 -103 -205 1364 650 0
-1172 -203 -662 0
-1172 -203 -686 0
-1172 -203 -710 0
-1172 -203 -668 0
-1172 -203 -692 0
-1172 -203 -716 0
-1172 -203 -674 0
-1172 -203 -698 0
-1172 -203 -722 0
-1172 -204 -668 0
-1172 -204 -692 0
-1172 -204 -716 0
-1172 -204 -674 0
-1172 -204 -698 0
-1172 -204 -722 0
-1172 -205 -674 0
-1172 -205 -698 0
-1172 -205 -722 0
-1172 -206 0
-1172 107 0
-1172 -203 208 0
-1172 -204 209 0
-1172 -205 210 0
-1172 -246 0
-1173 239 0
-1173 -87 -203 -192 0
-1173 -87 -204 -193 0
-1173 -87 -205 -194 0
-1173 102 103 104 0
-1173 -102 -203 1365 639 0
-1173 -102 -204 1365 645 0
-1173 -102 -205 1365 651 0
-1173 -103 -203 1365 639 0
-1173 -103 -204 1365 645 0
-1173 -103 -205 1365 651 0
-1173 -104 -203 1365 639 0
-1173 -104 -204 1365 645 0
-1173 -104 -205 1365 651 0
-1173 -203 -663 0
-1173 -203 -687 0
-1173 -203 -711 0
-1173 -203 -669 0
-1173 -203 -693 0
-1173 -203 -717 0
-1173 -203 -675 0
-1173 -203 -699 0
-1173 -203 -723 0
-1173 -204 -669 0
-1173 -204 -693 0
-1173 -204 -717 0
-1173 -204 -675 0
-1173 -204 -699 0
-1173 -204 -723 0
-1173 -205 -675 0
-1173 -205 -699 0
-1173 -205 -723 0
-1173 -206 0
-1173 108 0
-1173 -203 208 0
-1173 -204 209 0
-1173 -205 210 0
-1173 -246 0
-1174 239 0
-1174 -88 -203 -192 0
-1174 -88 -204 -193 0
-1174 -88 -205 -194 0
-1174 103 104 105 0
-1174 -103 -203 1366 640 0
-1174 -103 -204 1366 646 0
-1174 -103 -205 1366 652 0
-1174 -104 -203 1366 640 0
-1174 -104 -204 1366 646 0
-1174 -104 -205 1366 652 0
-1174 -105 -203 1366 640 0
-1174 -105 -204 1366 646 0
-1174 -105 -205 1366 652 0
-1174 -203 -664 0
-1174 -203 -688 0
-1174 -203 -712 0
-1174 -203 -670 0
-1174 -203 -694 0
-1174 -203 -718 0
-1174 -203 -676 0
-1174 -203 -700 0
-1174 -203 -724 0
-1174 -204 -670 0
-1174 -204 -694 0
-1174 -204 -718 0
-1174 -204 -676 0
-1174 -204 -700 0
-1174 -204 -724 0
-1174 -205 -676 0
-1174 -205 -700 0
-1174 -205 -724 0
-1174 -206 0
-1174 109 0
-1174 -203 208 0
-1174 -204 209 0
-1174 -205 210 0
-1174 -246 0
-1175 239 0
-1175 -89 -203 -192 0
-1175 -89 -204 -193 0
-1175 -89 -205 -194 0
-1175 104 105 0
-1175 -104 -203 1367 641 0
-1175 -104 -204 1367 647 0
-1175 -104 -205 1367 653 0
-1175 -105 -203 1367 641 0
-1175 -105 -204 1367 647 0
-1175 -105 -205 1367 653 0
-1175 -203 -665 0
-1175 -203 -689 0
-1175 -203 -713 0
-1175 -203 -671 0
-1175 -203 -695 0
-1175 -203 -719 0
-1175 -203 -677 0
-1175 -203 -701 0
-1175 -203 -725 0
-1175 -204 -671 0
-1175 -204 -695 0
-1175 -204 -719 0
-1175 -204 -677 0
-1175 -204 -701 0
-1175 -204 -725 0
-1175 -205 -677 0
-1175 -205 -701 0
-1175 -205 -725 0
-1175 -206 0
-1175 110 0
-1175 -203 208 0
-1175 -204 209 0
-1175 -205 210 0
-1175 -246 0
-1176 239 0
-1176 -90 -203 -192 0
-1176 -90 -204 -193 0
-1176 -90 -205 -194 0
-1176 105 0
-1176 -105 -203 1368 642 0
-1176 -105 -204 1368 648 0
-1176 -105 -205 1368 654 0
-1176 -203 -666 0
-1176 -203 -690 0
-1176 -203 -714 0
-1176 -203 -672 0
-1176 -203 -696 0
-1176 -203 -720 0
-1176 -203 -678 0
-1176 -203 -702 0
-1176 -203 -726 0
-1176 -204 -672 0
-1176 -204 -696 0
-1176 -204 -720 0
-1176 -204 -678 0
-1176 -204 -702 0
-1176 -204 -726 0
-1176 -205 -678 0
-1176 -205 -702 0
-1176 -205 -726 0
-1176 -206 0
-1176 111 0
-1176 -203 208 0
-1176 -204 209 0
-1176 -205 210 0
-1176 -246 0
-1177 239 0
-1177 -85 -191 0
-1177 -655 0
-1177 -679 0
-1177 -703 0
-1177 -661 0
-1177 -685 0
-1177 -709 0
-1177 -667 0
-1177 -691 0
-1177 -715 0
-1177 -673 0
-1177 -697 0
-1177 -721 0
-1177 106 0
-1177 207 0
-1178 239 0
-1178 -86 -191 0
-1178 -656 0
-1178 -680 0
-1178 -704 0
-1178 -662 0
-1178 -686 0
-1178 -710 0
-1178 -668 0
-1178 -692 0
-1178 -716 0
-1178 -674 0
-1178 -698 0
-1178 -722 0
-1178 107 0
-1178 207 0
-1179 239 0
-1179 -87 -191 0
-1179 -657 0
-1179 -681 0
-1179 -705 0
-1179 -663 0
-1179 -687 0
-1179 -711 0
-1179 -669 0
-1179 -693 0
-1179 -717 0
-1179 -675 0
-1179 -699 0
-1179 -723 0
-1179 108 0
-1179 207 0
-1180 239 0
-1180 -88 -191 0
-1180 -658 0
-1180 -682 0
-1180 -706 0
-1180 -664 0
-1180 -688 0
-1180 -712 0
-1180 -670 0
-1180 -694 0
-1180 -718 0
-1180 -676 0
-1180 -700 0
-1180 -724 0
-1180 109 0
-1180 207 0
-1181 239 0
-1181 -89 -191 0
-1181 -659 0
-1181 -683 0
-1181 -707 0
-1181 -665 0
-1181 -689 0
-1181 -713 0
-1181 -671 0
-1181 -695 0
-1181 -719 0
-1181 -677 0
-1181 -701 0
-1181 -725 0
-1181 110 0
-1181 207 0
-1182 239 0
-1182 -90 -191 0
-1182 -660 0
-1182 -684 0
-1182 -708 0
-1182 -666 0
-1182 -690 0
-1182 -714 0
-1182 -672 0
-1182 -696 0
-1182 -720 0
-1182 -678 0
-1182 -702 0
-1182 -726 0
-1182 111 0
-1182 207 0
-1183 240 0
-1183 -91 -191 -196 0
-1183 -91 -192 -197 0
-1183 -91 -193 -198 0
-1183 85 0
-1183 -85 -191 1345 661 0
-1183 -85 -192 1345 667 0
-1183 -85 -193 1345 673 0
-1183 -191 -637 0
-1183 -191 -685 0
-1183 -191 -709 0
-1183 -191 -643 0
-1183 -191 -691 0
-1183 -191 -715 0
-1183 -191 -649 0
-1183 -191 -697 0
-1183 -191 -721 0
-1183 -192 -643 0
-1183 -192 -691 0
-1183 -192 -715 0
-1183 -192 -649 0
-1183 -192 -697 0
-1183 -192 -721 0
-1183 -193 -649 0
-1183 -193 -697 0
-1183 -193 -721 0
-1183 -194 0
-1183 112 0
-1183 -191 212 0
-1183 -192 213 0
-1183 -193 214 0
-1183 -243 0
-1184 240 0
-1184 -92 -191 -196 0
-1184 -92 -192 -197 0
-1184 -92 -193 -198 0
-1184 86 0
-1184 -86 -191 1346 662 0
-1184 -86 -192 1346 668 0
-1184 -86 -193 1346 674 0
-1184 -191 -638 0
-1184 -191 -686 0
-1184 -191 -710 0
-1184 -191 -644 0
-1184 -191 -692 0
-1184 -191 -716 0
-1184 -191 -650 0
-1184 -191 -698 0
-1184 -191 -722 0
-1184 -192 -644 0
-1184 -192 -692 0
-1184 -192 -716 0
-1184 -192 -650 0
-1184 -192 -698 0
-1184 -192 -722 0
-1184 -193 -650 0
-1184 -193 -698 0
-1184 -193 -722 0
-1184 -194 0
-1184 113 0
-1184 -191 212 0
-1184 -192 213 0
-1184 -193 214 0
-1184 -243 0
-1185 240 0
-1185 -93 -191 -196 0
-1185 -93 -192 -197 0
-1185 -93 -193 -198 0
-1185 87 0
-1185 -87 -191 1347 663 0
-1185 -87 -192 1347 669 0
-1185 -87 -193 1347 675 0
-1185 -191 -639 0
-1185 -191 -687 0
-1185 -191 -711 0
-1185 -191 -645 0
-1185 -191 -693 0
-1185 -191 -717 0
-1185 -191 -651 0
-1185 -191 -699 0
-1185 -191 -723 0
-1185 -192 -645 0
-1185 -192 -693 0
-1185 -192 -717 0
-1185 -192 -651 0
-1185 -192 -699 0
-1185 -192 -723 0
-1185 -193 -651 0
-1185 -193 -699 0
-1185 -193 -723 0
-1185 -194 0
-1185 114 0
-1185 -191 212 0
-1185 -192 213 0
-1185 -193 214 0
-1185 -243 0
-1186 240 0
-1186 -94 -191 -196 0
-1186 -94 -192 -197 0
-1186 -94 -193 -198 0
-1186 88 0
-1186 -88 -191 1348 664 0
-1186 -88 -192 1348 670 0
-1186 -88 -193 1348 676 0
-1186 -191 -640 0
-1186 -191 -688 0
-1186 -191 -712 0
-1186 -191 -646 0
-1186 -191 -694 0
-1186 -191 -718 0
-1186 -191 -652 0
-1186 -191 -700 0
-1186 -191 -724 0
-1186 -192 -646 0
-1186 -192 -694 0
-1186 -192 -718 0
-1186 -192 -652 0
-1186 -192 -700 0
-1186 -192 -724 0
-1186 -193 -652 0
-1186 -193 -700 0
-1186 -193 -724 0
-1186 -194 0
-1186 115 0
-1186 -191 212 0
-1186 -192 213 0
-1186 -193 214 0
-1186 -243 0
-1187 240 0
-1187 -95 -191 -196 0
-1187 -95 -192 -197 0
-1187 -95 -193 -198 0
-1187 89 0
-1187 -89 -191 1349 665 0
-1187 -89 -192 1349 671 0
-1187 -89 -193 1349 677 0
-1187 -191 -641 0
-1187 -191 -689 0
-1187 -191 -713 0
-1187 -191 -647 0
-1187 -191 -695 0
-1187 -191 -719 0
-1187 -191 -653 0
-1187 -191 -701 0
-1187 -191 -725 0
-1187 -192 -647 0
-1187 -192 -695 0
-1187 -192 -719 0
-1187 -192 -653 0
-1187 -192 -701 0
-1187 -192 -725 0
-1187 -193 -653 0
-1187 -193 -701 0
-1187 -193 -725 0
-1187 -194 0
-1187 116 0
-1187 -191 212 0
-1187 -192 213 0
-1187 -193 214 0
-1187 -243 0
-1188 240 0
-1188 -96 -191 -196 0
-1188 -96 -192 -197 0
-1188 -96 -193 -198 0
-1188 90 0
-1188 -90 -191 1350 666 0
-1188 -90 -192 1350 672 0
-1188 -90 -193 1350 678 0
-1188 -191 -642 0
-1188 -191 -690 0
-1188 -191 -714 0
-1188 -191 -648 0
-1188 -191 -696 0
-1188 -191 -720 0
-1188 -191 -654 0
-1188 -191 -702 0
-1188 -191 -726 0
-1188 -192 -648 0
-1188 -192 -696 0
-1188 -192 -720 0
-1188 -192 -654 0
-1188 -192 -702 0
-1188 -192 -726 0
-1188 -193 -654 0
-1188 -193 -702 0
-1188 -193 -726 0
-1188 -194 0
-1188 117 0
-1188 -191 212 0
-1188 -192 213 0
-1188 -193 214 0
-1188 -243 0
-1189 240 0
-1189 -91 -199 -196 0
-1189 -91 -200 -197 0
-1189 -91 -201 -198 0
-1189 97 0
-1189 -97 -199 1357 661 0
-1189 -97 -200 1357 667 0
-1189 -97 -201 1357 673 0
-1189 -199 -637 0
-1189 -199 -685 0
-1189 -199 -709 0
-1189 -199 -643 0
-1189 -199 -691 0
-1189 -199 -715 0
-1189 -199 -649 0
-1189 -199 -697 0
-1189 -199 -721 0
-1189 -200 -643 0
-1189 -200 -691 0
-1189 -200 -715 0
-1189 -200 -649 0
-1189 -200 -697 0
-1189 -200 -721 0
-1189 -201 -649 0
-1189 -201 -697 0
-1189 -201 -721 0
-1189 -202 0
-1189 112 0
-1189 -199 212 0
-1189 -200 213 0
-1189 -201 214 0
-1189 -245 0
-1190 240 0
-1190 -92 -199 -196 0
-1190 -92 -200 -197 0
-1190 -92 -201 -198 0
-1190 97 98 0
-1190 -97 -199 1358 662 0
-1190 -97 -200 1358 668 0
-1190 -97 -201 1358 674 0
-1190 -98 -199 1358 662 0
-1190 -98 -200 1358 668 0
-1190 -98 -201 1358 674 0
-1190 -199 -638 0
-1190 -199 -686 0
-1190 -199 -710 0
-1190 -199 -644 0
-1190 -199 -692 0
-1190 -199 -716 0
-1190 -199 -650 0
-1190 -199 -698 0
-1190 -199 -722 0
-1190 -200 -644 0
-1190 -200 -692 0
-1190 -200 -716 0
-1190 -200 -650 0
-1190 -200 -698 0
-1190 -200 -722 0
-1190 -201 -650 0
-1190 -201 -698 0
-1190 -201 -722 0
-1190 -202 0
-1190 113 0
-1190 -199 212 0
-1190 -200 213 0
-1190 -201 214 0
-1190 -245 0
-1191 240 0
-1191 -93 -199 -196 0
-1191 -93 -200 -197 0
-1191 -93 -201 -198 0
-1191 98 99 0
-1191 -98 -199 1359 663 0
-1191 -98 -200 1359 669 0
-1191 -98 -201 1359 675 0
-1191 -99 -199 1359 663 0
-1191 -99 -200 1359 669 0
-1191 -99 -201 1359 675 0
-1191 -199 -639 0
-1191 -199 -687 0
-1191 -199 -711 0
-1191 -199 -645 0
-1191 -199 -693 0
-1191 -199 -717 0
-1191 -199 -651 0
-1191 -199 -699 0
-1191 -199 -723 0
-1191 -200 -645 0
-1191 -200 -693 0
-1191 -200 -717 0
-1191 -200 -651 0
-1191 -200 -699 0
-1191 -200 -723 0
-1191 -201 -651 0
-1191 -201 -699 0
-1191 -201 -723 0
-1191 -202 0
-1191 114 0
-1191 -199 212 0
-1191 -200 213 0
-1191 -201 214 0
-1191 -245 0
-1192 240 0
-1192 -94 -199 -196 0
-1192 -94 -200 -197 0
-1192 -94 -201 -198 0
-1192 99 100 0
-1192 -99 -199 1360 664 0
-1192 -99 -200 1360 670 0
-1192 -99 -201 1360 676 0
-1192 -100 -199 1360 664 0
-1192 -100 -200 1360 670 0
-1192 -100 -201 1360 676 0
-1192 -199 -640 0
-1192 -199 -688 0
-1192 -199 -712 0
-1192 -199 -646 0
-1192 -199 -694 0
-1192 -199 -718 0
-1192 -199 -652 0
-1192 -199 -700 0
-1192 -199 -724 0
-1192 -200 -646 0
-1192 -200 -694 0
-1192 -200 -718 0
-1192 -200 -652 0
-1192 -200 -700 0
-1192 -200 -724 0
-1192 -201 -652 0
-1192 -201 -700 0
-1192 -201 -724 0
-1192 -202 0
-1192 115 0
-1192 -199 212 0
-1192 -200 213 0
-1192 -201 214 0
-1192 -245 0
-1193 240 0
-1193 -95 -199 -196 0
-1193 -95 -200 -197 0
-1193 -95 -201 -198 0
-1193 100 101 0
-1193 -100 -199 1361 665 0
-1193 -100 -200 1361 671 0
-1193 -100 -201 1361 677 0
-1193 -101 -199 1361 665 0
-1193 -101 -200 1361 671 0
-1193 -101 -201 1361 677 0
-1193 -199 -641 0
-1193 -199 -689 0
-1193 -199 -713 0
-1193 -199 -647 0
-1193 -199 -695 0
-1193 -199 -719 0
-1193 -199 -653 0
-1193 -199 -701 0
-1193 -199 -725 0
-1193 -200 -647 0
-1193 -200 -695 0
-1193 -200 -719 0
-1193 -200 -653 0
-1193 -200 -701 0
-1193 -200 -725 0
-1193 -201 -653 0
-1193 -201 -701 0
-1193 -201 -725 0
-1193 -202 0
-1193 116 0
-1193 -199 212 0
-1193 -200 213 0
-1193 -201 214 0
-1193 -245 0
-1194 240 0
-1194 -96 -199 -196 0
-1194 -96 -200 -197 0
-1194 -96 -201 -198 0
-1194 101 0
-1194 -101 -199 1362 666 0
-1194 -101 -200 1362 672 0
-1194 -101 -201 1362 678 0
-1194 -199 -642 0
-1194 -199 -690 0
-1194 -199 -714 0
-1194 -199 -648 0
-1194 -199 -696 0
-1194 -199 -720 0
-1194 -199 -654 0
-1194 -199 -702 0
-1194 -199 -726 0
-1194 -200 -648 0
-1194 -200 -696 0
-1194 -200 -720 0
-1194 -200 -654 0
-1194 -200 -702 0
-1194 -200 -726 0
-1194 -201 -654 0
-1194 -201 -702 0
-1194 -201 -726 0
-1194 -202 0
-1194 117 0
-1194 -199 212 0
-1194 -200 213 0
-1194 -201 214 0
-1194 -245 0
-1195 240 0
-1195 -91 -203 -196 0
-1195 -91 -204 -197 0
-1195 -91 -205 -198 0
-1195 102 0
-1195 -102 -203 1363 661 0
-1195 -102 -204 1363 667 0
-1195 -102 -205 1363 673 0
-1195 -203 -637 0
-1195 -203 -685 0
-1195 -203 -709 0
-1195 -203 -643 0
-1195 -203 -691 0
-1195 -203 -715 0
-1195 -203 -649 0
-1195 -203 -697 0
-1195 -203 -721 0
-1195 -204 -643 0
-1195 -204 -691 0
-1195 -204 -715 0
-1195 -204 -649 0
-1195 -204 -697 0
-1195 -204 -721 0
-1195 -205 -649 0
-1195 -205 -697 0
-1195 -205 -721 0
-1195 -206 0
-1195 112 0
-1195 -203 212 0
-1195 -204 213 0
-1195 -205 214 0
-1195 -246 0
-1196 240 0
-1196 -92 -203 -196 0
-1196 -92 -204 -197 0
-1196 -92 -205 -198 0
-1196 102 103 0
-1196 -102 -203 1364 662 0
-1196 -102 -204 1364 668 0
-1196 -102 -205 1364 674 0
-1196 -103 -203 1364 662 0
-1196 -103 -204 1364 668 0
-1196 -103 -205 1364 674 0
-1196 -203 -638 0
-1196 -203 -686 0
-1196 -203 -710 0
-1196 -203 -644 0
-1196 -203 -692 0
-1196 -203 -716 0
-1196 -203 -650 0
-1196 -203 -698 0
-1196 -203 -722 0
-1196 -204 -644 0
-1196 -204 -692 0
-1196 -204 -716 0
-1196 -204 -650 0
-1196 -204 -698 0
-1196 -204 -722 0
-1196 -205 -650 0
-1196 -205 -698 0
-1196 -205 -722 0
-1196 -206 0
-1196 113 0
-1196 -203 212 0
-1196 -204 213 0
-1196 -205 214 0
-1196 -246 0
-1197 240 0
-1197 -93 -203 -196 0
-1197 -93 -204 -197 0
-1197 -93 -205 -198 0
-1197 102 103 104 0
-1197 -102 -203 1365 663 0
-1197 -102 -204 1365 669 0
-1197 -102 -205 1365 675 0
-1197 -103 -203 1365 663 0
-1197 -103 -204 1365 669 0
-1197 -103 -205 1365 675 0
-1197 -104 -203 1365 663 0
-1197 -104 -204 1365 669 0
-1197 -104 -205 1365 675 0
-1197 -203 -639 0
-1197 -203 -687 0
-1197 -203 -711 0
-1197 -203 -645 0
-1197 -203 -693 0
-1197 -203 -717 0
-1197 -203 -651 0
-1197 -203 -699 0
-1197 -203 -723 0
-1197 -204 -645 0
-1197 -204 -693 0
-1197 -204 -717 0
-1197 -204 -651 0
-1197 -204 -699 0
-1197 -204 -723 0
-1197 -205 -651 0
-1197 -205 -699 0
-1197 -205 -723 0
-1197 -206 0
-1197 114 0
-1197 -203 212 0
-1197 -204 213 0
-1197 -205 214 0
-1197 -246 0
-1198 240 0
-1198 -94 -203 -196 0
-1198 -94 -204 -197 0
-1198 -94 -205 -198 0
-1198 103 104 105 0
-1198 -103 -203 1366 664 0
-1198 -103 -204 1366 670 0
-1198 -103 -205 1366 676 0
-1198 -104 -203 1366 664 0
-1198 -104 -204 1366 670 0
-1198 -104 -205 1366 676 0
-1198 -105 -203 1366 664 0
-1198 -105 -204 1366 670 0
-1198 -105 -205 1366 676 0
-1198 -203 -640 0
-1198 -203 -688 0
-1198 -203 -712 0
-1198 -203 -646 0
-1198 -203 -694 0
-1198 -203 -718 0
-1198 -203 -652 0
-1198 -203 -700 0
-1198 -203 -724 0
-1198 -204 -646 0
-1198 -204 -694 0
-1198 -204 -718 0
-1198 -204 -652 0
-1198 -204 -700 0
-1198 -204 -724 0
-1198 -205 -652 0
-1198 -205 -700 0
-1198 -205 -724 0
-1198 -206 0
-1198 115 0
-1198 -203 212 0
-1198 -204 213 0
-1198 -205 214 0
-1198 -246 0
-1199 240 0
-1199 -95 -203 -196 0
-1199 -95 -204 -197 0
-1199 -95 -205 -198 0
-1199 104 105 0
-1199 -104 -203 1367 665 0
-1199 -104 -204 1367 671 0
-1199 -104 -205 1367 677 0
-1199 -105 -203 1367 665 0
-1199 -105 -204 1367 671 0
-1199 -105 -205 1367 677 0
-1199 -203 -641 0
-1199 -203 -689 0
-1199 -203 -713 0
-1199 -203 -647 0
-1199 -203 -695 0
-1199 -203 -719 0
-1199 -203 -653 0
-1199 -203 -701 0
-1199 -203 -725 0
-1199 -204 -647 0
-1199 -204 -695 0
-1199 -204 -719 0
-1199 -204 -653 0
-1199 -204 -701 0
-1199 -204 -725 0
-1199 -205 -653 0
-1199 -205 -701 0
-1199 -205 -725 0
-1199 -206 0
-1199 116 0
-1199 -203 212 0
-1199 -204 213 0
-1199 -205 214 0
-1199 -246 0
-1200 240 0
-1200 -96 -203 -196 0
-1200 -96 -204 -197 0
-1200 -96 -205 -198 0
-1200 105 0
-1200 -105 -203 1368 666 0
-1200 -105 -204 1368 672 0
-1200 -105 -205 1368 678 0
-1200 -203 -642 0
-1200 -203 -690 0
-1200 -203 -714 0
-1200 -203 -648 0
-1200 -203 -696 0
-1200 -203 -720 0
-1200 -203 -654 0
-1200 -203 -702 0
-1200 -203 -726 0
-1200 -204 -648 0
-1200 -204 -696 0
-1200 -204 -720 0
-1200 -204 -654 0
-1200 -204 -702 0
-1200 -204 -726 0
-1200 -205 -654 0
-1200 -205 -702 0
-1200 -205 -726 0
-1200 -206 0
-1200 117 0
-1200 -203 212 0
-1200 -204 213 0
-1200 -205 214 0
-1200 -246 0
-1201 240 0
-1201 -91 -195 0
-1201 -631 0
-1201 -679 0
-1201 -703 0
-1201 -637 0
-1201 -685 0
-1201 -709 0
-1201 -643 0
-1201 -691 0
-1201 -715 0
-1201 -649 0
-1201 -697 0
-1201 -721 0
-1201 112 0
-1201 211 0
-1202 240 0
-1202 -92 -195 0
-1202 -632 0
-1202 -680 0
-1202 -704 0
-1202 -638 0
-1202 -686 0
-1202 -710 0
-1202 -644 0
-1202 -692 0
-1202 -716 0
-1202 -650 0
-1202 -698 0
-1202 -722 0
-1202 113 0
-1202 211 0
-1203 240 0
-1203 -93 -195 0
-1203 -633 0
-1203 -681 0
-1203 -705 0
-1203 -639 0
-1203 -687 0
-1203 -711 0
-1203 -645 0
-1203 -693 0
-1203 -717 0
-1203 -651 0
-1203 -699 0
-1203 -723 0
-1203 114 0
-1203 211 0
-1204 240 0
-1204 -94 -195 0
-1204 -634 0
-1204 -682 0
-1204 -706 0
-1204 -640 0
-1204 -688 0
-1204 -712 0
-1204 -646 0
-1204 -694 0
-1204 -718 0
-1204 -652 0
-1204 -700 0
-1204 -724 0
-1204 115 0
-1204 211 0
-1205 240 0
-1205 -95 -195 0
-1205 -635 0
-1205 -683 0
-1205 -707 0
-1205 -641 0
-1205 -689 0
-1205 -713 0
-1205 -647 0
-1205 -695 0
-1205 -719 0
-1205 -653 0
-1205 -701 0
-1205 -725 0
-1205 116 0
-1205 211 0
-1206 240 0
-1206 -96 -195 0
-1206 -636 0
-1206 -684 0
-1206 -708 0
-1206 -642 0
-1206 -690 0
-1206 -714 0
-1206 -648 0
-1206 -696 0
-1206 -720 0
-1206 -654 0
-1206 -702 0
-1206 -726 0
-1206 117 0
-1206 211 0
-1207 241 0
-1207 -97 -191 -200 0
-1207 -97 -192 -201 0
-1207 -97 -193 -202 0
-1207 85 86 0
-1207 -85 -191 1345 685 0
-1207 -85 -192 1345 691 0
-1207 -85 -193 1345 697 0
-1207 -86 -191 1346 686 0
-1207 -86 -192 1346 692 0
-1207 -86 -193 1346 698 0
-1207 -191 -637 0
-1207 -191 -661 0
-1207 -191 -709 0
-1207 -191 -643 0
-1207 -191 -667 0
-1207 -191 -715 0
-1207 -191 -649 0
-1207 -191 -673 0
-1207 -191 -721 0
-1207 -191 -638 0
-1207 -191 -662 0
-1207 -191 -710 0
-1207 -191 -644 0
-1207 -191 -668 0
-1207 -191 -716 0
-1207 -191 -650 0
-1207 -191 -674 0
-1207 -191 -722 0
-1207 -192 -643 0
-1207 -192 -667 0
-1207 -192 -715 0
-1207 -192 -649 0
-1207 -192 -673 0
-1207 -192 -721 0
-1207 -192 -644 0
-1207 -192 -668 0
-1207 -192 -716 0
-1207 -192 -650 0
-1207 -192 -674 0
-1207 -192 -722 0
-1207 -193 -649 0
-1207 -193 -673 0
-1207 -193 -721 0
-1207 -193 -650 0
-1207 -193 -674 0
-1207 -193 -722 0
-1207 -194 0
-1207 118 0
-1207 -191 216 0
-1207 -192 217 0
-1207 -193 218 0
-1207 -243 0
-1208 241 0
-1208 -98 -191 -200 0
-1208 -98 -192 -201 0
-1208 -98 -193 -202 0
-1208 86 87 0
-1208 -86 -191 1346 686 0
-1208 -86 -192 1346 692 0
-1208 -86 -193 1346 698 0
-1208 -87 -191 1347 687 0
-1208 -87 -192 1347 693 0
-1208 -87 -193 1347 699 0
-1208 -191 -638 0
-1208 -191 -662 0
-1208 -191 -710 0
-1208 -191 -644 0
-1208 -191 -668 0
-1208 -191 -716 0
-1208 -191 -650 0
-1208 -191 -674 0
-1208 -191 -722 0
-1208 -191 -639 0
-1208 -191 -663 0
-1208 -191 -711 0
-1208 -191 -645 0
-1208 -191 -669 0
-1208 -191 -717 0
-1208 -191 -651 0
-1208 -191 -675 0
-1208 -191 -723 0
-1208 -192 -644 0
-1208 -192 -668 0
-1208 -192 -716 0
-1208 -192 -650 0
-1208 -192 -674 0
-1208 -192 -722 0
-1208 -192 -645 0
-1208 -192 -669 0
-1208 -192 -717 0
-1208 -192 -651 0
-1208 -192 -675 0
-1208 -192 -723 0
-1208 -193 -650 0
-1208 -193 -674 0
-1208 -193 -722 0
-1208 -193 -651 0
-1208 -193 -675 0
-1208 -193 -723 0
-1208 -194 0
-1208 119 0
-1208 -191 216 0
-1208 -192 217 0
-1208 -193 218 0
-1208 -243 0
-1209 241 0
-1209 -99 -191 -200 0
-1209 -99 -192 -201 0
-1209 -99 -193 -202 0
-1209 87 88 0
-1209 -87 -191 1347 687 0
-1209 -87 -192 1347 693 0
-1209 -87 -193 1347 699 0
-1209 -88 -191 1348 688 0
-1209 -88 -192 1348 694 0
-1209 -88 -193 1348 700 0
-1209 -191 -639 0
-1209 -191 -663 0
-1209 -191 -711 0
-1209 -191 -645 0
-1209 -191 -669 0
-1209 -191 -717 0
-1209 -191 -651 0
-1209 -191 -675 0
-1209 -191 -723 0
-1209 -191 -640 0
-1209 -191 -664 0
-1209 -191 -712 0
-1209 -191 -646 0
-1209 -191 -670 0
-1209 -191 -718 0
-1209 -191 -652 0
-1209 -191 -676 0
-1209 -191 -724 0
-1209 -192 -645 0
-1209 -192 -669 0
-1209 -192 -717 0
-1209 -192 -651 0
-1209 -192 -675 0
-1209 -192 -723 0
-1209 -192 -646 0
-1209 -192 -670 0
-1209 -192 -718 0
-1209 -192 -652 0
-1209 -192 -676 0
-1209 -192 -724 0
-1209 -193 -651 0
-1209 -193 -675 0
-1209 -193 -723 0
-1209 -193 -652 0
-1209 -193 -676 0
-1209 -193 -724 0
-1209 -194 0
-1209 120 0
-1209 -191 216 0
-1209 -192 217 0
-1209 -193 218 0
-1209 -243 0
-1210 241 0
-1210 -100 -191 -200 0
-1210 -100 -192 -201 0
-1210 -100 -193 -202 0
-1210 88 89 0
-1210 -88 -191 1348 688 0
-1210 -88 -192 1348 694 0
-1210 -88 -193 1348 700 0
-1210 -89 -191 1349 689 0
-1210 -89 -192 1349 695 0
-1210 -89 -193 1349 701 0
-1210 -191 -640 0
-1210 -191 -664 0
-1210 -191 -712 0
-1210 -191 -646 0
-1210 -191 -670 0
-1210 -191 -718 0
-1210 -191 -652 0
-1210 -191 -676 0
-1210 -191 -724 0
-1210 -191 -641 0
-1210 -191 -665 0
-1210 -191 -713 0
-1210 -191 -647 0
-1210 -191 -671 0
-1210 -191 -719 0
-1210 -191 -653 0
-1210 -191 -677 0
-1210 -191 -725 0
-1210 -192 -646 0
-1210 -192 -670 0
-1210 -192 -718 0
-1210 -192 -652 0
-1210 -192 -676 0
-1210 -192 -724 0
-1210 -192 -647 0
-1210 -192 -671 0
-1210 -192 -719 0
-1210 -192 -653 0
-1210 -192 -677 0
-1210 -192 -725 0
-1210 -193 -652 0
-1210 -193 -676 0
-1210 -193 -724 0
-1210 -193 -653 0
-1210 -193 -677 0
-1210 -193 -725 0
-1210 -194 0
-1210 121 0
-1210 -191 216 0
-1210 -192 217 0
-1210 -193 218 0
-1210 -243 0
-1211 241 0
-1211 -101 -191 -200 0
-1211 -101 -192 -201 0
-1211 -101 -193 -202 0
-1211 89 90 0
-1211 -89 -191 1349 689 0
-1211 -89 -192 1349 695 0
-1211 -89 -193 1349 701 0
-1211 -90 -191 1350 690 0
-1211 -90 -192 1350 696 0
-1211 -90 -193 1350 702 0
-1211 -191 -641 0
-1211 -191 -665 0
-1211 -191 -713 0
-1211 -191 -647 0
-1211 -191 -671 0
-1211 -191 -719 0
-1211 -191 -653 0
-1211 -191 -677 0
-1211 -191 -725 0
-1211 -191 -642 0
-1211 -191 -666 0
-1211 -191 -714 0
-1211 -191 -648 0
-1211 -191 -672 0
-1211 -191 -720 0
-1211 -191 -654 0
-1211 -191 -678 0
-1211 -191 -726 0
-1211 -192 -647 0
-1211 -192 -671 0
-1211 -192 -719 0
-1211 -192 -653 0
-1211 -192 -677 0
-1211 -192 -725 0
-1211 -192 -648 0
-1211 -192 -672 0
-1211 -192 -720 0
-1211 -192 -654 0
-1211 -192 -678 0
-1211 -192 -726 0
-1211 -193 -653 0
-1211 -193 -677 0
-1211 -193 -725 0
-1211 -193 -654 0
-1211 -193 -678 0
-1211 -193 -726 0
-1211 -194 0
-1211 122 0
-1211 -191 216 0
-1211 -192 217 0
-1211 -193 218 0
-1211 -243 0
-1212 241 0
-1212 -97 -195 -200 0
-1212 -97 -196 -201 0
-1212 -97 -197 -202 0
-1212 91 92 0
-1212 -91 -195 1351 685 0
-1212 -91 -196 1351 691 0
-1212 -91 -197 1351 697 0
-1212 -92 -195 1352 686 0
-1212 -92 -196 1352 692 0
-1212 -92 -197 1352 698 0
-1212 -195 -637 0
-1212 -195 -661 0
-1212 -195 -709 0
-1212 -195 -643 0
-1212 -195 -667 0
-1212 -195 -715 0
-1212 -195 -649 0
-1212 -195 -673 0
-1212 -195 -721 0
-1212 -195 -638 0
-1212 -195 -662 0
-1212 -195 -710 0
-1212 -195 -644 0
-1212 -195 -668 0
-1212 -195 -716 0
-1212 -195 -650 0
-1212 -195 -674 0
-1212 -195 -722 0
-1212 -196 -643 0
-1212 -196 -667 0
-1212 -196 -715 0
-1212 -196 -649 0
-1212 -196 -673 0
-1212 -196 -721 0
-1212 -196 -644 0
-1212 -196 -668 0
-1212 -196 -716 0
-1212 -196 -650 0
-1212 -196 -674 0
-1212 -196 -722 0
-1212 -197 -649 0
-1212 -197 -673 0
-1212 -197 -721 0
-1212 -197 -650 0
-1212 -197 -674 0
-1212 -197 -722 0
-1212 -198 0
-1212 118 0
-1212 -195 216 0
-1212 -196 217 0
-1212 -197 218 0
-1212 -244 0
-1213 241 0
-1213 -98 -195 -200 0
-1213 -98 -196 -201 0
-1213 -98 -197 -202 0
-1213 92 93 0
-1213 -92 -195 1352 686 0
-1213 -92 -196 1352 692 0
-1213 -92 -197 1352 698 0
-1213 -93 -195 1353 687 0
-1213 -93 -196 1353 693 0
-1213 -93 -197 1353 699 0
-1213 -195 -638 0
-1213 -195 -662 0
-1213 -195 -710 0
-1213 -195 -644 0
-1213 -195 -668 0
-1213 -195 -716 0
-1213 -195 -650 0
-1213 -195 -674 0
-1213 -195 -722 0
-1213 -195 -639 0
-1213 -195 -663 0
-1213 -195 -711 0
-1213 -195 -645 0
-1213 -195 -669 0
-1213 -195 -717 0
-1213 -195 -651 0
-1213 -195 -675 0
-1213 -195 -723 0
-1213 -196 -644 0
-1213 -196 -668 0
-1213 -196 -716 0
-1213 -196 -650 0
-1213 -196 -674 0
-1213 -196 -722 0
-1213 -196 -645 0
-1213 -196 -669 0
-1213 -196 -717 0
-1213 -196 -651 0
-1213 -196 -675 0
-1213 -196 -723 0
-1213 -197 -650 0
-1213 -197 -674 0
-1213 -197 -722 0
-1213 -197 -651 0
-1213 -197 -675 0
-1213 -197 -723 0
-1213 -198 0
-1213 119 0
-1213 -195 216 0
-1213 -196 217 0
-1213 -197 218 0
-1213 -244 0
-1214 241 0
-1214 -99 -195 -200 0
-1214 -99 -196 -201 0
-1214 -99 -197 -202 0
-1214 93 94 0
-1214 -93 -195 1353 687 0
-1214 -93 -196 1353 693 0
-1214 -93 -197 1353 699 0
-1214 -94 -195 1354 688 0
-1214 -94 -196 1354 694 0
-1214 -94 -197 1354 700 0
-1214 -195 -639 0
-1214 -195 -663 0
-1214 -195 -711 0
-1214 -195 -645 0
-1214 -195 -669 0
-1214 -195 -717 0
-1214 -195 -651 0
-1214 -195 -675 0
-1214 -195 -723 0
-1214 -195 -640 0
-1214 -195 -664 0
-1214 -195 -712 0
-1214 -195 -646 0
-1214 -195 -670 0
-1214 -195 -718 0
-1214 -195 -652 0
-1214 -195 -676 0
-1214 -195 -724 0
-1214 -196 -645 0
-1214 -196 -669 0
-1214 -196 -717 0
-1214 -196 -651 0
-1214 -196 -675 0
-1214 -196 -723 0
-1214 -196 -646 0
-1214 -196 -670 0
-1214 -196 -718 0
-1214 -196 -652 0
-1214 -196 -676 0
-1214 -196 -724 0
-1214 -197 -651 0
-1214 -197 -675 0
-1214 -197 -723 0
-1214 -197 -652 0
-1214 -197 -676 0
-1214 -197 -724 0
-1214 -198 0
-1214 120 0
-1214 -195 216 0
-1214 -196 217 0
-1214 -197 218 0
-1214 -244 0
-1215 241 0
-1215 -100 -195 -200 0
-1215 -100 -196 -201 0
-1215 -100 -197 -202 0
-1215 94 95 0
-1215 -94 -195 1354 688 0
-1215 -94 -196 1354 694 0
-1215 -94 -197 1354 700 0
-1215 -95 -195 1355 689 0
-1215 -95 -196 1355 695 0
-1215 -95 -197 1355 701 0
-1215 -195 -640 0
-1215 -195 -664 0
-1215 -195 -712 0
-1215 -195 -646 0
-1215 -195 -670 0
-1215 -195 -718 0
-1215 -195 -652 0
-1215 -195 -676 0
-1215 -195 -724 0
-1215 -195 -641 0
-1215 -195 -665 0
-1215 -195 -713 0
-1215 -195 -647 0
-1215 -195 -671 0
-1215 -195 -719 0
-1215 -195 -653 0
-1215 -195 -677 0
-1215 -195 -725 0
-1215 -196 -646 0
-1215 -196 -670 0
-1215 -196 -718 0
-1215 -196 -652 0
-1215 -196 -676 0
-1215 -196 -724 0
-1215 -196 -647 0
-1215 -196 -671 0
-1215 -196 -719 0
-1215 -196 -653 0
-1215 -196 -677 0
-1215 -196 -725 0
-1215 -197 -652 0
-1215 -197 -676 0
-1215 -197 -724 0
-1215 -197 -653 0
-1215 -197 -677 0
-1215 -197 -725 0
-1215 -198 0
-1215 121 0
-1215 -195 216 0
-1215 -196 217 0
-1215 -197 218 0
-1215 -244 0
-1216 241 0
-1216 -101 -195 -200 0
-1216 -101 -196 -201 0
-1216 -101 -197 -202 0
-1216 95 96 0
-1216 -95 -195 1355 689 0
-1216 -95 -196 1355 695 0
-1216 -95 -197 1355 701 0
-1216 -96 -195 1356 690 0
-1216 -96 -196 1356 696 0
-1216 -96 -197 1356 702 0
-1216 -195 -641 0
-1216 -195 -665 0
-1216 -195 -713 0
-1216 -195 -647 0
-1216 -195 -671 0
-1216 -195 -719 0
-1216 -195 -653 0
-1216 -195 -677 0
-1216 -195 -725 0
-1216 -195 -642 0
-1216 -195 -666 0
-1216 -195 -714 0
-1216 -195 -648 0
-1216 -195 -672 0
-1216 -195 -720 0
-1216 -195 -654 0
-1216 -195 -678 0
-1216 -195 -726 0
-1216 -196 -647 0
-1216 -196 -671 0
-1216 -196 -719 0
-1216 -196 -653 0
-1216 -196 -677 0
-1216 -196 -725 0
-1216 -196 -648 0
-1216 -196 -672 0
-1216 -196 -720 0
-1216 -196 -654 0
-1216 -196 -678 0
-1216 -196 -726 0
-1216 -197 -653 0
-1216 -197 -677 0
-1216 -197 -725 0
-1216 -197 -654 0
-1216 -197 -678 0
-1216 -197 -726 0
-1216 -198 0
-1216 122 0
-1216 -195 216 0
-1216 -196 217 0
-1216 -197 218 0
-1216 -244 0
-1217 241 0
-1217 -97 -203 -200 0
-1217 -97 -204 -201 0
-1217 -97 -205 -202 0
-1217 102 103 0
-1217 -102 -203 1363 685 0
-1217 -102 -204 1363 691 0
-1217 -102 -205 1363 697 0
-1217 -102 -203 1364 686 0
-1217 -102 -204 1364 692 0
-1217 -102 -205 1364 698 0
-1217 -103 -203 1364 686 0
-1217 -103 -204 1364 692 0
-1217 -103 -205 1364 698 0
-1217 -203 -637 0
-1217 -203 -661 0
-1217 -203 -709 0
-1217 -203 -643 0
-1217 -203 -667 0
-1217 -203 -715 0
-1217 -203 -649 0
-1217 -203 -673 0
-1217 -203 -721 0
-1217 -203 -638 0
-1217 -203 -662 0
-1217 -203 -710 0
-1217 -203 -644 0
-1217 -203 -668 0
-1217 -203 -716 0
-1217 -203 -650 0
-1217 -203 -674 0
-1217 -203 -722 0
-1217 -204 -643 0
-1217 -204 -667 0
-1217 -204 -715 0
-1217 -204 -649 0
-1217 -204 -673 0
-1217 -204 -721 0
-1217 -204 -644 0
-1217 -204 -668 0
-1217 -204 -716 0
-1217 -204 -650 0
-1217 -204 -674 0
-1217 -204 -722 0
-1217 -205 -649 0
-1217 -205 -673 0
-1217 -205 -721 0
-1217 -205 -650 0
-1217 -205 -674 0
-1217 -205 -722 0
-1217 -206 0
-1217 118 0
-1217 -203 216 0
-1217 -204 217 0
-1217 -205 218 0
-1217 -246 0
-1218 241 0
-1218 -98 -203 -200 0
-1218 -98 -204 -201 0
-1218 -98 -205 -202 0
-1218 102 103 104 0
-1218 -102 -203 1364 686 0
-1218 -102 -204 1364 692 0
-1218 -102 -205 1364 698 0
-1218 -102 -203 1365 687 0
-1218 -102 -204 1365 693 0
-1218 -102 -205 1365 699 0
-1218 -103 -203 1364 686 0
-1218 -103 -204 1364 692 0
-1218 -103 -205 1364 698 0
-1218 -103 -203 1365 687 0
-1218 -103 -204 1365 693 0
-1218 -103 -205 1365 699 0
-1218 -104 -203 1365 687 0
-1218 -104 -204 1365 693 0
-1218 -104 -205 1365 699 0
-1218 -203 -638 0
-1218 -203 -662 0
-1218 -203 -710 0
-1218 -203 -644 0
-1218 -203 -668 0
-1218 -203 -716 0
-1218 -203 -650 0
-1218 -203 -674 0
-1218 -203 -722 0
-1218 -203 -639 0
-1218 -203 -663 0
-1218 -203 -711 0
-1218 -203 -645 0
-1218 -203 -669 0
-1218 -203 -717 0
-1218 -203 -651 0
-1218 -203 -675 0
-1218 -203 -723 0
-1218 -204 -644 0
-1218 -204 -668 0
-1218 -204 -716 0
-1218 -204 -650 0
-1218 -204 -674 0
-1218 -204 -722 0
-1218 -204 -645 0
-1218 -204 -669 0
-1218 -204 -717 0
-1218 -204 -651 0
-1218 -204 -675 0
-1218 -204 -723 0
-1218 -205 -650 0
-1218 -205 -674 0
-1218 -205 -722 0
-1218 -205 -651 0
-1218 -205 -675 0
-1218 -205 -723 0
-1218 -206 0
-1218 119 0
-1218 -203 216 0
-1218 -204 217 0
-1218 -205 218 0
-1218 -246 0
-1219 241 0
-1219 -99 -203 -200 0
-1219 -99 -204 -201 0
-1219 -99 -205 -202 0
-1219 102 103 104 105 0
-1219 -102 -203 1365 687 0
-1219 -102 -204 1365 693 0
-1219 -102 -205 1365 699 0
-1219 -103 -203 1365 687 0
-1219 -103 -204 1365 693 0
-1219 -103 -205 1365 699 0
-1219 -103 -203 1366 688 0
-1219 -103 -204 1366 694 0
-1219 -103 -205 1366 700 0
-1219 -104 -203 1365 687 0
-1219 -104 -204 1365 693 0
-1219 -104 -205 1365 699 0
-1219 -104 -203 1366 688 0
-1219 -104 -204 1366 694 0
-1219 -104 -205 1366 700 0
-1219 -105 -203 1366 688 0
-1219 -105 -204 1366 694 0
-1219 -105 -205 1366 700 0
-1219 -203 -639 0
-1219 -203 -663 0
-1219 -203 -711 0
-1219 -203 -645 0
-1219 -203 -669 0
-1219 -203 -717 0
-1219 -203 -651 0
-1219 -203 -675 0
-1219 -203 -723 0
-1219 -203 -640 0
-1219 -203 -664 0
-1219 -203 -712 0
-1219 -203 -646 0
-1219 -203 -670 0
-1219 -203 -718 0
-1219 -203 -652 0
-1219 -203 -676 0
-1219 -203 -724 0
-1219 -204 -645 0
-1219 -204 -669 0
-1219 -204 -717 0
-1219 -204 -651 0
-1219 -204 -675 0
-1219 -204 -723 0
-1219 -204 -646 0
-1219 -204 -670 0
-1219 -204 -718 0
-1219 -204 -652 0
-1219 -204 -676 0
-1219 -204 -724 0
-1219 -205 -651 0
-1219 -205 -675 0
-1219 -205 -723 0
-1219 -205 -652 0
-1219 -205 -676 0
-1219 -205 -724 0
-1219 -206 0
-1219 120 0
-1219 -203 216 0
-1219 -204 217 0
-1219 -205 218 0
-1219 -246 0
-1220 241 0
-1220 -100 -203 -200 0
-1220 -100 -204 -201 0
-1220 -100 -205 -202 0
-1220 103 104 105 0
-1220 -103 -203 1366 688 0
-1220 -103 -204 1366 694 0
-1220 -103 -205 1366 700 0
-1220 -104 -203 1366 688 0
-1220 -104 -204 1366 694 0
-1220 -104 -205 1366 700 0
-1220 -104 -203 1367 689 0
-1220 -104 -204 1367 695 0
-1220 -104 -205 1367 701 0
-1220 -105 -203 1366 688 0
-1220 -105 -204 1366 694 0
-1220 -105 -205 1366 700 0
-1220 -105 -203 1367 689 0
-1220 -105 -204 1367 695 0
-1220 -105 -205 1367 701 0
-1220 -203 -640 0
-1220 -203 -664 0
-1220 -203 -712 0
-1220 -203 -646 0
-1220 -203 -670 0
-1220 -203 -718 0
-1220 -203 -652 0
-1220 -203 -676 0
-1220 -203 -724 0
-1220 -203 -641 0
-1220 -203 -665 0
-1220 -203 -713 0
-1220 -203 -647 0
-1220 -203 -671 0
-1220 -203 -719 0
-1220 -203 -653 0
-1220 -203 -677 0
-1220 -203 -725 0
-1220 -204 -646 0
-1220 -204 -670 0
-1220 -204 -718 0
-1220 -204 -652 0
-1220 -204 -676 0
-1220 -204 -724 0
-1220 -204 -647 0
-1220 -204 -671 0
-1220 -204 -719 0
-1220 -204 -653 0
-1220 -204 -677 0
-1220 -204 -725 0
-1220 -205 -652 0
-1220 -205 -676 0
-1220 -205 -724 0
-1220 -205 -653 0
-1220 -205 -677 0
-1220 -205 -725 0
-1220 -206 0
-1220 121 0
-1220 -203 216 0
-1220 -204 217 0
-1220 -205 218 0
-1220 -246 0
-1221 241 0
-1221 -101 -203 -200 0
-1221 -101 -204 -201 0
-1221 -101 -205 -202 0
-1221 104 105 0
-1221 -104 -203 1367 689 0
-1221 -104 -204 1367 695 0
-1221 -104 -205 1367 701 0
-1221 -105 -203 1367 689 0
-1221 -105 -204 1367 695 0
-1221 -105 -205 1367 701 0
-1221 -105 -203 1368 690 0
-1221 -105 -204 1368 696 0
-1221 -105 -205 1368 702 0
-1221 -203 -641 0
-1221 -203 -665 0
-1221 -203 -713 0
-1221 -203 -647 0
-1221 -203 -671 0
-1221 -203 -719 0
-1221 -203 -653 0
-1221 -203 -677 0
-1221 -203 -725 0
-1221 -203 -642 0
-1221 -203 -666 0
-1221 -203 -714 0
-1221 -203 -648 0
-1221 -203 -672 0
-1221 -203 -720 0
-1221 -203 -654 0
-1221 -203 -678 0
-1221 -203 -726 0
-1221 -204 -647 0
-1221 -204 -671 0
-1221 -204 -719 0
-1221 -204 -653 0
-1221 -204 -677 0
-1221 -204 -725 0
-1221 -204 -648 0
-1221 -204 -672 0
-1221 -204 -720 0
-1221 -204 -654 0
-1221 -204 -678 0
-1221 -204 -726 0
-1221 -205 -653 0
-1221 -205 -677 0
-1221 -205 -725 0
-1221 -205 -654 0
-1221 -205 -678 0
-1221 -205 -726 0
-1221 -206 0
-1221 122 0
-1221 -203 216 0
-1221 -204 217 0
-1221 -205 218 0
-1221 -246 0
-1222 241 0
-1222 -97 -199 0
-1222 -631 0
-1222 -655 0
-1222 -703 0
-1222 -637 0
-1222 -661 0
-1222 -709 0
-1222 -643 0
-1222 -667 0
-1222 -715 0
-1222 -649 0
-1222 -673 0
-1222 -721 0
-1222 -632 0
-1222 -656 0
-1222 -704 0
-1222 -638 0
-1222 -662 0
-1222 -710 0
-1222 -644 0
-1222 -668 0
-1222 -716 0
-1222 -650 0
-1222 -674 0
-1222 -722 0
-1222 118 0
-1222 215 0
-1223 241 0
-1223 -98 -199 0
-1223 -632 0
-1223 -656 0
-1223 -704 0
-1223 -638 0
-1223 -662 0
-1223 -710 0
-1223 -644 0
-1223 -668 0
-1223 -716 0
-1223 -650 0
-1223 -674 0
-1223 -722 0
-1223 -633 0
-1223 -657 0
-1223 -705 0
-1223 -639 0
-1223 -663 0
-1223 -711 0
-1223 -645 0
-1223 -669 0
-1223 -717 0
-1223 -651 0
-1223 -675 0
-1223 -723 0
-1223 119 0
-1223 215 0
-1224 241 0
-1224 -99 -199 0
-1224 -633 0
-1224 -657 0
-1224 -705 0
-1224 -639 0
-1224 -663 0
-1224 -711 0
-1224 -645 0
-1224 -669 0
-1224 -717 0
-1224 -651 0
-1224 -675 0
-1224 -723 0
-1224 -634 0
-1224 -658 0
-1224 -706 0
-1224 -640 0
-1224 -664 0
-1224 -712 0
-1224 -646 0
-1224 -670 0
-1224 -718 0
-1224 -652 0
-1224 -676 0
-1224 -724 0
-1224 120 0
-1224 215 0
-1225 241 0
-1225 -100 -199 0
-1225 -634 0
-1225 -658 0
-1225 -706 0
-1225 -640 0
-1225 -664 0
-1225 -712 0
-1225 -646 0
-1225 -670 0
-1225 -718 0
-1225 -652 0
-1225 -676 0
-1225 -724 0
-1225 -635 0
-1225 -659 0
-1225 -707 0
-1225 -641 0
-1225 -665 0
-1225 -713 0
-1225 -647 0
-1225 -671 0
-1225 -719 0
-1225 -653 0
-1225 -677 0
-1225 -725 0
-1225 121 0
-1225 215 0
-1226 241 0
-1226 -101 -199 0
-1226 -635 0
-1226 -659 0
-1226 -707 0
-1226 -641 0
-1226 -665 0
-1226 -713 0
-1226 -647 0
-1226 -671 0
-1226 -719 0
-1226 -653 0
-1226 -677 0
-1226 -725 0
-1226 -636 0
-1226 -660 0
-1226 -708 0
-1226 -642 0
-1226 -666 0
-1226 -714 0
-1226 -648 0
-1226 -672 0
-1226 -720 0
-1226 -654 0
-1226 -678 0
-1226 -726 0
-1226 122 0
-1226 215 0
-1227 242 0
-1227 -102 -191 -204 0
-1227 -102 -192 -205 0
-1227 -102 -193 -206 0
-1227 85 86 87 0
-1227 -85 -191 1345 709 0
-1227 -85 -192 1345 715 0
-1227 -85 -193 1345 721 0
-1227 -86 -191 1346 710 0
-1227 -86 -192 1346 716 0
-1227 -86 -193 1346 722 0
-1227 -87 -191 1347 711 0
-1227 -87 -192 1347 717 0
-1227 -87 -193 1347 723 0
-1227 -191 -637 0
-1227 -191 -661 0
-1227 -191 -685 0
-1227 -191 -643 0
-1227 -191 -667 0
-1227 -191 -691 0
-1227 -191 -649 0
-1227 -191 -673 0
-1227 -191 -697 0
-1227 -191 -638 0
-1227 -191 -662 0
-1227 -191 -686 0
-1227 -191 -644 0
-1227 -191 -668 0
-1227 -191 -692 0
-1227 -191 -650 0
-1227 -191 -674 0
-1227 -191 -698 0
-1227 -191 -639 0
-1227 -191 -663 0
-1227 -191 -687 0
-1227 -191 -645 0
-1227 -191 -669 0
-1227 -191 -693 0
-1227 -191 -651 0
-1227 -191 -675 0
-1227 -191 -699 0
-1227 -192 -643 0
-1227 -192 -667 0
-1227 -192 -691 0
-1227 -192 -649 0
-1227 -192 -673 0
-1227 -192 -697 0
-1227 -192 -644 0
-1227 -192 -668 0
-1227 -192 -692 0
-1227 -192 -650 0
-1227 -192 -674 0
-1227 -192 -698 0
-1227 -192 -645 0
-1227 -192 -669 0
-1227 -192 -693 0
-1227 -192 -651 0
-1227 -192 -675 0
-1227 -192 -699 0
-1227 -193 -649 0
-1227 -193 -673 0
-1227 -193 -697 0
-1227 -193 -650 0
-1227 -193 -674 0
-1227 -193 -698 0
-1227 -193 -651 0
-1227 -193 -675 0
-1227 -193 -699 0
-1227 -194 0
-1227 123 0
-1227 -191 220 0
-1227 -192 221 0
-1227 -193 222 0
-1227 -243 0
-1228 242 0
-1228 -103 -191 -204 0
-1228 -103 -192 -205 0
-1228 -103 -193 -206 0
-1228 86 87 88 0
-1228 -86 -191 1346 710 0
-1228 -86 -192 1346 716 0
-1228 -86 -193 1346 722 0
-1228 -87 -191 1347 711 0
-1228 -87 -192 1347 717 0
-1228 -87 -193 1347 723 0
-1228 -88 -191 1348 712 0
-1228 -88 -192 1348 718 0
-1228 -88 -193 1348 724 0
-1228 -191 -638 0
-1228 -191 -662 0
-1228 -191 -686 0
-1228 -191 -644 0
-1228 -191 -668 0
-1228 -191 -692 0
-1228 -191 -650 0
-1228 -191 -674 0
-1228 -191 -698 0
-1228 -191 -639 0
-1228 -191 -663 0
-1228 -191 -687 0
-1228 -191 -645 0
-1228 -191 -669 0
-1228 -191 -693 0
-1228 -191 -651 0
-1228 -191 -675 0
-1228 -191 -699 0
-1228 -191 -640 0
-1228 -191 -664 0
-1228 -191 -688 0
-1228 -191 -646 0
-1228 -191 -670 0
-1228 -191 -694 0
-1228 -191 -652 0
-1228 -191 -676 0
-1228 -191 -700 0
-1228 -192 -644 0
-1228 -192 -668 0
-1228 -192 -692 0
-1228 -192 -650 0
-1228 -192 -674 0
-1228 -192 -698 0
-1228 -192 -645 0
-1228 -192 -669 0
-1228 -192 -693 0
-1228 -192 -651 0
-1228 -192 -675 0
-1228 -192 -699 0
-1228 -192 -646 0
-1228 -192 -670 0
-1228 -192 -694 0
-1228 -192 -652 0
-1228 -192 -676 0
-1228 -192 -700 0
-1228 -193 -650 0
-1228 -193 -674 0
-1228 -193 -698 0
-1228 -193 -651 0
-1228 -193 -675 0
-1228 -193 -699 0
-1228 -193 -652 0
-1228 -193 -676 0
-1228 -193 -700 0
-1228 -194 0
-1228 124 0
-1228 -191 220 0
-1228 -192 221 0
-1228 -193 222 0
-1228 -243 0
-1229 242 0
-1229 -104 -191 -204 0
-1229 -104 -192 -205 0
-1229 -104 -193 -206 0
-1229 87 88 89 0
-1229 -87 -191 1347 711 0
-1229 -87 -192 1347 717 0
-1229 -87 -193 1347 723 0
-1229 -88 -191 1348 712 0
-1229 -88 -192 1348 718 0
-1229 -88 -193 1348 724 0
-1229 -89 -191 1349 713 0
-1229 -89 -192 1349 719 0
-1229 -89 -193 1349 725 0
-1229 -191 -639 0
-1229 -191 -663 0
-1229 -191 -687 0
-1229 -191 -645 0
-1229 -191 -669 0
-1229 -191 -693 0
-1229 -191 -651 0
-1229 -191 -675 0
-1229 -191 -699 0
-1229 -191 -640 0
-1229 -191 -664 0
-1229 -191 -688 0
-1229 -191 -646 0
-1229 -191 -670 0
-1229 -191 -694 0
-1229 -191 -652 0
-1229 -191 -676 0
-1229 -191 -700 0
-1229 -191 -641 0
-1229 -191 -665 0
-1229 -191 -689 0
-1229 -191 -647 0
-1229 -191 -671 0
-1229 -191 -695 0
-1229 -191 -653 0
-1229 -191 -677 0
-1229 -191 -701 0
-1229 -192 -645 0
-1229 -192 -669 0
-1229 -192 -693 0
-1229 -192 -651 0
-1229 -192 -675 0
-1229 -192 -699 0
-1229 -192 -646 0
-1229 -192 -670 0
-1229 -192 -694 0
-1229 -192 -652 0
-1229 -192 -676 0
-1229 -192 -700 0
-1229 -192 -647 0
-1229 -192 -671 0
-1229 -192 -695 0
-1229 -192 -653 0
-1229 -192 -677 0
-1229 -192 -701 0
-1229 -193 -651 0
-1229 -193 -675 0
-1229 -193 -699 0
-1229 -193 -652 0
-1229 -193 -676 0
-1229 -193 -700 0
-1229 -193 -653 0
-1229 -193 -677 0
-1229 -193 -701 0
-1229 -194 0
-1229 125 0
-1229 -191 220 0
-1229 -192 221 0
-1229 -193 222 0
-1229 -243 0
-1230 242 0
-1230 -105 -191 -204 0
-1230 -105 -192 -205 0
-1230 -105 -193 -206 0
-1230 88 89 90 0
-1230 -88 -191 1348 712 0
-1230 -88 -192 1348 718 0
-1230 -88 -193 1348 724 0
-1230 -89 -191 1349 713 0
-1230 -89 -192 1349 719 0
-1230 -89 -193 1349 725 0
-1230 -90 -191 1350 714 0
-1230 -90 -192 1350 720 0
-1230 -90 -193 1350 726 0
-1230 -191 -640 0
-1230 -191 -664 0
-1230 -191 -688 0
-1230 -191 -646 0
-1230 -191 -670 0
-1230 -191 -694 0
-1230 -191 -652 0
-1230 -191 -676 0
-1230 -191 -700 0
-1230 -191 -641 0
-1230 -191 -665 0
-1230 -191 -689 0
-1230 -191 -647 0
-1230 -191 -671 0
-1230 -191 -695 0
-1230 -191 -653 0
-1230 -191 -677 0
-1230 -191 -701 0
-1230 -191 -642 0
-1230 -191 -666 0
-1230 -191 -690 0
-1230 -191 -648 0
-1230 -191 -672 0
-1230 -191 -696 0
-1230 -191 -654 0
-1230 -191 -678 0
-1230 -191 -702 0
-1230 -192 -646 0
-1230 -192 -670 0
-1230 -192 -694 0
-1230 -192 -652 0
-1230 -192 -676 0
-1230 -192 -700 0
-1230 -192 -647 0
-1230 -192 -671 0
-1230 -192 -695 0
-1230 -192 -653 0
-1230 -192 -677 0
-1230 -192 -701 0
-1230 -192 -648 0
-1230 -192 -672 0
-1230 -192 -696 0
-1230 -192 -654 0
-1230 -192 -678 0
-1230 -192 -702 0
-1230 -193 -652 0
-1230 -193 -676 0
-1230 -193 -700 0
-1230 -193 -653 0
-1230 -193 -677 0
-1230 -193 -701 0
-1230 -193 -654 0
-1230 -193 -678 0
-1230 -193 -702 0
-1230 -194 0
-1230 126 0
-1230 -191 220 0
-1230 -192 221 0
-1230 -193 222 0
-1230 -243 0
-1231 242 0
-1231 -102 -195 -204 0
-1231 -102 -196 -205 0
-1231 -102 -197 -206 0
-1231 91 92 93 0
-1231 -91 -195 1351 709 0
-1231 -91 -196 1351 715 0
-1231 -91 -197 1351 721 0
-1231 -92 -195 1352 710 0
-1231 -92 -196 1352 716 0
-1231 -92 -197 1352 722 0
-1231 -93 -195 1353 711 0
-1231 -93 -196 1353 717 0
-1231 -93 -197 1353 723 0
-1231 -195 -637 0
-1231 -195 -661 0
-1231 -195 -685 0
-1231 -195 -643 0
-1231 -195 -667 0
-1231 -195 -691 0
-1231 -195 -649 0
-1231 -195 -673 0
-1231 -195 -697 0
-1231 -195 -638 0
-1231 -195 -662 0
-1231 -195 -686 0
-1231 -195 -644 0
-1231 -195 -668 0
-1231 -195 -692 0
-1231 -195 -650 0
-1231 -195 -674 0
-1231 -195 -698 0
-1231 -195 -639 0
-1231 -195 -663 0
-1231 -195 -687 0
-1231 -195 -645 0
-1231 -195 -669 0
-1231 -195 -693 0
-1231 -195 -651 0
-1231 -195 -675 0
-1231 -195 -699 0
-1231 -196 -643 0
-1231 -196 -667 0
-1231 -196 -691 0
-1231 -196 -649 0
-1231 -196 -673 0
-1231 -196 -697 0
-1231 -196 -644 0
-1231 -196 -668 0
-1231 -196 -692 0
-1231 -196 -650 0
-1231 -196 -674 0
-1231 -196 -698 0
-1231 -196 -645 0
-1231 -196 -669 0
-1231 -196 -693 0
-1231 -196 -651 0
-1231 -196 -675 0
-1231 -196 -699 0
-1231 -197 -649 0
-1231 -197 -673 0
-1231 -197 -697 0
-1231 -197 -650 0
-1231 -197 -674 0
-1231 -197 -698 0
-1231 -197 -651 0
-1231 -197 -675 0
-1231 -197 -699 0
-1231 -198 0
-1231 123 0
-1231 -195 220 0
-1231 -196 221 0
-1231 -197 222 0
-1231 -244 0
-1232 242 0
-1232 -103 -195 -204 0
-1232 -103 -196 -205 0
-1232 -103 -197 -206 0
-1232 92 93 94 0
-1232 -92 -195 1352 710 0
-1232 -92 -196 1352 716 0
-1232 -92 -197 1352 722 0
-1232 -93 -195 1353 711 0
-1232 -93 -196 1353 717 0
-1232 -93 -197 1353 723 0
-1232 -94 -195 1354 712 0
-1232 -94 -196 1354 718 0
-1232 -94 -197 1354 724 0
-1232 -195 -638 0
-1232 -195 -662 0
-1232 -195 -686 0
-1232 -195 -644 0
-1232 -195 -668 0
-1232 -195 -692 0
-1232 -195 -650 0
-1232 -195 -674 0
-1232 -195 -698 0
-1232 -195 -639 0
-1232 -195 -663 0
-1232 -195 -687 0
-1232 -195 -645 0
-1232 -195 -669 0
-1232 -195 -693 0
-1232 -195 -651 0
-1232 -195 -675 0
-1232 -195 -699 0
-1232 -195 -640 0
-1232 -195 -664 0
-1232 -195 -688 0
-1232 -195 -646 0
-1232 -195 -670 0
-1232 -195 -694 0
-1232 -195 -652 0
-1232 -195 -676 0
-1232 -195 -700 0
-1232 -196 -644 0
-1232 -196 -668 0
-1232 -196 -692 0
-1232 -196 -650 0
-1232 -196 -674 0
-1232 -196 -698 0
-1232 -196 -645 0
-1232 -196 -669 0
-1232 -196 -693 0
-1232 -196 -651 0
-1232 -196 -675 0
-1232 -196 -699 0
-1232 -196 -646 0
-1232 -196 -670 0
-1232 -196 -694 0
-1232 -196 -652 0
-1232 -196 -676 0
-1232 -196 -700 0
-1232 -197 -650 0
-1232 -197 -674 0
-1232 -197 -698 0
-1232 -197 -651 0
-1232 -197 -675 0
-1232 -197 -699 0
-1232 -197 -652 0
-1232 -197 -676 0
-1232 -197 -700 0
-1232 -198 0
-1232 124 0
-1232 -195 220 0
-1232 -196 221 0
-1232 -197 222 0
-1232 -244 0
-1233 242 0
-1233 -104 -195 -204 0
-1233 -104 -196 -205 0
-1233 -104 -197 -206 0
-1233 93 94 95 0
-1233 -93 -195 1353 711 0
-1233 -93 -196 1353 717 0
-1233 -93 -197 1353 723 0
-1233 -94 -195 1354 712 0
-1233 -94 -196 1354 718 0
-1233 -94 -197 1354 724 0
-1233 -95 -195 1355 713 0
-1233 -95 -196 1355 719 0
-1233 -95 -197 1355 725 0
-1233 -195 -639 0
-1233 -195 -663 0
-1233 -195 -687 0
-1233 -195 -645 0
-1233 -195 -669 0
-1233 -195 -693 0
-1233 -195 -651 0
-1233 -195 -675 0
-1233 -195 -699 0
-1233 -195 -640 0
-1233 -195 -664 0
-1233 -195 -688 0
-1233 -195 -646 0
-1233 -195 -670 0
-1233 -195 -694 0
-1233 -195 -652 0
-1233 -195 -676 0
-1233 -195 -700 0
-1233 -195 -641 0
-1233 -195 -665 0
-1233 -195 -689 0
-1233 -195 -647 0
-1233 -195 -671 0
-1233 -195 -695 0
-1233 -195 -653 0
-1233 -195 -677 0
-1233 -195 -701 0
-1233 -196 -645 0
-1233 -196 -669 0
-1233 -196 -693 0
-1233 -196 -651 0
-1233 -196 -675 0
-1233 -196 -699 0
-1233 -196 -646 0
-1233 -196 -670 0
-1233 -196 -694 0
-1233 -196 -652 0
-1233 -196 -676 0
-1233 -196 -700 0
-1233 -196 -647 0
-1233 -196 -671 0
-1233 -196 -695 0
-1233 -196 -653 0
-1233 -196 -677 0
-1233 -196 -701 0
-1233 -197 -651 0
-1233 -197 -675 0
-1233 -197 -699 0
-1233 -197 -652 0
-1233 -197 -676 0
-1233 -197 -700 0
-1233 -197 -653 0
-1233 -197 -677 0
-1233 -197 -701 0
-1233 -198 0
-1233 125 0
-1233 -195 220 0
-1233 -196 221 0
-1233 -197 222 0
-1233 -244 0
-1234 242 0
-1234 -105 -195 -204 0
-1234 -105 -196 -205 0
-1234 -105 -197 -206 0
-1234 94 95 96 0
-1234 -94 -195 1354 712 0
-1234 -94 -196 1354 718 0
-1234 -94 -197 1354 724 0
-1234 -95 -195 1355 713 0
-1234 -95 -196 1355 719 0
-1234 -95 -197 1355 725 0
-1234 -96 -195 1356 714 0
-1234 -96 -196 1356 720 0
-1234 -96 -197 1356 726 0
-1234 -195 -640 0
-1234 -195 -664 0
-1234 -195 -688 0
-1234 -195 -646 0
-1234 -195 -670 0
-1234 -195 -694 0
-1234 -195 -652 0
-1234 -195 -676 0
-1234 -195 -700 0
-1234 -195 -641 0
-1234 -195 -665 0
-1234 -195 -689 0
-1234 -195 -647 0
-1234 -195 -671 0
-1234 -195 -695 0
-1234 -195 -653 0
-1234 -195 -677 0
-1234 -195 -701 0
-1234 -195 -642 0
-1234 -195 -666 0
-1234 -195 -690 0
-1234 -195 -648 0
-1234 -195 -672 0
-1234 -195 -696 0
-1234 -195 -654 0
-1234 -195 -678 0
-1234 -195 -702 0
-1234 -196 -646 0
-1234 -196 -670 0
-1234 -196 -694 0
-1234 -196 -652 0
-1234 -196 -676 0
-1234 -196 -700 0
-1234 -196 -647 0
-1234 -196 -671 0
-1234 -196 -695 0
-1234 -196 -653 0
-1234 -196 -677 0
-1234 -196 -701 0
-1234 -196 -648 0
-1234 -196 -672 0
-1234 -196 -696 0
-1234 -196 -654 0
-1234 -196 -678 0
-1234 -196 -702 0
-1234 -197 -652 0
-1234 -197 -676 0
-1234 -197 -700 0
-1234 -197 -653 0
-1234 -197 -677 0
-1234 -197 -701 0
-1234 -197 -654 0
-1234 -197 -678 0
-1234 -197 -702 0
-1234 -198 0
-1234 126 0
-1234 -195 220 0
-1234 -196 221 0
-1234 -197 222 0
-1234 -244 0
-1235 242 0
-1235 -102 -199 -204 0
-1235 -102 -200 -205 0
-1235 -102 -201 -206 0
-1235 97 98 99 0
-1235 -97 -199 1357 709 0
-1235 -97 -200 1357 715 0
-1235 -97 -201 1357 721 0
-1235 -97 -199 1358 710 0
-1235 -97 -200 1358 716 0
-1235 -97 -201 1358 722 0
-1235 -98 -199 1358 710 0
-1235 -98 -200 1358 716 0
-1235 -98 -201 1358 722 0
-1235 -98 -199 1359 711 0
-1235 -98 -200 1359 717 0
-1235 -98 -201 1359 723 0
-1235 -99 -199 1359 711 0
-1235 -99 -200 1359 717 0
-1235 -99 -201 1359 723 0
-1235 -199 -637 0
-1235 -199 -661 0
-1235 -199 -685 0
-1235 -199 -643 0
-1235 -199 -667 0
-1235 -199 -691 0
-1235 -199 -649 0
-1235 -199 -673 0
-1235 -199 -697 0
-1235 -199 -638 0
-1235 -199 -662 0
-1235 -199 -686 0
-1235 -199 -644 0
-1235 -199 -668 0
-1235 -199 -692 0
-1235 -199 -650 0
-1235 -199 -674 0
-1235 -199 -698 0
-1235 -199 -639 0
-1235 -199 -663 0
-1235 -199 -687 0
-1235 -199 -645 0
-1235 -199 -669 0
-1235 -199 -693 0
-1235 -199 -651 0
-1235 -199 -675 0
-1235 -199 -699 0
-1235 -200 -643 0
-1235 -200 -667 0
-1235 -200 -691 0
-1235 -200 -649 0
-1235 -200 -673 0
-1235 -200 -697 0
-1235 -200 -644 0
-1235 -200 -668 0
-1235 -200 -692 0
-1235 -200 -650 0
-1235 -200 -674 0
-1235 -200 -698 0
-1235 -200 -645 0
-1235 -200 -669 0
-1235 -200 -693 0
-1235 -200 -651 0
-1235 -200 -675 0
-1235 -200 -699 0
-1235 -201 -649 0
-1235 -201 -673 0
-1235 -201 -697 0
-1235 -201 -650 0
-1235 -201 -674 0
-1235 -201 -698 0
-1235 -201 -651 0
-1235 -201 -675 0
-1235 -201 -699 0
-1235 -202 0
-1235 123 0
-1235 -199 220 0
-1235 -200 221 0
-1235 -201 222 0
-1235 -245 0
-1236 242 0
-1236 -103 -199 -204 0
-1236 -103 -200 -205 0
-1236 -103 -201 -206 0
-1236 97 98 99 100 0
-1236 -97 -199 1358 710 0
-1236 -97 -200 1358 716 0
-1236 -97 -201 1358 722 0
-1236 -98 -199 1358 710 0
-1236 -98 -200 1358 716 0
-1236 -98 -201 1358 722 0
-1236 -98 -199 1359 711 0
-1236 -98 -200 1359 717 0
-1236 -98 -201 1359 723 0
-1236 -99 -199 1359 711 0
-1236 -99 -200 1359 717 0
-1236 -99 -201 1359 723 0
-1236 -99 -199 1360 712 0
-1236 -99 -200 1360 718 0
-1236 -99 -201 1360 724 0
-1236 -100 -199 1360 712 0
-1236 -100 -200 1360 718 0
-1236 -100 -201 1360 724 0
-1236 -199 -638 0
-1236 -199 -662 0
-1236 -199 -686 0
-1236 -199 -644 0
-1236 -199 -668 0
-1236 -199 -692 0
-1236 -199 -650 0
-1236 -199 -674 0
-1236 -199 -698 0
-1236 -199 -639 0
-1236 -199 -663 0
-1236 -199 -687 0
-1236 -199 -645 0
-1236 -199 -669 0
-1236 -199 -693 0
-1236 -199 -651 0
-1236 -199 -675 0
-1236 -199 -699 0
-1236 -199 -640 0
-1236 -199 -664 0
-1236 -199 -688 0
-1236 -199 -646 0
-1236 -199 -670 0
-1236 -199 -694 0
-1236 -199 -652 0
-1236 -199 -676 0
-1236 -199 -700 0
-1236 -200 -644 0
-1236 -200 -668 0
-1236 -200 -692 0
-1236 -200 -650 0
-1236 -200 -674 0
-1236 -200 -698 0
-1236 -200 -645 0
-1236 -200 -669 0
-1236 -200 -693 0
-1236 -200 -651 0
-1236 -200 -675 0
-1236 -200 -699 0
-1236 -200 -646 0
-1236 -200 -670 0
-1236 -200 -694 0
-1236 -200 -652 0
-1236 -200 -676 0
-1236 -200 -700 0
-1236 -201 -650 0
-1236 -201 -674 0
-1236 -201 -698 0
-1236 -201 -651 0
-1236 -201 -675 0
-1236 -201 -699 0
-1236 -201 -652 0
-1236 -201 -676 0
-1236 -201 -700 0
-1236 -202 0
-1236 124 0
-1236 -199 220 0
-1236 -200 221 0
-1236 -201 222 0
-1236 -245 0
-1237 242 0
-1237 -104 -199 -204 0
-1237 -104 -200 -205 0
-1237 -104 -201 -206 0
-1237 98 99 100 101 0
-1237 -98 -199 1359 711 0
-1237 -98 -200 1359 717 0
-1237 -98 -201 1359 723 0
-1237 -99 -199 1359 711 0
-1237 -99 -200 1359 717 0
-1237 -99 -201 1359 723 0
-1237 -99 -199 1360 712 0
-1237 -99 -200 1360 718 0
-1237 -99 -201 1360 724 0
-1237 -100 -199 1360 712 0
-1237 -100 -200 1360 718 0
-1237 -100 -201 1360 724 0
-1237 -100 -199 1361 713 0
-1237 -100 -200 1361 719 0
-1237 -100 -201 1361 725 0
-1237 -101 -199 1361 713 0
-1237 -101 -200 1361 719 0
-1237 -101 -201 1361 725 0
-1237 -199 -639 0
-1237 -199 -663 0
-1237 -199 -687 0
-1237 -199 -645 0
-1237 -199 -669 0
-1237 -199 -693 0
-1237 -199 -651 0
-1237 -199 -675 0
-1237 -199 -699 0
-1237 -199 -640 0
-1237 -199 -664 0
-1237 -199 -688 0
-1237 -199 -646 0
-1237 -199 -670 0
-1237 -199 -694 0
-1237 -199 -652 0
-1237 -199 -676 0
-1237 -199 -700 0
-1237 -199 -641 0
-1237 -199 -665 0
-1237 -199 -689 0
-1237 -199 -647 0
-1237 -199 -671 0
-1237 -199 -695 0
-1237 -199 -653 0
-1237 -199 -677 0
-1237 -199 -701 0
-1237 -200 -645 0
-1237 -200 -669 0
-1237 -200 -693 0
-1237 -200 -651 0
-1237 -200 -675 0
-1237 -200 -699 0
-1237 -200 -646 0
-1237 -200 -670 0
-1237 -200 -694 0
-1237 -200 -652 0
-1237 -200 -676 0
-1237 -200 -700 0
-1237 -200 -647 0
-1237 -200 -671 0
-1237 -200 -695 0
-1237 -200 -653 0
-1237 -200 -677 0
-1237 -200 -701 0
-1237 -201 -651 0
-1237 -201 -675 0
-1237 -201 -699 0
-1237 -201 -652 0
-1237 -201 -676 0
-1237 -201 -700 0
-1237 -201 -653 0
-1237 -201 -677 0
-1237 -201 -701 0
-1237 -202 0
-1237 125 0
-1237 -199 220 0
-1237 -200 221 0
-1237 -201 222 0
-1237 -245 0
-1238 242 0
-1238 -105 -199 -204 0
-1238 -105 -200 -205 0
-1238 -105 -201 -206 0
-1238 99 100 101 0
-1238 -99 -199 1360 712 0
-1238 -99 -200 1360 718 0
-1238 -99 -201 1360 724 0
-1238 -100 -199 1360 712 0
-1238 -100 -200 1360 718 0
-1238 -100 -201 1360 724 0
-1238 -100 -199 1361 713 0
-1238 -100 -200 1361 719 0
-1238 -100 -201 1361 725 0
-1238 -101 -199 1361 713 0
-1238 -101 -200 1361 719 0
-1238 -101 -201 1361 725 0
-1238 -101 -199 1362 714 0
-1238 -101 -200 1362 720 0
-1238 -101 -201 1362 726 0
-1238 -199 -640 0
-1238 -199 -664 0
-1238 -199 -688 0
-1238 -199 -646 0
-1238 -199 -670 0
-1238 -199 -694 0
-1238 -199 -652 0
-1238 -199 -676 0
-1238 -199 -700 0
-1238 -199 -641 0
-1238 -199 -665 0
-1238 -199 -689 0
-1238 -199 -647 0
-1238 -199 -671 0
-1238 -199 -695 0
-1238 -199 -653 0
-1238 -199 -677 0
-1238 -199 -701 0
-1238 -199 -642 0
-1238 -199 -666 0
-1238 -199 -690 0
-1238 -199 -648 0
-1238 -199 -672 0
-1238 -199 -696 0
-1238 -199 -654 0
-1238 -199 -678 0
-1238 -199 -702 0
-1238 -200 -646 0
-1238 -200 -670 0
-1238 -200 -694 0
-1238 -200 -652 0
-1238 -200 -676 0
-1238 -200 -700 0
-1238 -200 -647 0
-1238 -200 -671 0
-1238 -200 -695 0
-1238 -200 -653 0
-1238 -200 -677 0
-1238 -200 -701 0
-1238 -200 -648 0
-1238 -200 -672 0
-1238 -200 -696 0
-1238 -200 -654 0
-1238 -200 -678 0
-1238 -200 -702 0
-1238 -201 -652 0
-1238 -201 -676 0
-1238 -201 -700 0
-1238 -201 -653 0
-1238 -201 -677 0
-1238 -201 -701 0
-1238 -201 -654 0
-1238 -201 -678 0
-1238 -201 -702 0
-1238 -202 0
-1238 126 0
-1238 -199 220 0
-1238 -200 221 0
-1238 -201 222 0
-1238 -245 0
-1239 242 0
-1239 -102 -203 0
-1239 -631 0
-1239 -655 0
-1239 -679 0
-1239 -637 0
-1239 -661 0
-1239 -685 0
-1239 -643 0
-1239 -667 0
-1239 -691 0
-1239 -649 0
-1239 -673 0
-1239 -697 0
-1239 -632 0
-1239 -656 0
-1239 -680 0
-1239 -638 0
-1239 -662 0
-1239 -686 0
-1239 -644 0
-1239 -668 0
-1239 -692 0
-1239 -650 0
-1239 -674 0
-1239 -698 0
-1239 -633 0
-1239 -657 0
-1239 -681 0
-1239 -639 0
-1239 -663 0
-1239 -687 0
-1239 -645 0
-1239 -669 0
-1239 -693 0
-1239 -651 0
-1239 -675 0
-1239 -699 0
-1239 123 0
-1239 219 0
-1240 242 0
-1240 -103 -203 0
-1240 -632 0
-1240 -656 0
-1240 -680 0
-1240 -638 0
-1240 -662 0
-1240 -686 0
-1240 -644 0
-1240 -668 0
-1240 -692 0
-1240 -650 0
-1240 -674 0
-1240 -698 0
-1240 -633 0
-1240 -657 0
-1240 -681 0
-1240 -639 0
-1240 -663 0
-1240 -687 0
-1240 -645 0
-1240 -669 0
-1240 -693 0
-1240 -651 0
-1240 -675 0
-1240 -699 0
-1240 -634 0
-1240 -658 0
-1240 -682 0
-1240 -640 0
-1240 -664 0
-1240 -688 0
-1240 -646 0
-1240 -670 0
-1240 -694 0
-1240 -652 0
-1240 -676 0
-1240 -700 0
-1240 124 0
-1240 219 0
-1241 242 0
-1241 -104 -203 0
-1241 -633 0
-1241 -657 0
-1241 -681 0
-1241 -639 0
-1241 -663 0
-1241 -687 0
-1241 -645 0
-1241 -669 0
-1241 -693 0
-1241 -651 0
-1241 -675 0
-1241 -699 0
-1241 -634 0
-1241 -658 0
-1241 -682 0
-1241 -640 0
-1241 -664 0
-1241 -688 0
-1241 -646 0
-1241 -670 0
-1241 -694 0
-1241 -652 0
-1241 -676 0
-1241 -700 0
-1241 -635 0
-1241 -659 0
-1241 -683 0
-1241 -641 0
-1241 -665 0
-1241 -689 0
-1241 -647 0
-1241 -671 0
-1241 -695 0
-1241 -653 0
-1241 -677 0
-1241 -701 0
-1241 125 0
-1241 219 0
-1242 242 0
-1242 -105 -203 0
-1242 -634 0
-1242 -658 0
-1242 -682 0
-1242 -640 0
-1242 -664 0
-1242 -688 0
-1242 -646 0
-1242 -670 0
-1242 -694 0
-1242 -652 0
-1242 -676 0
-1242 -700 0
-1242 -635 0
-1242 -659 0
-1242 -683 0
-1242 -641 0
-1242 -665 0
-1242 -689 0
-1242 -647 0
-1242 -671 0
-1242 -695 0
-1242 -653 0
-1242 -677 0
-1242 -701 0
-1242 -636 0
-1242 -660 0
-1242 -684 0
-1242 -642 0
-1242 -666 0
-1242 -690 0
-1242 -648 0
-1242 -672 0
-1242 -696 0
-1242 -654 0
-1242 -678 0
-1242 -702 0
-1242 126 0
-1242 219 0
85 -106 1159 1160 1161 1162 1163 1164 1165 1166 1167 1168 1169 1170 1171 1172 1173 1174 1175 1176 1177 1178 1179 1180 1181 1182 0
-85 106 1159 1160 1161 1162 1163 1164 1165 1166 1167 1168 1169 1170 1171 1172 1173 1174 1175 1176 1177 1178 1179 1180 1181 1182 0
86 -107 1159 1160 1161 1162 1163 1164 1165 1166 1167 1168 1169 1170 1171 1172 1173 1174 1175 1176 1177 1178 1179 1180 1181 1182 0
-86 107 1159 1160 1161 1162 1163 1164 1165 1166 1167 1168 1169 1170 1171 1172 1173 1174 1175 1176 1177 1178 1179 1180 1181 1182 0
87 -108 1159 1160 1161 1162 1163 1164 1165 1166 1167 1168 1169 1170 1171 1172 1173 1174 1175 1176 1177 1178 1179 1180 1181 1182 0
-87 108 1159 1160 1161 1162 1163 1164 1165 1166 1167 1168 1169 1170 1171 1172 1173 1174 1175 1176 1177 1178 1179 1180 1181 1182 0
88 -109 1159 1160 1161 1162 1163 1164 1165 1166 1167 1168 1169 1170 1171 1172 1173 1174 1175 1176 1177 1178 1179 1180 1181 1182 0
-88 109 1159 1160 1161 1162 1163 1164 1165 1166 1167 1168 1169 1170 1171 1172 1173 1174 1175 1176 1177 1178 1179 1180 1181 1182 0
89 -110 1159 1160 1161 1162 1163 1164 1165 1166 1167 1168 1169 1170 1171 1172 1173 1174 1175 1176 1177 1178 1179 1180 1181 1182 0
-89 110 1159 1160 1161 1162 1163 1164 1165 1166 1167 1168 1169 1170 1171 1172 1173 1174 1175 1176 1177 1178 1179 1180 1181 1182 0
90 -111 1159 1160 1161 1162 1163 1164 1165 1166 1167 1168 1169 1170 1171 1172 1173 1174 1175 1176 1177 1178 1179 1180 1181 1182 0
-90 111 1159 1160 1161 1162 1163 1164 1165 1166 1167 1168 1169 1170 1171 1172 1173 1174 1175 1176 1177 1178 1179 1180 1181 1182 0
191 -207 1159 1160 1161 1162 1163 1164 1165 1166 1167 1168 1169 1170 1171 1172 1173 1174 1175 1176 1177 1178 1179 1180 1181 1182 0
-191 207 1159 1160 1161 1162 1163 1164 1165 1166 1167 1168 1169 1170 1171 1172 1173 1174 1175 1176 1177 1178 1179 1180 1181 1182 0
192 -208 1159 1160 1161 1162 1163 1164 1165 1166 1167 1168 1169 1170 1171 1172 1173 1174 1175 1176 1177 1178 1179 1180 1181 1182 0
-192 208 1159 1160 1161 1162 1163 1164 1165 1166 1167 1168 1169 1170 1171 1172 1173 1174 1175 1176 1177 1178 1179 1180 1181 1182 0
193 -209 1159 1160 1161 1162 1163 1164 1165 1166 1167 1168 1169 1170 1171 1172 1173 1174 1175 1176 1177 1178 1179 1180 1181 1182 0
-193 209 1159 1160 1161 1162 1163 1164 1165 1166 1167 1168 1169 1170 1171 1172 1173 1174 1175 1176 1177 1178 1179 1180 1181 1182 0
194 -210 1159 1160 1161 1162 1163 1164 1165 1166 1167 1168 1169 1170 1171 1172 1173 1174 1175 1176 1177 1178 1179 1180 1181 1182 0
-194 210 1159 1160 1161 1162 1163 1164 1165 1166 1167 1168 1169 1170 1171 1172 1173 1174 1175 1176 1177 1178 1179 1180 1181 1182 0
91 -112 1183 1184 1185 1186 1187 1188 1189 1190 1191 1192 1193 1194 1195 1196 1197 1198 1199 1200 1201 1202 1203 1204 1205 1206 0
-91 112 1183 1184 1185 1186 1187 1188 1189 1190 1191 1192 1193 1194 1195 1196 1197 1198 1199 1200 1201 1202 1203 1204 1205 1206 0
92 -113 1183 1184 1185 1186 1187 1188 1189 1190 1191 1192 1193 1194 1195 1196 1197 1198 1199 1200 1201 1202 1203 1204 1205 1206 0
-92 113 1183 1184 1185 1186 1187 1188 1189 1190 1191 1192 1193 1194 1195 1196 1197 1198 1199 1200 1201 1202 1203 1204 1205 1206 0
93 -114 1183 1184 1185 1186 1187 1188 1189 1190 1191 1192 1193 1194 1195 1196 1197 1198 1199 1200 1201 1202 1203 1204 1205 1206 0
-93 114 1183 1184 1185 1186 1187 1188 1189 1190 1191 1192 1193 1194 1195 1196 1197 1198 1199 1200 1201 1202 1203 1204 1205 1206 0
94 -115 1183 1184 1185 1186 1187 1188 1189 1190 1191 1192 1193 1194 1195 1196 1197 1198 1199 1200 1201 1202 1203 1204 1205 1206 0
-94 115 1183 1184 1185 1186 1187 1188 1189 1190 1191 1192 1193 1194 1195 1196 1197 1198 1199 1200 1201 1202 1203 1204 1205 1206 0
95 -116 1183 1184 1185 1186 1187 1188 1189 1190 1191 1192 1193 1194 1195 1196 1197 1198 1199 1200 1201 1202 1203 1204 1205 1206 0
-95 116 1183 1184 1185 1186 1187 1188 1189 1190 1191 1192 1193 1194 1195 1196 1197 1198 1199 1200 1201 1202 1203 1204 1205 1206 0
96 -117 1183 1184 1185 1186 1187 1188 1189 1190 1191 1192 1193 1194 1195 1196 1197 1198 1199 1200 1201 1202 1203 1204 1205 1206 0
-96 117 1183 1184 1185 1186 1187 1188 1189 1190 1191 1192 1193 1194 1195 1196 1197 1198 1199 1200 1201 1202 1203 1204 1205 1206 0
195 -211 1183 1184 1185 1186 1187 1188 1189 1190 1191 1192 1193 1194 1195 1196 1197 1198 1199 1200 1201 1202 1203 1204 1205 1206 0
-195 211 1183 1184 1185 1186 1187 1188 1189 1190 1191 1192 1193 1194 1195 1196 1197 1198 1199 1200 1201 1202 1203 1204 1205 1206 0
196 -212 1183 1184 1185 1186 1187 1188 1189 1190 1191 1192 1193 1194 1195 1196 1197 1198 1199 1200 1201 1202 1203 1204 1205 1206 0
-196 212 1183 1184 1185 1186 1187 1188 1189 1190 1191 1192 1193 1194 1195 1196 1197 1198 1199 1200 1201 1202 1203 1204 1205 1206 0
197 -213 1183 1184 1185 1186 1187 1188 1189 1190 1191 1192 1193 1194 1195 1196 1197 1198 1199 1200 1201 1202 1203 1204 1205 1206 0
-197 213 1183 1184 1185 1186 1187 1188 1189 1190 1191 1192 1193 1194 1195 1196 1197 1198 1199 1200 1201 1202 1203 1204 1205 1206 0
198 -214 1183 1184 1185 1186 1187 1188 1189 1190 1191 1192 1193 1194 1195 1196 1197 1198 1199 1200 1201 1202 1203 1204 1205 1206 0
-198 214 1183 1184 1185 1186 1187 1188 1189 1190 1191 1192 1193 1194 1195 1196 1197 1198 1199 1200 1201 1202 1203 1204 1205 1206 0
97 -118 1207 1208 1209 1210 1211 1212 1213 1214 1215 1216 1217 1218 1219 1220 1221 1222 1223 1224 1225 1226 0
-97 118 1207 1208 1209 1210 1211 1212 1213 1214 1215 1216 1217 1218 1219 1220 1221 1222 1223 1224 1225 1226 0
98 -119 1207 1208 1209 1210 1211 1212 1213 1214 1215 1216 1217 1218 1219 1220 1221 1222 1223 1224 1225 1226 0
-98 119 1207 1208 1209 1210 1211 1212 1213 1214 1215 1216 1217 1218 1219 1220 1221 1222 1223 1224 1225 1226 0
99 -120 1207 1208 1209 1210 1211 1212 1213 1214 1215 1216 1217 1218 1219 1220 1221 1222 1223 1224 1225 1226 0
-99 120 1207 1208 1209 1210 1211 1212 1213 1214 1215 1216 1217 1218 1219 1220 1221 1222 1223 1224 1225 1226 0
100 -121 1207 1208 1209 1210 1211 1212 1213 1214 1215 1216 1217 1218 1219 1220 1221 1222 1223 1224 1225 1226 0
-100 121 1207 1208 1209 1210 1211 1212 1213 1214 1215 1216 1217 1218 1219 1220 1221 1222 1223 1224 1225 1226 0
101 -122 1207 1208 1209 1210 1211 1212 1213 1214 1215 1216 1217 1218 1219 1220 1221 1222 1223 1224 1225 1226 0
-101 122 1207 1208 1209 1210 1211 1212 1213 1214 1215 1216 1217 1218 1219 1220 1221 1222 1223 1224 1225 1226 0
199 -215 1207 1208 1209 1210 1211 1212 1213 1214 1215 1216 1217 1218 1219 1220 1221 1222 1223 1224 1225 1226 0
-199 215 1207 1208 1209 1210 1211 1212 1213 1214 1215 1216 1217 1218 1219 1220 1221 1222 1223 1224 1225 1226 0
200 -216 1207 1208 1209 1210 1211 1212 1213 1214 1215 1216 1217 1218 1219 1220 1221 1222 1223 1224 1225 1226 0
-200 216 1207 1208 1209 1210 1211 1212 1213 1214 1215 1216 1217 1218 1219 1220 1221 1222 1223 1224 1225 1226 0
201 -217 1207 1208 1209 1210 1211 1212 1213 1214 1215 1216 1217 1218 1219 1220 1221 1222 1223 1224 1225 1226 0
-201 217 1207 1208 1209 1210 1211 1212 1213 1214 1215 1216 1217 1218 1219 1220 1221 1222 1223 1224 1225 1226 0
202 -218 1207 1208 1209 1210 1211 1212 1213 1214 1215 1216 1217 1218 1219 1220 1221 1222 1223 1224 1225 1226 0
-202 218 1207 1208 1209 1210 1211 1212 1213 1214 1215 1216 1217 1218 1219 1220 1221 1222 1223 1224 1225 1226 0
102 -123 1227 1228 1229 1230 1231 1232 1233 1234 1235 1236 1237 1238 1239 1240 1241 1242 0
-102 123 1227 1228 1229 1230 1231 1232 1233 1234 1235 1236 1237 1238 1239 1240 1241 1242 0
103 -124 1227 1228 1229 1230 1231 1232 1233 1234 1235 1236 1237 1238 1239 1240 1241 1242 0
-103 124 1227 1228 1229 1230 1231 1232 1233 1234 1235 1236 1237 1238 1239 1240 1241 1242 0
104 -125 1227 1228 1229 1230 1231 1232 1233 1234 1235 1236 1237 1238 1239 1240 1241 1242 0
-104 125 1227 1228 1229 1230 1231 1232 1233 1234 1235 1236 1237 1238 1239 1240 1241 1242 0
105 -126 1227 1228 1229 1230 1231 1232 1233 1234 1235 1236 1237 1238 1239 1240 1241 1242 0
-105 126 1227 1228 1229 1230 1231 1232 1233 1234 1235 1236 1237 1238 1239 1240 1241 1242 0
203 -219 1227 1228 1229 1230 1231 1232 1233 1234 1235 1236 1237 1238 1239 1240 1241 1242 0
-203 219 1227 1228 1229 1230 1231 1232 1233 1234 1235 1236 1237 1238 1239 1240 1241 1242 0
204 -220 1227 1228 1229 1230 1231 1232 1233 1234 1235 1236 1237 1238 1239 1240 1241 1242 0
-204 220 1227 1228 1229 1230 1231 1232 1233 1234 1235 1236 1237 1238 1239 1240 1241 1242 0
205 -221 1227 1228 1229 1230 1231 1232 1233 1234 1235 1236 1237 1238 1239 1240 1241 1242 0
-205 221 1227 1228 1229 1230 1231 1232 1233 1234 1235 1236 1237 1238 1239 1240 1241 1242 0
206 -222 1227 1228 1229 1230 1231 1232 1233 1234 1235 1236 1237 1238 1239 1240 1241 1242 0
-206 222 1227 1228 1229 1230 1231 1232 1233 1234 1235 1236 1237 1238 1239 1240 1241 1242 0
1159 1160 1161 1162 1163 1164 1165 1166 1167 1168 1169 1170 1171 1172 1173 1174 1175 1176 1177 1178 1179 1180 1181 1182 1183 1184 1185 1186 1187 1188 1189 1190 1191 1192 1193 1194 1195 1196 1197 1198 1199 1200 1201 1202 1203 1204 1205 1206 1207 1208 1209 1210 1211 1212 1213 1214 1215 1216 1217 1218 1219 1220 1221 1222 1223 1224 1225 1226 1227 1228 1229 1230 1231 1232 1233 1234 1235 1236 1237 1238 1239 1240 1241 1242 0
-1159 -1160 0
-1159 -1161 0
-1159 -1162 0
-1159 -1163 0
-1159 -1164 0
-1159 -1165 0
-1159 -1166 0
-1159 -1167 0
-1159 -1168 0
-1159 -1169 0
-1159 -1170 0
-1159 -1171 0
-1159 -1172 0
-1159 -1173 0
-1159 -1174 0
-1159 -1175 0
-1159 -1176 0
-1159 -1177 0
-1159 -1178 0
-1159 -1179 0
-1159 -1180 0
-1159 -1181 0
-1159 -1182 0
-1159 -1183 0
-1159 -1184 0
-1159 -1185 0
-1159 -1186 0
-1159 -1187 0
-1159 -1188 0
-1159 -1189 0
-1159 -1190 0
-1159 -1191 0
-1159 -1192 0
-1159 -1193 0
-1159 -1194 0
-1159 -1195 0
-1159 -1196 0
-1159 -1197 0
-1159 -1198 0
-1159 -1199 0
-1159 -1200 0
-1159 -1201 0
-1159 -1202 0
-1159 -1203 0
-1159 -1204 0
-1159 -1205 0
-1159 -1206 0
-1159 -1207 0
-1159 -1208 0
-1159 -1209 0
-1159 -1210 0
-1159 -1211 0
-1159 -1212 0
-1159 -1213 0
-1159 -1214 0
-1159 -1215 0
-1159 -1216 0
-1159 -1217 0
-1159 -1218 0
-1159 -1219 0
-1159 -1220 0
-1159 -1221 0
-1159 -1222 0
-1159 -1223 0
-1159 -1224 0
-1159 -1225 0
-1159 -1226 0
-1159 -1227 0
-1159 -1228 0
-1159 -1229 0
-1159 -1230 0
-1159 -1231 0
-1159 -1232 0
-1159 -1233 0
-1159 -1234 0
-1159 -1235 0
-1159 -1236 0
-1159 -1237 0
-1159 -1238 0
-1159 -1239 0
-1159 -1240 0
-1159 -1241 0
-1159 -1242 0
-1160 -1161 0
-1160 -1162 0
-1160 -1163 0
-1160 -1164 0
-1160 -1165 0
-1160 -1166 0
-1160 -1167 0
-1160 -1168 0
-1160 -1169 0
-1160 -1170 0
-1160 -1171 0
-1160 -1172 0
-1160 -1173 0
-1160 -1174 0
-1160 -1175 0
-1160 -1176 0
-1160 -1177 0
-1160 -1178 0
-1160 -1179 0
-1160 -1180 0
-1160 -1181 0
-1160 -1182 0
-1160 -1183 0
-1160 -1184 0
-1160 -1185 0
-1160 -1186 0
-1160 -1187 0
-1160 -1188 0
-1160 -1189 0
-1160 -1190 0
-1160 -1191 0
-1160 -1192 0
-1160 -1193 0
-1160 -1194 0
-1160 -1195 0
-1160 -1196 0
-1160 -1197 0
-1160 -1198 0
-1160 -1199 0
-1160 -1200 0
-1160 -1201 0
-1160 -1202 0
-1160 -1203 0
-1160 -1204 0
-1160 -1205 0
-1160 -1206 0
-1160 -1207 0
-1160 -1208 0
-1160 -1209 0
-1160 -1210 0
-1160 -1211 0
-1160 -1212 0
-1160 -1213 0
-1160 -1214 0
-1160 -1215 0
-1160 -1216 0
-1160 -1217 0
-1160 -1218 0
-1160 -1219 0
-1160 -1220 0
-1160 -1221 0
-1160 -1222 0
-1160 -1223 0
-1160 -1224 0
-1160 -1225 0
-1160 -1226 0
-1160 -1227 0
-1160 -1228 0
-1160 -1229 0
-1160 -1230 0
-1160 -1231 0
-1160 -1232 0
-1160 -1233 0
-1160 -1234 0
-1160 -1235 0
-1160 -1236 0
-1160 -1237 0
-1160 -1238 0
-1160 -1239 0
-1160 -1240 0
-1160 -1241 0
-1160 -1242 0
-1161 -1162 0
-1161 -1163 0
-1161 -1164 0
-1161 -1165 0
-1161 -1166 0
-1161 -1167 0
-1161 -1168 0
-1161 -1169 0
-1161 -1170 0
-1161 -1171 0
-1161 -1172 0
-1161 -1173 0
-1161 -1174 0
-1161 -1175 0
-1161 -1176 0
-1161 -1177 0
-1161 -1178 0
-1161 -1179 0
-1161 -1180 0
-1161 -1181 0
-1161 -1182 0
-1161 -1183 0
-1161 -1184 0
-1161 -1185 0
-1161 -1186 0
-1161 -1187 0
-1161 -1188 0
-1161 -1189 0
-1161 -1190 0
-1161 -1191 0
-1161 -1192 0
-1161 -1193 0
-1161 -1194 0
-1161 -1195 0
-1161 -1196 0
-1161 -1197 0
-1161 -1198 0
-1161 -1199 0
-1161 -1200 0
-1161 -1201 0
-1161 -1202 0
-1161 -1203 0
-1161 -1204 0
-1161 -1205 0
-1161 -1206 0
-1161 -1207 0
-1161 -1208 0
-1161 -1209 0
-1161 -1210 0
-1161 -1211 0
-1161 -1212 0
-1161 -1213 0
-1161 -1214 0
-1161 -1215 0
-1161 -1216 0
-1161 -1217 0
-1161 -1218 0
-1161 -1219 0
-1161 -1220 0
-1161 -1221 0
-1161 -1222 0
-1161 -1223 0
-1161 -1224 0
-1161 -1225 0
-1161 -1226 0
-1161 -1227 0
-1161 -1228 0
-1161 -1229 0
-1161 -1230 0
-1161 -1231 0
-1161 -1232 0
-1161 -1233 0
-1161 -1234 0
-1161 -1235 0
-1161 -1236 0
-1161 -1237 0
-1161 -1238 0
-1161 -1239 0
-1161 -1240 0
-1161 -1241 0
-1161 -1242 0
-1162 -1163 0
-1162 -1164 0
-1162 -1165 0
-1162 -1166 0
-1162 -1167 0
-1162 -1168 0
-1162 -1169 0
-1162 -1170 0
-1162 -1171 0
-1162 -1172 0
-1162 -1173 0
-1162 -1174 0
-1162 -1175 0
-1162 -1176 0
-1162 -1177 0
-1162 -1178 0
-1162 -1179 0
-1162 -1180 0
-1162 -1181 0
-1162 -1182 0
-1162 -1183 0
-1162 -1184 0
-1162 -1185 0
-1162 -1186 0
-1162 -1187 0
-1162 -1188 0
-1162 -1189 0
-1162 -1190 0
-1162 -1191 0
-1162 -1192 0
-1162 -1193 0
-1162 -1194 0
-1162 -1195 0
-1162 -1196 0
-1162 -1197 0
-1162 -1198 0
-1162 -1199 0
-1162 -1200 0
-1162 -1201 0
-1162 -1202 0
-1162 -1203 0
-1162 -1204 0
-1162 -1205 0
-1162 -1206 0
-1162 -1207 0
-1162 -1208 0
-1162 -1209 0
-1162 -1210 0
-1162 -1211 0
-1162 -1212 0
-1162 -1213 0
-1162 -1214 0
-1162 -1215 0
-1162 -1216 0
-1162 -1217 0
-1162 -1218 0
-1162 -1219 0
-1162 -1220 0
-1162 -1221 0
-1162 -1222 0
-1162 -1223 0
-1162 -1224 0
-1162 -1225 0
-1162 -1226 0
-1162 -1227 0
-1162 -1228 0
-1162 -1229 0
-1162 -1230 0
-1162 -1231 0
-1162 -1232 0
-1162 -1233 0
-1162 -1234 0
-1162 -1235 0
-1162 -1236 0
-1162 -1237 0
-1162 -1238 0
-1162 -1239 0
-1162 -1240 0
-1162 -1241 0
-1162 -1242 0
-1163 -1164 0
-1163 -1165 0
-1163 -1166 0
-1163 -1167 0
-1163 -1168 0
-1163 -1169 0
-1163 -1170 0
-1163 -1171 0
-1163 -1172 0
-1163 -1173 0
-1163 -1174 0
-1163 -1175 0
-1163 -1176 0
-1163 -1177 0
-1163 -1178 0
-1163 -1179 0
-1163 -1180 0
-1163 -1181 0
-1163 -1182 0
-1163 -1183 0
-1163 -1184 0
-1163 -1185 0
-1163 -1186 0
-1163 -1187 0
-1163 -1188 0
-1163 -1189 0
-1163 -1190 0
-1163 -1191 0
-1163 -1192 0
-1163 -1193 0
-1163 -1194 0
-1163 -1195 0
-1163 -1196 0
-1163 -1197 0
-1163 -1198 0
-1163 -1199 0
-1163 -1200 0
-1163 -1201 0
-1163 -1202 0
-1163 -1203 0
-1163 -1204 0
-1163 -1205 0
-1163 -1206 0
-1163 -1207 0
-1163 -1208 0
-1163 -1209 0
-1163 -1210 0
-1163 -1211 0
-1163 -1212 0
-1163 -1213 0
-1163 -1214 0
-1163 -1215 0
-1163 -1216 0
-1163 -1217 0
-1163 -1218 0
-1163 -1219 0
-1163 -1220 0
-1163 -1221 0
-1163 -1222 0
-1163 -1223 0
-1163 -1224 0
-1163 -1225 0
-1163 -1226 0
-1163 -1227 0
-1163 -1228 0
-1163 -1229 0
-1163 -1230 0
-1163 -1231 0
-1163 -1232 0
-1163 -1233 0
-1163 -1234 0
-1163 -1235 0
-1163 -1236 0
-1163 -1237 0
-1163 -1238 0
-1163 -1239 0
-1163 -1240 0
-1163 -1241 0
-1163 -1242 0
-1164 -1165 0
-1164 -1166 0
-1164 -1167 0
-1164 -1168 0
-1164 -1169 0
-1164 -1170 0
-1164 -1171 0
-1164 -1172 0
-1164 -1173 0
-1164 -1174 0
-1164 -1175 0
-1164 -1176 0
-1164 -1177 0
-1164 -1178 0
-1164 -1179 0
-1164 -1180 0
-1164 -1181 0
-1164 -1182 0
-1164 -1183 0
-1164 -1184 0
-1164 -1185 0
-1164 -1186 0
-1164 -1187 0
-1164 -1188 0
-1164 -1189 0
-1164 -1190 0
-1164 -1191 0
-1164 -1192 0
-1164 -1193 0
-1164 -1194 0
-1164 -1195 0
-1164 -1196 0
-1164 -1197 0
-1164 -1198 0
-1164 -1199 0
-1164 -1200 0
-1164 -1201 0
-1164 -1202 0
-1164 -1203 0
-1164 -1204 0
-1164 -1205 0
-1164 -1206 0
-1164 -1207 0
-1164 -1208 0
-1164 -1209 0
-1164 -1210 0
-1164 -1211 0
-1164 -1212 0
-1164 -1213 0
-1164 -1214 0
-1164 -1215 0
-1164 -1216 0
-1164 -1217 0
-1164 -1218 0
-1164 -1219 0
-1164 -1220 0
-1164 -1221 0
-1164 -1222 0
-1164 -1223 0
-1164 -1224 0
-1164 -1225 0
-1164 -1226 0
-1164 -1227 0
-1164 -1228 0
-1164 -1229 0
-1164 -1230 0
-1164 -1231 0
-1164 -1232 0
-1164 -1233 0
-1164 -1234 0
-1164 -1235 0
-1164 -1236 0
-1164 -1237 0
-1164 -1238 0
-1164 -1239 0
-1164 -1240 0
-1164 -1241 0
-1164 -1242 0
-1165 -1166 0
-1165 -1167 0
-1165 -1168 0
-1165 -1169 0
-1165 -1170 0
-1165 -1171 0
-1165 -1172 0
-1165 -1173 0
-1165 -1174 0
-1165 -1175 0
-1165 -1176 0
-1165 -1177 0
-1165 -1178 0
-1165 -1179 0
-1165 -1180 0
-1165 -1181 0
-1165 -1182 0
-1165 -1183 0
-1165 -1184 0
-1165 -1185 0
-1165 -1186 0
-1165 -1187 0
-1165 -1188 0
-1165 -1189 0
-1165 -1190 0
-1165 -1191 0
-1165 -1192 0
-1165 -1193 0
-1165 -1194 0
-1165 -1195 0
-1165 -1196 0
-1165 -1197 0
-1165 -1198 0
-1165 -1199 0
-1165 -1200 0
-1165 -1201 0
-1165 -1202 0
-1165 -1203 0
-1165 -1204 0
-1165 -1205 0
-1165 -1206 0
-1165 -1207 0
-1165 -1208 0
-1165 -1209 0
-1165 -1210 0
-1165 -1211 0
-1165 -1212 0
-1165 -1213 0
-1165 -1214 0
-1165 -1215 0
-1165 -1216 0
-1165 -1217 0
-1165 -1218 0
-1165 -1219 0
-1165 -1220 0
-1165 -1221 0
-1165 -1222 0
-1165 -1223 0
-1165 -1224 0
-1165 -1225 0
-1165 -1226 0
-1165 -1227 0
-1165 -1228 0
-1165 -1229 0
-1165 -1230 0
-1165 -1231 0
-1165 -1232 0
-1165 -1233 0
-1165 -1234 0
-1165 -1235 0
-1165 -1236 0
-1165 -1237 0
-1165 -1238 0
-1165 -1239 0
-1165 -1240 0
-1165 -1241 0
-1165 -1242 0
-1166 -1167 0
-1166 -1168 0
-1166 -1169 0
-1166 -1170 0
-1166 -1171 0
-1166 -1172 0
-1166 -1173 0
-1166 -1174 0
-1166 -1175 0
-1166 -1176 0
-1166 -1177 0
-1166 -1178 0
-1166 -1179 0
-1166 -1180 0
-1166 -1181 0
-1166 -1182 0
-1166 -1183 0
-1166 -1184 0
-1166 -1185 0
-1166 -1186 0
-1166 -1187 0
-1166 -1188 0
-1166 -1189 0
-1166 -1190 0
-1166 -1191 0
-1166 -1192 0
-1166 -1193 0
-1166 -1194 0
-1166 -1195 0
-1166 -1196 0
-1166 -1197 0
-1166 -1198 0
-1166 -1199 0
-1166 -1200 0
-1166 -1201 0
-1166 -1202 0
-1166 -1203 0
-1166 -1204 0
-1166 -1205 0
-1166 -1206 0
-1166 -1207 0
-1166 -1208 0
-1166 -1209 0
-1166 -1210 0
-1166 -1211 0
-1166 -1212 0
-1166 -1213 0
-1166 -1214 0
-1166 -1215 0
-1166 -1216 0
-1166 -1217 0
-1166 -1218 0
-1166 -1219 0
-1166 -1220 0
-1166 -1221 0
-1166 -1222 0
-1166 -1223 0
-1166 -1224 0
-1166 -1225 0
-1166 -1226 0
-1166 -1227 0
-1166 -1228 0
-1166 -1229 0
-1166 -1230 0
-1166 -1231 0
-1166 -1232 0
-1166 -1233 0
-1166 -1234 0
-1166 -1235 0
-1166 -1236 0
-1166 -1237 0
-1166 -1238 0
-1166 -1239 0
-1166 -1240 0
-1166 -1241 0
-1166 -1242 0
-1167 -1168 0
-1167 -1169 0
-1167 -1170 0
-1167 -1171 0
-1167 -1172 0
-1167 -1173 0
-1167 -1174 0
-1167 -1175 0
-1167 -1176 0
-1167 -1177 0
-1167 -1178 0
-1167 -1179 0
-1167 -1180 0
-1167 -1181 0
-1167 -1182 0
-1167 -1183 0
-1167 -1184 0
-1167 -1185 0
-1167 -1186 0
-1167 -1187 0
-1167 -1188 0
-1167 -1189 0
-1167 -1190 0
-1167 -1191 0
-1167 -1192 0
-1167 -1193 0
-1167 -1194 0
-1167 -1195 0
-1167 -1196 0
-1167 -1197 0
-1167 -1198 0
-1167 -1199 0
-1167 -1200 0
-1167 -1201 0
-1167 -1202 0
-1167 -1203 0
-1167 -1204 0
-1167 -1205 0
-1167 -1206 0
-1167 -1207 0
-1167 -1208 0
-1167 -1209 0
-1167 -1210 0
-1167 -1211 0
-1167 -1212 0
-1167 -1213 0
-1167 -1214 0
-1167 -1215 0
-1167 -1216 0
-1167 -1217 0
-1167 -1218 0
-1167 -1219 0
-1167 -1220 0
-1167 -1221 0
-1167 -1222 0
-1167 -1223 0
-1167 -1224 0
-1167 -1225 0
-1167 -1226 0
-1167 -1227 0
-1167 -1228 0
-1167 -1229 0
-1167 -1230 0
-1167 -1231 0
-1167 -1232 0
-1167 -1233 0
-1167 -1234 0
-1167 -1235 0
-1167 -1236 0
-1167 -1237 0
-1167 -1238 0
-1167 -1239 0
-1167 -1240 0
-1167 -1241 0
-1167 -1242 0
-1168 -1169 0
-1168 -1170 0
-1168 -1171 0
-1168 -1172 0
-1168 -1173 0
-1168 -1174 0
-1168 -1175 0
-1168 -1176 0
-1168 -1177 0
-1168 -1178 0
-1168 -1179 0
-1168 -1180 0
-1168 -1181 0
-1168 -1182 0
-1168 -1183 0
-1168 -1184 0
-1168 -1185 0
-1168 -1186 0
-1168 -1187 0
-1168 -1188 0
-1168 -1189 0
-1168 -1190 0
-1168 -1191 0
-1168 -1192 0
-1168 -1193 0
-1168 -1194 0
-1168 -1195 0
-1168 -1196 0
-1168 -1197 0
-1168 -1198 0
-1168 -1199 0
-1168 -1200 0
-1168 -1201 0
-1168 -1202 0
-1168 -1203 0
-1168 -1204 0
-1168 -1205 0
-1168 -1206 0
-1168 -1207 0
-1168 -1208 0
-1168 -1209 0
-1168 -1210 0
-1168 -1211 0
-1168 -1212 0
-1168 -1213 0
-1168 -1214 0
-1168 -1215 0
-1168 -1216 0
-1168 -1217 0
-1168 -1218 0
-1168 -1219 0
-1168 -1220 0
-1168 -1221 0
-1168 -1222 0
-1168 -1223 0
-1168 -1224 0
-1168 -1225 0
-1168 -1226 0
-1168 -1227 0
-1168 -1228 0
-1168 -1229 0
-1168 -1230 0
-1168 -1231 0
-1168 -1232 0
-1168 -1233 0
-1168 -1234 0
-1168 -1235 0
-1168 -1236 0
-1168 -1237 0
-1168 -1238 0
-1168 -1239 0
-1168 -1240 0
-1168 -1241 0
-1168 -1242 0
-1169 -1170 0
-1169 -1171 0
-1169 -1172 0
-1169 -1173 0
-1169 -1174 0
-1169 -1175 0
-1169 -1176 0
-1169 -1177 0
-1169 -1178 0
-1169 -1179 0
-1169 -1180 0
-1169 -1181 0
-1169 -1182 0
-1169 -1183 0
-1169 -1184 0
-1169 -1185 0
-1169 -1186 0
-1169 -1187 0
-1169 -1188 0
-1169 -1189 0
-1169 -1190 0
-1169 -1191 0
-1169 -1192 0
-1169 -1193 0
-1169 -1194 0
-1169 -1195 0
-1169 -1196 0
-1169 -1197 0
-1169 -1198 0
-1169 -1199 0
-1169 -1200 0
-1169 -1201 0
-1169 -1202 0
-1169 -1203 0
-1169 -1204 0
-1169 -1205 0
-1169 -1206 0
-1169 -1207 0
-1169 -1208 0
-1169 -1209 0
-1169 -1210 0
-1169 -1211 0
-1169 -1212 0
-1169 -1213 0
-1169 -1214 0
-1169 -1215 0
-1169 -1216 0
-1169 -1217 0
-1169 -1218 0
-1169 -1219 0
-1169 -1220 0
-1169 -1221 0
-1169 -1222 0
-1169 -1223 0
-1169 -1224 0
-1169 -1225 0
-1169 -1226 0
-1169 -1227 0
-1169 -1228 0
-1169 -1229 0
-1169 -1230 0
-1169 -1231 0
-1169 -1232 0
-1169 -1233 0
-1169 -1234 0
-1169 -1235 0
-1169 -1236 0
-1169 -1237 0
-1169 -1238 0
-1169 -1239 0
-1169 -1240 0
-1169 -1241 0
-1169 -1242 0
-1170 -1171 0
-1170 -1172 0
-1170 -1173 0
-1170 -1174 0
-1170 -1175 0
-1170 -1176 0
-1170 -1177 0
-1170 -1178 0
-1170 -1179 0
-1170 -1180 0
-1170 -1181 0
-1170 -1182 0
-1170 -1183 0
-1170 -1184 0
-1170 -1185 0
-1170 -1186 0
-1170 -1187 0
-1170 -1188 0
-1170 -1189 0
-1170 -1190 0
-1170 -1191 0
-1170 -1192 0
-1170 -1193 0
-1170 -1194 0
-1170 -1195 0
-1170 -1196 0
-1170 -1197 0
-1170 -1198 0
-1170 -1199 0
-1170 -1200 0
-1170 -1201 0
-1170 -1202 0
-1170 -1203 0
-1170 -1204 0
-1170 -1205 0
-1170 -1206 0
-1170 -1207 0
-1170 -1208 0
-1170 -1209 0
-1170 -1210 0
-1170 -1211 0
-1170 -1212 0
-1170 -1213 0
-1170 -1214 0
-1170 -1215 0
-1170 -1216 0
-1170 -1217 0
-1170 -1218 0
-1170 -1219 0
-1170 -1220 0
-1170 -1221 0
-1170 -1222 0
-1170 -1223 0
-1170 -1224 0
-1170 -1225 0
-1170 -1226 0
-1170 -1227 0
-1170 -1228 0
-1170 -1229 0
-1170 -1230 0
-1170 -1231 0
-1170 -1232 0
-1170 -1233 0
-1170 -1234 0
-1170 -1235 0
-1170 -1236 0
-1170 -1237 0
-1170 -1238 0
-1170 -1239 0
-1170 -1240 0
-1170 -1241 0
-1170 -1242 0
-1171 -1172 0
-1171 -1173 0
-1171 -1174 0
-1171 -1175 0
-1171 -1176 0
-1171 -1177 0
-1171 -1178 0
-1171 -1179 0
-1171 -1180 0
-1171 -1181 0
-1171 -1182 0
-1171 -1183 0
-1171 -1184 0
-1171 -1185 0
-1171 -1186 0
-1171 -1187 0
-1171 -1188 0
-1171 -1189 0
-1171 -1190 0
-1171 -1191 0
-1171 -1192 0
-1171 -1193 0
-1171 -1194 0
-1171 -1195 0
-1171 -1196 0
-1171 -1197 0
-1171 -1198 0
-1171 -1199 0
-1171 -1200 0
-1171 -1201 0
-1171 -1202 0
-1171 -1203 0
-1171 -1204 0
-1171 -1205 0
-1171 -1206 0
-1171 -1207 0
-1171 -1208 0
-1171 -1209 0
-1171 -1210 0
-1171 -1211 0
-1171 -1212 0
-1171 -1213 0
-1171 -1214 0
-1171 -1215 0
-1171 -1216 0
-1171 -1217 0
-1171 -1218 0
-1171 -1219 0
-1171 -1220 0
-1171 -1221 0
-1171 -1222 0
-1171 -1223 0
-1171 -1224 0
-1171 -1225 0
-1171 -1226 0
-1171 -1227 0
-1171 -1228 0
-1171 -1229 0
-1171 -1230 0
-1171 -1231 0
-1171 -1232 0
-1171 -1233 0
-1171 -1234 0
-1171 -1235 0
-1171 -1236 0
-1171 -1237 0
-1171 -1238 0
-1171 -1239 0
-1171 -1240 0
-1171 -1241 0
-1171 -1242 0
-1172 -1173 0
-1172 -1174 0
-1172 -1175 0
-1172 -1176 0
-1172 -1177 0
-1172 -1178 0
-1172 -1179 0
-1172 -1180 0
-1172 -1181 0
-1172 -1182 0
-1172 -1183 0
-1172 -1184 0
-1172 -1185 0
-1172 -1186 0
-1172 -1187 0
-1172 -1188 0
-1172 -1189 0
-1172 -1190 0
-1172 -1191 0
-1172 -1192 0
-1172 -1193 0
-1172 -1194 0
-1172 -1195 0
-1172 -1196 0
-1172 -1197 0
-1172 -1198 0
-1172 -1199 0
-1172 -1200 0
-1172 -1201 0
-1172 -1202 0
-1172 -1203 0
-1172 -1204 0
-1172 -1205 0
-1172 -1206 0
-1172 -1207 0
-1172 -1208 0
-1172 -1209 0
-1172 -1210 0
-1172 -1211 0
-1172 -1212 0
-1172 -1213 0
-1172 -1214 0
-1172 -1215 0
-1172 -1216 0
-1172 -1217 0
-1172 -1218 0
-1172 -1219 0
-1172 -1220 0
-1172 -1221 0
-1172 -1222 0
-1172 -1223 0
-1172 -1224 0
-1172 -1225 0
-1172 -1226 0
-1172 -1227 0
-1172 -1228 0
-1172 -1229 0
-1172 -1230 0
-1172 -1231 0
-1172 -1232 0
-1172 -1233 0
-1172 -1234 0
-1172 -1235 0
-1172 -1236 0
-1172 -1237 0
-1172 -1238 0
-1172 -1239 0
-1172 -1240 0
-1172 -1241 0
-1172 -1242 0
-1173 -1174 0
-1173 -1175 0
-1173 -1176 0
-1173 -1177 0
-1173 -1178 0
-1173 -1179 0
-1173 -1180 0
-1173 -1181 0
-1173 -1182 0
-1173 -1183 0
-1173 -1184 0
-1173 -1185 0
-1173 -1186 0
-1173 -1187 0
-1173 -1188 0
-1173 -1189 0
-1173 -1190 0
-1173 -1191 0
-1173 -1192 0
-1173 -1193 0
-1173 -1194 0
-1173 -1195 0
-1173 -1196 0
-1173 -1197 0
-1173 -1198 0
-1173 -1199 0
-1173 -1200 0
-1173 -1201 0
-1173 -1202 0
-1173 -1203 0
-1173 -1204 0
-1173 -1205 0
-1173 -1206 0
-1173 -1207 0
-1173 -1208 0
-1173 -1209 0
-1173 -1210 0
-1173 -1211 0
-1173 -1212 0
-1173 -1213 0
-1173 -1214 0
-1173 -1215 0
-1173 -1216 0
-1173 -1217 0
-1173 -1218 0
-1173 -1219 0
-1173 -1220 0
-1173 -1221 0
-1173 -1222 0
-1173 -1223 0
-1173 -1224 0
-1173 -1225 0
-1173 -1226 0
-1173 -1227 0
-1173 -1228 0
-1173 -1229 0
-1173 -1230 0
-1173 -1231 0
-1173 -1232 0
-1173 -1233 0
-1173 -1234 0
-1173 -1235 0
-1173 -1236 0
-1173 -1237 0
-1173 -1238 0
-1173 -1239 0
-1173 -1240 0
-1173 -1241 0
-1173 -1242 0
-1174 -1175 0
-1174 -1176 0
-1174 -1177 0
-1174 -1178 0
-1174 -1179 0
-1174 -1180 0
-1174 -1181 0
-1174 -1182 0
-1174 -1183 0
-1174 -1184 0
-1174 -1185 0
-1174 -1186 0
-1174 -1187 0
-1174 -1188 0
-1174 -1189 0
-1174 -1190 0
-1174 -1191 0
-1174 -1192 0
-1174 -1193 0
-1174 -1194 0
-1174 -1195 0
-1174 -1196 0
-1174 -1197 0
-1174 -1198 0
-1174 -1199 0
-1174 -1200 0
-1174 -1201 0
-1174 -1202 0
-1174 -1203 0
-1174 -1204 0
-1174 -1205 0
-1174 -1206 0
-1174 -1207 0
-1174 -1208 0
-1174 -1209 0
-1174 -1210 0
-1174 -1211 0
-1174 -1212 0
-1174 -1213 0
-1174 -1214 0
-1174 -1215 0
-1174 -1216 0
-1174 -1217 0
-1174 -1218 0
-1174 -1219 0
-1174 -1220 0
-1174 -1221 0
-1174 -1222 0
-1174 -1223 0
-1174 -1224 0
-1174 -1225 0
-1174 -1226 0
-1174 -1227 0
-1174 -1228 0
-1174 -1229 0
-1174 -1230 0
-1174 -1231 0
-1174 -1232 0
-1174 -1233 0
-1174 -1234 0
-1174 -1235 0
-1174 -1236 0
-1174 -1237 0
-1174 -1238 0
-1174 -1239 0
-1174 -1240 0
-1174 -1241 0
-1174 -1242 0
-1175 -1176 0
-1175 -1177 0
-1175 -1178 0
-1175 -1179 0
-1175 -1180 0
-1175 -1181 0
-1175 -1182 0
-1175 -1183 0
-1175 -1184 0
-1175 -1185 0
-1175 -1186 0
-1175 -1187 0
-1175 -1188 0
-1175 -1189 0
-1175 -1190 0
-1175 -1191 0
-1175 -1192 0
-1175 -1193 0
-1175 -1194 0
-1175 -1195 0
-1175 -1196 0
-1175 -1197 0
-1175 -1198 0
-1175 -1199 0
-1175 -1200 0
-1175 -1201 0
-1175 -1202 0
-1175 -1203 0
-1175 -1204 0
-1175 -1205 0
-1175 -1206 0
-1175 -1207 0
-1175 -1208 0
-1175 -1209 0
-1175 -1210 0
-1175 -1211 0
-1175 -1212 0
-1175 -1213 0
-1175 -1214 0
-1175 -1215 0
-1175 -1216 0
-1175 -1217 0
-1175 -1218 0
-1175 -1219 0
-1175 -1220 0
-1175 -1221 0
-1175 -1222 0
-1175 -1223 0
-1175 -1224 0
-1175 -1225 0
-1175 -1226 0
-1175 -1227 0
-1175 -1228 0
-1175 -1229 0
-1175 -1230 0
-1175 -1231 0
-1175 -1232 0
-1175 -1233 0
-1175 -1234 0
-1175 -1235 0
-1175 -1236 0
-1175 -1237 0
-1175 -1238 0
-1175 -1239 0
-1175 -1240 0
-1175 -1241 0
-1175 -1242 0
-1176 -1177 0
-1176 -1178 0
-1176 -1179 0
-1176 -1180 0
-1176 -1181 0
-1176 -1182 0
-1176 -1183 0
-1176 -1184 0
-1176 -1185 0
-1176 -1186 0
-1176 -1187 0
-1176 -1188 0
-1176 -1189 0
-1176 -1190 0
-1176 -1191 0
-1176 -1192 0
-1176 -1193 0
-1176 -1194 0
-1176 -1195 0
-1176 -1196 0
-1176 -1197 0
-1176 -1198 0
-1176 -1199 0
-1176 -1200 0
-1176 -1201 0
-1176 -1202 0
-1176 -1203 0
-1176 -1204 0
-1176 -1205 0
-1176 -1206 0
-1176 -1207 0
-1176 -1208 0
-1176 -1209 0
-1176 -1210 0
-1176 -1211 0
-1176 -1212 0
-1176 -1213 0
-1176 -1214 0
-1176 -1215 0
-1176 -1216 0
-1176 -1217 0
-1176 -1218 0
-1176 -1219 0
-1176 -1220 0
-1176 -1221 0
-1176 -1222 0
-1176 -1223 0
-1176 -1224 0
-1176 -1225 0
-1176 -1226 0
-1176 -1227 0
-1176 -1228 0
-1176 -1229 0
-1176 -1230 0
-1176 -1231 0
-1176 -1232 0
-1176 -1233 0
-1176 -1234 0
-1176 -1235 0
-1176 -1236 0
-1176 -1237 0
-1176 -1238 0
-1176 -1239 0
-1176 -1240 0
-1176 -1241 0
-1176 -1242 0
-1177 -1178 0
-1177 -1179 0
-1177 -1180 0
-1177 -1181 0
-1177 -1182 0
-1177 -1183 0
-1177 -1184 0
-1177 -1185 0
-1177 -1186 0
-1177 -1187 0
-1177 -1188 0
-1177 -1189 0
-1177 -1190 0
-1177 -1191 0
-1177 -1192 0
-1177 -1193 0
-1177 -1194 0
-1177 -1195 0
-1177 -1196 0
-1177 -1197 0
-1177 -1198 0
-1177 -1199 0
-1177 -1200 0
-1177 -1201 0
-1177 -1202 0
-1177 -1203 0
-1177 -1204 0
-1177 -1205 0
-1177 -1206 0
-1177 -1207 0
-1177 -1208 0
-1177 -1209 0
-1177 -1210 0
-1177 -1211 0
-1177 -1212 0
-1177 -1213 0
-1177 -1214 0
-1177 -1215 0
-1177 -1216 0
-1177 -1217 0
-1177 -1218 0
-1177 -1219 0
-1177 -1220 0
-1177 -1221 0
-1177 -1222 0
-1177 -1223 0
-1177 -1224 0
-1177 -1225 0
-1177 -1226 0
-1177 -1227 0
-1177 -1228 0
-1177 -1229 0
-1177 -1230 0
-1177 -1231 0
-1177 -1232 0
-1177 -1233 0
-1177 -1234 0
-1177 -1235 0
-1177 -1236 0
-1177 -1237 0
-1177 -1238 0
-1177 -1239 0
-1177 -1240 0
-1177 -1241 0
-1177 -1242 0
-1178 -1179 0
-1178 -1180 0
-1178 -1181 0
-1178 -1182 0
-1178 -1183 0
-1178 -1184 0
-1178 -1185 0
-1178 -1186 0
-1178 -1187 0
-1178 -1188 0
-1178 -1189 0
-1178 -1190 0
-1178 -1191 0
-1178 -1192 0
-1178 -1193 0
-1178 -1194 0
-1178 -1195 0
-1178 -1196 0
-1178 -1197 0
-1178 -1198 0
-1178 -1199 0
-1178 -1200 0
-1178 -1201 0
-1178 -1202 0
-1178 -1203 0
-1178 -1204 0
-1178 -1205 0
-1178 -1206 0
-1178 -1207 0
-1178 -1208 0
-1178 -1209 0
-1178 -1210 0
-1178 -1211 0
-1178 -1212 0
-1178 -1213 0
-1178 -1214 0
-1178 -1215 0
-1178 -1216 0
-1178 -1217 0
-1178 -1218 0
-1178 -1219 0
-1178 -1220 0
-1178 -1221 0
-1178 -1222 0
-1178 -1223 0
-1178 -1224 0
-1178 -1225 0
-1178 -1226 0
-1178 -1227 0
-1178 -1228 0
-1178 -1229 0
-1178 -1230 0
-1178 -1231 0
-1178 -1232 0
-1178 -1233 0
-1178 -1234 0
-1178 -1235 0
-1178 -1236 0
-1178 -1237 0
-1178 -1238 0
-1178 -1239 0
-1178 -1240 0
-1178 -1241 0
-1178 -1242 0
-1179 -1180 0
-1179 -1181 0
-1179 -1182 0
-1179 -1183 0
-1179 -1184 0
-1179 -1185 0
-1179 -1186 0
-1179 -1187 0
-1179 -1188 0
-1179 -1189 0
-1179 -1190 0
-1179 -1191 0
-1179 -1192 0
-1179 -1193 0
-1179 -1194 0
-1179 -1195 0
-1179 -1196 0
-1179 -1197 0
-1179 -1198 0
-1179 -1199 0
-1179 -1200 0
-1179 -1201 0
-1179 -1202 0
-1179 -1203 0
-1179 -1204 0
-1179 -1205 0
-1179 -1206 0
-1179 -1207 0
-1179 -1208 0
-1179 -1209 0
-1179 -1210 0
-1179 -1211 0
-1179 -1212 0
-1179 -1213 0
-1179 -1214 0
-1179 -1215 0
-1179 -1216 0
-1179 -1217 0
-1179 -1218 0
-1179 -1219 0
-1179 -1220 0
-1179 -1221 0
-1179 -1222 0
-1179 -1223 0
-1179 -1224 0
-1179 -1225 0
-1179 -1226 0
-1179 -1227 0
-1179 -1228 0
-1179 -1229 0
-1179 -1230 0
-1179 -1231 0
-1179 -1232 0
-1179 -1233 0
-1179 -1234 0
-1179 -1235 0
-1179 -1236 0
-1179 -1237 0
-1179 -1238 0
-1179 -1239 0
-1179 -1240 0
-1179 -1241 0
-1179 -1242 0
-1180 -1181 0
-1180 -1182 0
-1180 -1183 0
-1180 -1184 0
-1180 -1185 0
-1180 -1186 0
-1180 -1187 0
-1180 -1188 0
-1180 -1189 0
-1180 -1190 0
-1180 -1191 0
-1180 -1192 0
-1180 -1193 0
-1180 -1194 0
-1180 -1195 0
-1180 -1196 0
-1180 -1197 0
-1180 -1198 0
-1180 -1199 0
-1180 -1200 0
-1180 -1201 0
-1180 -1202 0
-1180 -1203 0
-1180 -1204 0
-1180 -1205 0
-1180 -1206 0
-1180 -1207 0
-1180 -1208 0
-1180 -1209 0
-1180 -1210 0
-1180 -1211 0
-1180 -1212 0
-1180 -1213 0
-1180 -1214 0
-1180 -1215 0
-1180 -1216 0
-1180 -1217 0
-1180 -1218 0
-1180 -1219 0
-1180 -1220 0
-1180 -1221 0
-1180 -1222 0
-1180 -1223 0
-1180 -1224 0
-1180 -1225 0
-1180 -1226 0
-1180 -1227 0
-1180 -1228 0
-1180 -1229 0
-1180 -1230 0
-1180 -1231 0
-1180 -1232 0
-1180 -1233 0
-1180 -1234 0
-1180 -1235 0
-1180 -1236 0
-1180 -1237 0
-1180 -1238 0
-1180 -1239 0
-1180 -1240 0
-1180 -1241 0
-1180 -1242 0
-1181 -1182 0
-1181 -1183 0
-1181 -1184 0
-1181 -1185 0
-1181 -1186 0
-1181 -1187 0
-1181 -1188 0
-1181 -1189 0
-1181 -1190 0
-1181 -1191 0
-1181 -1192 0
-1181 -1193 0
-1181 -1194 0
-1181 -1195 0
-1181 -1196 0
-1181 -1197 0
-1181 -1198 0
-1181 -1199 0
-1181 -1200 0
-1181 -1201 0
-1181 -1202 0
-1181 -1203 0
-1181 -1204 0
-1181 -1205 0
-1181 -1206 0
-1181 -1207 0
-1181 -1208 0
-1181 -1209 0
-1181 -1210 0
-1181 -1211 0
-1181 -1212 0
-1181 -1213 0
-1181 -1214 0
-1181 -1215 0
-1181 -1216 0
-1181 -1217 0
-1181 -1218 0
-1181 -1219 0
-1181 -1220 0
-1181 -1221 0
-1181 -1222 0
-1181 -1223 0
-1181 -1224 0
-1181 -1225 0
-1181 -1226 0
-1181 -1227 0
-1181 -1228 0
-1181 -1229 0
-1181 -1230 0
-1181 -1231 0
-1181 -1232 0
-1181 -1233 0
-1181 -1234 0
-1181 -1235 0
-1181 -1236 0
-1181 -1237 0
-1181 -1238 0
-1181 -1239 0
-1181 -1240 0
-1181 -1241 0
-1181 -1242 0
-1182 -1183 0
-1182 -1184 0
-1182 -1185 0
-1182 -1186 0
-1182 -1187 0
-1182 -1188 0
-1182 -1189 0
-1182 -1190 0
-1182 -1191 0
-1182 -1192 0
-1182 -1193 0
-1182 -1194 0
-1182 -1195 0
-1182 -1196 0
-1182 -1197 0
-1182 -1198 0
-1182 -1199 0
-1182 -1200 0
-1182 -1201 0
-1182 -1202 0
-1182 -1203 0
-1182 -1204 0
-1182 -1205 0
-1182 -1206 0
-1182 -1207 0
-1182 -1208 0
-1182 -1209 0
-1182 -1210 0
-1182 -1211 0
-1182 -1212 0
-1182 -1213 0
-1182 -1214 0
-1182 -1215 0
-1182 -1216 0
-1182 -1217 0
-1182 -1218 0
-1182 -1219 0
-1182 -1220 0
-1182 -1221 0
-1182 -1222 0
-1182 -1223 0
-1182 -1224 0
-1182 -1225 0
-1182 -1226 0
-1182 -1227 0
-1182 -1228 0
-1182 -1229 0
-1182 -1230 0
-1182 -1231 0
-1182 -1232 0
-1182 -1233 0
-1182 -1234 0
-1182 -1235 0
-1182 -1236 0
-1182 -1237 0
-1182 -1238 0
-1182 -1239 0
-1182 -1240 0
-1182 -1241 0
-1182 -1242 0
-1183 -1184 0
-1183 -1185 0
-1183 -1186 0
-1183 -1187 0
-1183 -1188 0
-1183 -1189 0
-1183 -1190 0
-1183 -1191 0
-1183 -1192 0
-1183 -1193 0
-1183 -1194 0
-1183 -1195 0
-1183 -1196 0
-1183 -1197 0
-1183 -1198 0
-1183 -1199 0
-1183 -1200 0
-1183 -1201 0
-1183 -1202 0
-1183 -1203 0
-1183 -1204 0
-1183 -1205 0
-1183 -1206 0
-1183 -1207 0
-1183 -1208 0
-1183 -1209 0
-1183 -1210 0
-1183 -1211 0
-1183 -1212 0
-1183 -1213 0
-1183 -1214 0
-1183 -1215 0
-1183 -1216 0
-1183 -1217 0
-1183 -1218 0
-1183 -1219 0
-1183 -1220 0
-1183 -1221 0
-1183 -1222 0
-1183 -1223 0
-1183 -1224 0
-1183 -1225 0
-1183 -1226 0
-1183 -1227 0
-1183 -1228 0
-1183 -1229 0
-1183 -1230 0
-1183 -1231 0
-1183 -1232 0
-1183 -1233 0
-1183 -1234 0
-1183 -1235 0
-1183 -1236 0
-1183 -1237 0
-1183 -1238 0
-1183 -1239 0
-1183 -1240 0
-1183 -1241 0
-1183 -1242 0
-1184 -1185 0
-1184 -1186 0
-1184 -1187 0
-1184 -1188 0
-1184 -1189 0
-1184 -1190 0
-1184 -1191 0
-1184 -1192 0
-1184 -1193 0
-1184 -1194 0
-1184 -1195 0
-1184 -1196 0
-1184 -1197 0
-1184 -1198 0
-1184 -1199 0
-1184 -1200 0
-1184 -1201 0
-1184 -1202 0
-1184 -1203 0
-1184 -1204 0
-1184 -1205 0
-1184 -1206 0
-1184 -1207 0
-1184 -1208 0
-1184 -1209 0
-1184 -1210 0
-1184 -1211 0
-1184 -1212 0
-1184 -1213 0
-1184 -1214 0
-1184 -1215 0
-1184 -1216 0
-1184 -1217 0
-1184 -1218 0
-1184 -1219 0
-1184 -1220 0
-1184 -1221 0
-1184 -1222 0
-1184 -1223 0
-1184 -1224 0
-1184 -1225 0
-1184 -1226 0
-1184 -1227 0
-1184 -1228 0
-1184 -1229 0
-1184 -1230 0
-1184 -1231 0
-1184 -1232 0
-1184 -1233 0
-1184 -1234 0
-1184 -1235 0
-1184 -1236 0
-1184 -1237 0
-1184 -1238 0
-1184 -1239 0
-1184 -1240 0
-1184 -1241 0
-1184 -1242 0
-1185 -1186 0
-1185 -1187 0
-1185 -1188 0
-1185 -1189 0
-1185 -1190 0
-1185 -1191 0
-1185 -1192 0
-1185 -1193 0
-1185 -1194 0
-1185 -1195 0
-1185 -1196 0
-1185 -1197 0
-1185 -1198 0
-1185 -1199 0
-1185 -1200 0
-1185 -1201 0
-1185 -1202 0
-1185 -1203 0
-1185 -1204 0
-1185 -1205 0
-1185 -1206 0
-1185 -1207 0
-1185 -1208 0
-1185 -1209 0
-1185 -1210 0
-1185 -1211 0
-1185 -1212 0
-1185 -1213 0
-1185 -1214 0
-1185 -1215 0
-1185 -1216 0
-1185 -1217 0
-1185 -1218 0
-1185 -1219 0
-1185 -1220 0
-1185 -1221 0
-1185 -1222 0
-1185 -1223 0
-1185 -1224 0
-1185 -1225 0
-1185 -1226 0
-1185 -1227 0
-1185 -1228 0
-1185 -1229 0
-1185 -1230 0
-1185 -1231 0
-1185 -1232 0
-1185 -1233 0
-1185 -1234 0
-1185 -1235 0
-1185 -1236 0
-1185 -1237 0
-1185 -1238 0
-1185 -1239 0
-1185 -1240 0
-1185 -1241 0
-1185 -1242 0
-1186 -1187 0
-1186 -1188 0
-1186 -1189 0
-1186 -1190 0
-1186 -1191 0
-1186 -1192 0
-1186 -1193 0
-1186 -1194 0
-1186 -1195 0
-1186 -1196 0
-1186 -1197 0
-1186 -1198 0
-1186 -1199 0
-1186 -1200 0
-1186 -1201 0
-1186 -1202 0
-1186 -1203 0
-1186 -1204 0
-1186 -1205 0
-1186 -1206 0
-1186 -1207 0
-1186 -1208 0
-1186 -1209 0
-1186 -1210 0
-1186 -1211 0
-1186 -1212 0
-1186 -1213 0
-1186 -1214 0
-1186 -1215 0
-1186 -1216 0
-1186 -1217 0
-1186 -1218 0
-1186 -1219 0
-1186 -1220 0
-1186 -1221 0
-1186 -1222 0
-1186 -1223 0
-1186 -1224 0
-1186 -1225 0
-1186 -1226 0
-1186 -1227 0
-1186 -1228 0
-1186 -1229 0
-1186 -1230 0
-1186 -1231 0
-1186 -1232 0
-1186 -1233 0
-1186 -1234 0
-1186 -1235 0
-1186 -1236 0
-1186 -1237 0
-1186 -1238 0
-1186 -1239 0
-1186 -1240 0
-1186 -1241 0
-1186 -1242 0
-1187 -1188 0
-1187 -1189 0
-1187 -1190 0
-1187 -1191 0
-1187 -1192 0
-1187 -1193 0
-1187 -1194 0
-1187 -1195 0
-1187 -1196 0
-1187 -1197 0
-1187 -1198 0
-1187 -1199 0
-1187 -1200 0
-1187 -1201 0
-1187 -1202 0
-1187 -1203 0
-1187 -1204 0
-1187 -1205 0
-1187 -1206 0
-1187 -1207 0
-1187 -1208 0
-1187 -1209 0
-1187 -1210 0
-1187 -1211 0
-1187 -1212 0
-1187 -1213 0
-1187 -1214 0
-1187 -1215 0
-1187 -1216 0
-1187 -1217 0
-1187 -1218 0
-1187 -1219 0
-1187 -1220 0
-1187 -1221 0
-1187 -1222 0
-1187 -1223 0
-1187 -1224 0
-1187 -1225 0
-1187 -1226 0
-1187 -1227 0
-1187 -1228 0
-1187 -1229 0
-1187 -1230 0
-1187 -1231 0
-1187 -1232 0
-1187 -1233 0
-1187 -1234 0
-1187 -1235 0
-1187 -1236 0
-1187 -1237 0
-1187 -1238 0
-1187 -1239 0
-1187 -1240 0
-1187 -1241 0
-1187 -1242 0
-1188 -1189 0
-1188 -1190 0
-1188 -1191 0
-1188 -1192 0
-1188 -1193 0
-1188 -1194 0
-1188 -1195 0
-1188 -1196 0
-1188 -1197 0
-1188 -1198 0
-1188 -1199 0
-1188 -1200 0
-1188 -1201 0
-1188 -1202 0
-1188 -1203 0
-1188 -1204 0
-1188 -1205 0
-1188 -1206 0
-1188 -1207 0
-1188 -1208 0
-1188 -1209 0
-1188 -1210 0
-1188 -1211 0
-1188 -1212 0
-1188 -1213 0
-1188 -1214 0
-1188 -1215 0
-1188 -1216 0
-1188 -1217 0
-1188 -1218 0
-1188 -1219 0
-1188 -1220 0
-1188 -1221 0
-1188 -1222 0
-1188 -1223 0
-1188 -1224 0
-1188 -1225 0
-1188 -1226 0
-1188 -1227 0
-1188 -1228 0
-1188 -1229 0
-1188 -1230 0
-1188 -1231 0
-1188 -1232 0
-1188 -1233 0
-1188 -1234 0
-1188 -1235 0
-1188 -1236 0
-1188 -1237 0
-1188 -1238 0
-1188 -1239 0
-1188 -1240 0
-1188 -1241 0
-1188 -1242 0
-1189 -1190 0
-1189 -1191 0
-1189 -1192 0
-1189 -1193 0
-1189 -1194 0
-1189 -1195 0
-1189 -1196 0
-1189 -1197 0
-1189 -1198 0
-1189 -1199 0
-1189 -1200 0
-1189 -1201 0
-1189 -1202 0
-1189 -1203 0
-1189 -1204 0
-1189 -1205 0
-1189 -1206 0
-1189 -1207 0
-1189 -1208 0
-1189 -1209 0
-1189 -1210 0
-1189 -1211 0
-1189 -1212 0
-1189 -1213 0
-1189 -1214 0
-1189 -1215 0
-1189 -1216 0
-1189 -1217 0
-1189 -1218 0
-1189 -1219 0
-1189 -1220 0
-1189 -1221 0
-1189 -1222 0
-1189 -1223 0
-1189 -1224 0
-1189 -1225 0
-1189 -1226 0
-1189 -1227 0
-1189 -1228 0
-1189 -1229 0
-1189 -1230 0
-1189 -1231 0
-1189 -1232 0
-1189 -1233 0
-1189 -1234 0
-1189 -1235 0
-1189 -1236 0
-1189 -1237 0
-1189 -1238 0
-1189 -1239 0
-1189 -1240 0
-1189 -1241 0
-1189 -1242 0
-1190 -1191 0
-1190 -1192 0
-1190 -1193 0
-1190 -1194 0
-1190 -1195 0
-1190 -1196 0
-1190 -1197 0
-1190 -1198 0
-1190 -1199 0
-1190 -1200 0
-1190 -1201 0
-1190 -1202 0
-1190 -1203 0
-1190 -1204 0
-1190 -1205 0
-1190 -1206 0
-1190 -1207 0
-1190 -1208 0
-1190 -1209 0
-1190 -1210 0
-1190 -1211 0
-1190 -1212 0
-1190 -1213 0
-1190 -1214 0
-1190 -1215 0
-1190 -1216 0
-1190 -1217 0
-1190 -1218 0
-1190 -1219 0
-1190 -1220 0
-1190 -1221 0
-1190 -1222 0
-1190 -1223 0
-1190 -1224 0
-1190 -1225 0
-1190 -1226 0
-1190 -1227 0
-1190 -1228 0
-1190 -1229 0
-1190 -1230 0
-1190 -1231 0
-1190 -1232 0
-1190 -1233 0
-1190 -1234 0
-1190 -1235 0
-1190 -1236 0
-1190 -1237 0
-1190 -1238 0
-1190 -1239 0
-1190 -1240 0
-1190 -1241 0
-1190 -1242 0
-1191 -1192 0
-1191 -1193 0
-1191 -1194 0
-1191 -1195 0
-1191 -1196 0
-1191 -1197 0
-1191 -1198 0
-1191 -1199 0
-1191 -1200 0
-1191 -1201 0
-1191 -1202 0
-1191 -1203 0
-1191 -1204 0
-1191 -1205 0
-1191 -1206 0
-1191 -1207 0
-1191 -1208 0
-1191 -1209 0
-1191 -1210 0
-1191 -1211 0
-1191 -1212 0
-1191 -1213 0
-1191 -1214 0
-1191 -1215 0
-1191 -1216 0
-1191 -1217 0
-1191 -1218 0
-1191 -1219 0
-1191 -1220 0
-1191 -1221 0
-1191 -1222 0
-1191 -1223 0
-1191 -1224 0
-1191 -1225 0
-1191 -1226 0
-1191 -1227 0
-1191 -1228 0
-1191 -1229 0
-1191 -1230 0
-1191 -1231 0
-1191 -1232 0
-1191 -1233 0
-1191 -1234 0
-1191 -1235 0
-1191 -1236 0
-1191 -1237 0
-1191 -1238 0
-1191 -1239 0
-1191 -1240 0
-1191 -1241 0
-1191 -1242 0
-1192 -1193 0
-1192 -1194 0
-1192 -1195 0
-1192 -1196 0
-1192 -1197 0
-1192 -1198 0
-1192 -1199 0
-1192 -1200 0
-1192 -1201 0
-1192 -1202 0
-1192 -1203 0
-1192 -1204 0
-1192 -1205 0
-1192 -1206 0
-1192 -1207 0
-1192 -1208 0
-1192 -1209 0
-1192 -1210 0
-1192 -1211 0
-1192 -1212 0
-1192 -1213 0
-1192 -1214 0
-1192 -1215 0
-1192 -1216 0
-1192 -1217 0
-1192 -1218 0
-1192 -1219 0
-1192 -1220 0
-1192 -1221 0
-1192 -1222 0
-1192 -1223 0
-1192 -1224 0
-1192 -1225 0
-1192 -1226 0
-1192 -1227 0
-1192 -1228 0
-1192 -1229 0
-1192 -1230 0
-1192 -1231 0
-1192 -1232 0
-1192 -1233 0
-1192 -1234 0
-1192 -1235 0
-1192 -1236 0
-1192 -1237 0
-1192 -1238 0
-1192 -1239 0
-1192 -1240 0
-1192 -1241 0
-1192 -1242 0
-1193 -1194 0
-1193 -1195 0
-1193 -1196 0
-1193 -1197 0
-1193 -1198 0
-1193 -1199 0
-1193 -1200 0
-1193 -1201 0
-1193 -1202 0
-1193 -1203 0
-1193 -1204 0
-1193 -1205 0
-1193 -1206 0
-1193 -1207 0
-1193 -1208 0
-1193 -1209 0
-1193 -1210 0
-1193 -1211 0
-1193 -1212 0
-1193 -1213 0
-1193 -1214 0
-1193 -1215 0
-1193 -1216 0
-1193 -1217 0
-1193 -1218 0
-1193 -1219 0
-1193 -1220 0
-1193 -1221 0
-1193 -1222 0
-1193 -1223 0
-1193 -1224 0
-1193 -1225 0
-1193 -1226 0
-1193 -1227 0
-1193 -1228 0
-1193 -1229 0
-1193 -1230 0
-1193 -1231 0
-1193 -1232 0
-1193 -1233 0
-1193 -1234 0
-1193 -1235 0
-1193 -1236 0
-1193 -1237 0
-1193 -1238 0
-1193 -1239 0
-1193 -1240 0
-1193 -1241 0
-1193 -1242 0
-1194 -1195 0
-1194 -1196 0
-1194 -1197 0
-1194 -1198 0
-1194 -1199 0
-1194 -1200 0
-1194 -1201 0
-1194 -1202 0
-1194 -1203 0
-1194 -1204 0
-1194 -1205 0
-1194 -1206 0
-1194 -1207 0
-1194 -1208 0
-1194 -1209 0
-1194 -1210 0
-1194 -1211 0
-1194 -1212 0
-1194 -1213 0
-1194 -1214 0
-1194 -1215 0
-1194 -1216 0
-1194 -1217 0
-1194 -1218 0
-1194 -1219 0
-1194 -1220 0
-1194 -1221 0
-1194 -1222 0
-1194 -1223 0
-1194 -1224 0
-1194 -1225 0
-1194 -1226 0
-1194 -1227 0
-1194 -1228 0
-1194 -1229 0
-1194 -1230 0
-1194 -1231 0
-1194 -1232 0
-1194 -1233 0
-1194 -1234 0
-1194 -1235 0
-1194 -1236 0
-1194 -1237 0
-1194 -1238 0
-1194 -1239 0
-1194 -1240 0
-1194 -1241 0
-1194 -1242 0
-1195 -1196 0
-1195 -1197 0
-1195 -1198 0
-1195 -1199 0
-1195 -1200 0
-1195 -1201 0
-1195 -1202 0
-1195 -1203 0
-1195 -1204 0
-1195 -1205 0
-1195 -1206 0
-1195 -1207 0
-1195 -1208 0
-1195 -1209 0
-1195 -1210 0
-1195 -1211 0
-1195 -1212 0
-1195 -1213 0
-1195 -1214 0
-1195 -1215 0
-1195 -1216 0
-1195 -1217 0
-1195 -1218 0
-1195 -1219 0
-1195 -1220 0
-1195 -1221 0
-1195 -1222 0
-1195 -1223 0
-1195 -1224 0
-1195 -1225 0
-1195 -1226 0
-1195 -1227 0
-1195 -1228 0
-1195 -1229 0
-1195 -1230 0
-1195 -1231 0
-1195 -1232 0
-1195 -1233 0
-1195 -1234 0
-1195 -1235 0
-1195 -1236 0
-1195 -1237 0
-1195 -1238 0
-1195 -1239 0
-1195 -1240 0
-1195 -1241 0
-1195 -1242 0
-1196 -1197 0
-1196 -1198 0
-1196 -1199 0
-1196 -1200 0
-1196 -1201 0
-1196 -1202 0
-1196 -1203 0
-1196 -1204 0
-1196 -1205 0
-1196 -1206 0
-1196 -1207 0
-1196 -1208 0
-1196 -1209 0
-1196 -1210 0
-1196 -1211 0
-1196 -1212 0
-1196 -1213 0
-1196 -1214 0
-1196 -1215 0
-1196 -1216 0
-1196 -1217 0
-1196 -1218 0
-1196 -1219 0
-1196 -1220 0
-1196 -1221 0
-1196 -1222 0
-1196 -1223 0
-1196 -1224 0
-1196 -1225 0
-1196 -1226 0
-1196 -1227 0
-1196 -1228 0
-1196 -1229 0
-1196 -1230 0
-1196 -1231 0
-1196 -1232 0
-1196 -1233 0
-1196 -1234 0
-1196 -1235 0
-1196 -1236 0
-1196 -1237 0
-1196 -1238 0
-1196 -1239 0
-1196 -1240 0
-1196 -1241 0
-1196 -1242 0
-1197 -1198 0
-1197 -1199 0
-1197 -1200 0
-1197 -1201 0
-1197 -1202 0
-1197 -1203 0
-1197 -1204 0
-1197 -1205 0
-1197 -1206 0
-1197 -1207 0
-1197 -1208 0
-1197 -1209 0
-1197 -1210 0
-1197 -1211 0
-1197 -1212 0
-1197 -1213 0
-1197 -1214 0
-1197 -1215 0
-1197 -1216 0
-1197 -1217 0
-1197 -1218 0
-1197 -1219 0
-1197 -1220 0
-1197 -1221 0
-1197 -1222 0
-1197 -1223 0
-1197 -1224 0
-1197 -1225 0
-1197 -1226 0
-1197 -1227 0
-1197 -1228 0
-1197 -1229 0
-1197 -1230 0
-1197 -1231 0
-1197 -1232 0
-1197 -1233 0
-1197 -1234 0
-1197 -1235 0
-1197 -1236 0
-1197 -1237 0
-1197 -1238 0
-1197 -1239 0
-1197 -1240 0
-1197 -1241 0
-1197 -1242 0
-1198 -1199 0
-1198 -1200 0
-1198 -1201 0
-1198 -1202 0
-1198 -1203 0
-1198 -1204 0
-1198 -1205 0
-1198 -1206 0
-1198 -1207 0
-1198 -1208 0
-1198 -1209 0
-1198 -1210 0
-1198 -1211 0
-1198 -1212 0
-1198 -1213 0
-1198 -1214 0
-1198 -1215 0
-1198 -1216 0
-1198 -1217 0
-1198 -1218 0
-1198 -1219 0
-1198 -1220 0
-1198 -1221 0
-1198 -1222 0
-1198 -1223 0
-1198 -1224 0
-1198 -1225 0
-1198 -1226 0
-1198 -1227 0
-1198 -1228 0
-1198 -1229 0
-1198 -1230 0
-1198 -1231 0
-1198 -1232 0
-1198 -1233 0
-1198 -1234 0
-1198 -1235 0
-1198 -1236 0
-1198 -1237 0
-1198 -1238 0
-1198 -1239 0
-1198 -1240 0
-1198 -1241 0
-1198 -1242 0
-1199 -1200 0
-1199 -1201 0
-1199 -1202 0
-1199 -1203 0
-1199 -1204 0
-1199 -1205 0
-1199 -1206 0
-1199 -1207 0
-1199 -1208 0
-1199 -1209 0
-1199 -1210 0
-1199 -1211 0
-1199 -1212 0
-1199 -1213 0
-1199 -1214 0
-1199 -1215 0
-1199 -1216 0
-1199 -1217 0
-1199 -1218 0
-1199 -1219 0
-1199 -1220 0
-1199 -1221 0
-1199 -1222 0
-1199 -1223 0
-1199 -1224 0
-1199 -1225 0
-1199 -1226 0
-1199 -1227 0
-1199 -1228 0
-1199 -1229 0
-1199 -1230 0
-1199 -1231 0
-1199 -1232 0
-1199 -1233 0
-1199 -1234 0
-1199 -1235 0
-1199 -1236 0
-1199 -1237 0
-1199 -1238 0
-1199 -1239 0
-1199 -1240 0
-1199 -1241 0
-1199 -1242 0
-1200 -1201 0
-1200 -1202 0
-1200 -1203 0
-1200 -1204 0
-1200 -1205 0
-1200 -1206 0
-1200 -1207 0
-1200 -1208 0
-1200 -1209 0
-1200 -1210 0
-1200 -1211 0
-1200 -1212 0
-1200 -1213 0
-1200 -1214 0
-1200 -1215 0
-1200 -1216 0
-1200 -1217 0
-1200 -1218 0
-1200 -1219 0
-1200 -1220 0
-1200 -1221 0
-1200 -1222 0
-1200 -1223 0
-1200 -1224 0
-1200 -1225 0
-1200 -1226 0
-1200 -1227 0
-1200 -1228 0
-1200 -1229 0
-1200 -1230 0
-1200 -1231 0
-1200 -1232 0
-1200 -1233 0
-1200 -1234 0
-1200 -1235 0
-1200 -1236 0
-1200 -1237 0
-1200 -1238 0
-1200 -1239 0
-1200 -1240 0
-1200 -1241 0
-1200 -1242 0
-1201 -1202 0
-1201 -1203 0
-1201 -1204 0
-1201 -1205 0
-1201 -1206 0
-1201 -1207 0
-1201 -1208 0
-1201 -1209 0
-1201 -1210 0
-1201 -1211 0
-1201 -1212 0
-1201 -1213 0
-1201 -1214 0
-1201 -1215 0
-1201 -1216 0
-1201 -1217 0
-1201 -1218 0
-1201 -1219 0
-1201 -1220 0
-1201 -1221 0
-1201 -1222 0
-1201 -1223 0
-1201 -1224 0
-1201 -1225 0
-1201 -1226 0
-1201 -1227 0
-1201 -1228 0
-1201 -1229 0
-1201 -1230 0
-1201 -1231 0
-1201 -1232 0
-1201 -1233 0
-1201 -1234 0
-1201 -1235 0
-1201 -1236 0
-1201 -1237 0
-1201 -1238 0
-1201 -1239 0
-1201 -1240 0
-1201 -1241 0
-1201 -1242 0
-1202 -1203 0
-1202 -1204 0
-1202 -1205 0
-1202 -1206 0
-1202 -1207 0
-1202 -1208 0
-1202 -1209 0
-1202 -1210 0
-1202 -1211 0
-1202 -1212 0
-1202 -1213 0
-1202 -1214 0
-1202 -1215 0
-1202 -1216 0
-1202 -1217 0
-1202 -1218 0
-1202 -1219 0
-1202 -1220 0
-1202 -1221 0
-1202 -1222 0
-1202 -1223 0
-1202 -1224 0
-1202 -1225 0
-1202 -1226 0
-1202 -1227 0
-1202 -1228 0
-1202 -1229 0
-1202 -1230 0
-1202 -1231 0
-1202 -1232 0
-1202 -1233 0
-1202 -1234 0
-1202 -1235 0
-1202 -1236 0
-1202 -1237 0
-1202 -1238 0
-1202 -1239 0
-1202 -1240 0
-1202 -1241 0
-1202 -1242 0
-1203 -1204 0
-1203 -1205 0
-1203 -1206 0
-1203 -1207 0
-1203 -1208 0
-1203 -1209 0
-1203 -1210 0
-1203 -1211 0
-1203 -1212 0
-1203 -1213 0
-1203 -1214 0
-1203 -1215 0
-1203 -1216 0
-1203 -1217 0
-1203 -1218 0
-1203 -1219 0
-1203 -1220 0
-1203 -1221 0
-1203 -1222 0
-1203 -1223 0
-1203 -1224 0
-1203 -1225 0
-1203 -1226 0
-1203 -1227 0
-1203 -1228 0
-1203 -1229 0
-1203 -1230 0
-1203 -1231 0
-1203 -1232 0
-1203 -1233 0
-1203 -1234 0
-1203 -1235 0
-1203 -1236 0
-1203 -1237 0
-1203 -1238 0
-1203 -1239 0
-1203 -1240 0
-1203 -1241 0
-1203 -1242 0
-1204 -1205 0
-1204 -1206 0
-1204 -1207 0
-1204 -1208 0
-1204 -1209 0
-1204 -1210 0
-1204 -1211 0
-1204 -1212 0
-1204 -1213 0
-1204 -1214 0
-1204 -1215 0
-1204 -1216 0
-1204 -1217 0
-1204 -1218 0
-1204 -1219 0
-1204 -1220 0
-1204 -1221 0
-1204 -1222 0
-1204 -1223 0
-1204 -1224 0
-1204 -1225 0
-1204 -1226 0
-1204 -1227 0
-1204 -1228 0
-1204 -1229 0
-1204 -1230 0
-1204 -1231 0
-1204 -1232 0
-1204 -1233 0
-1204 -1234 0
-1204 -1235 0
-1204 -1236 0
-1204 -1237 0
-1204 -1238 0
-1204 -1239 0
-1204 -1240 0
-1204 -1241 0
-1204 -1242 0
-1205 -1206 0
-1205 -1207 0
-1205 -1208 0
-1205 -1209 0
-1205 -1210 0
-1205 -1211 0
-1205 -1212 0
-1205 -1213 0
-1205 -1214 0
-1205 -1215 0
-1205 -1216 0
-1205 -1217 0
-1205 -1218 0
-1205 -1219 0
-1205 -1220 0
-1205 -1221 0
-1205 -1222 0
-1205 -1223 0
-1205 -1224 0
-1205 -1225 0
-1205 -1226 0
-1205 -1227 0
-1205 -1228 0
-1205 -1229 0
-1205 -1230 0
-1205 -1231 0
-1205 -1232 0
-1205 -1233 0
-1205 -1234 0
-1205 -1235 0
-1205 -1236 0
-1205 -1237 0
-1205 -1238 0
-1205 -1239 0
-1205 -1240 0
-1205 -1241 0
-1205 -1242 0
-1206 -1207 0
-1206 -1208 0
-1206 -1209 0
-1206 -1210 0
-1206 -1211 0
-1206 -1212 0
-1206 -1213 0
-1206 -1214 0
-1206 -1215 0
-1206 -1216 0
-1206 -1217 0
-1206 -1218 0
-1206 -1219 0
-1206 -1220 0
-1206 -1221 0
-1206 -1222 0
-1206 -1223 0
-1206 -1224 0
-1206 -1225 0
-1206 -1226 0
-1206 -1227 0
-1206 -1228 0
-1206 -1229 0
-1206 -1230 0
-1206 -1231 0
-1206 -1232 0
-1206 -1233 0
-1206 -1234 0
-1206 -1235 0
-1206 -1236 0
-1206 -1237 0
-1206 -1238 0
-1206 -1239 0
-1206 -1240 0
-1206 -1241 0
-1206 -1242 0
-1207 -1208 0
-1207 -1209 0
-1207 -1210 0
-1207 -1211 0
-1207 -1212 0
-1207 -1213 0
-1207 -1214 0
-1207 -1215 0
-1207 -1216 0
-1207 -1217 0
-1207 -1218 0
-1207 -1219 0
-1207 -1220 0
-1207 -1221 0
-1207 -1222 0
-1207 -1223 0
-1207 -1224 0
-1207 -1225 0
-1207 -1226 0
-1207 -1227 0
-1207 -1228 0
-1207 -1229 0
-1207 -1230 0
-1207 -1231 0
-1207 -1232 0
-1207 -1233 0
-1207 -1234 0
-1207 -1235 0
-1207 -1236 0
-1207 -1237 0
-1207 -1238 0
-1207 -1239 0
-1207 -1240 0
-1207 -1241 0
-1207 -1242 0
-1208 -1209 0
-1208 -1210 0
-1208 -1211 0
-1208 -1212 0
-1208 -1213 0
-1208 -1214 0
-1208 -1215 0
-1208 -1216 0
-1208 -1217 0
-1208 -1218 0
-1208 -1219 0
-1208 -1220 0
-1208 -1221 0
-1208 -1222 0
-1208 -1223 0
-1208 -1224 0
-1208 -1225 0
-1208 -1226 0
-1208 -1227 0
-1208 -1228 0
-1208 -1229 0
-1208 -1230 0
-1208 -1231 0
-1208 -1232 0
-1208 -1233 0
-1208 -1234 0
-1208 -1235 0
-1208 -1236 0
-1208 -1237 0
-1208 -1238 0
-1208 -1239 0
-1208 -1240 0
-1208 -1241 0
-1208 -1242 0
-1209 -1210 0
-1209 -1211 0
-1209 -1212 0
-1209 -1213 0
-1209 -1214 0
-1209 -1215 0
-1209 -1216 0
-1209 -1217 0
-1209 -1218 0
-1209 -1219 0
-1209 -1220 0
-1209 -1221 0
-1209 -1222 0
-1209 -1223 0
-1209 -1224 0
-1209 -1225 0
-1209 -1226 0
-1209 -1227 0
-1209 -1228 0
-1209 -1229 0
-1209 -1230 0
-1209 -1231 0
-1209 -1232 0
-1209 -1233 0
-1209 -1234 0
-1209 -1235 0
-1209 -1236 0
-1209 -1237 0
-1209 -1238 0
-1209 -1239 0
-1209 -1240 0
-1209 -1241 0
-1209 -1242 0
-1210 -1211 0
-1210 -1212 0
-1210 -1213 0
-1210 -1214 0
-1210 -1215 0
-1210 -1216 0
-1210 -1217 0
-1210 -1218 0
-1210 -1219 0
-1210 -1220 0
-1210 -1221 0
-1210 -1222 0
-1210 -1223 0
-1210 -1224 0
-1210 -1225 0
-1210 -1226 0
-1210 -1227 0
-1210 -1228 0
-1210 -1229 0
-1210 -1230 0
-1210 -1231 0
-1210 -1232 0
-1210 -1233 0
-1210 -1234 0
-1210 -1235 0
-1210 -1236 0
-1210 -1237 0
-1210 -1238 0
-1210 -1239 0
-1210 -1240 0
-1210 -1241 0
-1210 -1242 0
-1211 -1212 0
-1211 -1213 0
-1211 -1214 0
-1211 -1215 0
-1211 -1216 0
-1211 -1217 0
-1211 -1218 0
-1211 -1219 0
-1211 -1220 0
-1211 -1221 0
-1211 -1222 0
-1211 -1223 0
-1211 -1224 0
-1211 -1225 0
-1211 -1226 0
-1211 -1227 0
-1211 -1228 0
-1211 -1229 0
-1211 -1230 0
-1211 -1231 0
-1211 -1232 0
-1211 -1233 0
-1211 -1234 0
-1211 -1235 0
-1211 -1236 0
-1211 -1237 0
-1211 -1238 0
-1211 -1239 0
-1211 -1240 0
-1211 -1241 0
-1211 -1242 0
-1212 -1213 0
-1212 -1214 0
-1212 -1215 0
-1212 -1216 0
-1212 -1217 0
-1212 -1218 0
-1212 -1219 0
-1212 -1220 0
-1212 -1221 0
-1212 -1222 0
-1212 -1223 0
-1212 -1224 0
-1212 -1225 0
-1212 -1226 0
-1212 -1227 0
-1212 -1228 0
-1212 -1229 0
-1212 -1230 0
-1212 -1231 0
-1212 -1232 0
-1212 -1233 0
-1212 -1234 0
-1212 -1235 0
-1212 -1236 0
-1212 -1237 0
-1212 -1238 0
-1212 -1239 0
-1212 -1240 0
-1212 -1241 0
-1212 -1242 0
-1213 -1214 0
-1213 -1215 0
-1213 -1216 0
-1213 -1217 0
-1213 -1218 0
-1213 -1219 0
-1213 -1220 0
-1213 -1221 0
-1213 -1222 0
-1213 -1223 0
-1213 -1224 0
-1213 -1225 0
-1213 -1226 0
-1213 -1227 0
-1213 -1228 0
-1213 -1229 0
-1213 -1230 0
-1213 -1231 0
-1213 -1232 0
-1213 -1233 0
-1213 -1234 0
-1213 -1235 0
-1213 -1236 0
-1213 -1237 0
-1213 -1238 0
-1213 -1239 0
-1213 -1240 0
-1213 -1241 0
-1213 -1242 0
-1214 -1215 0
-1214 -1216 0
-1214 -1217 0
-1214 -1218 0
-1214 -1219 0
-1214 -1220 0
-1214 -1221 0
-1214 -1222 0
-1214 -1223 0
-1214 -1224 0
-1214 -1225 0
-1214 -1226 0
-1214 -1227 0
-1214 -1228 0
-1214 -1229 0
-1214 -1230 0
-1214 -1231 0
-1214 -1232 0
-1214 -1233 0
-1214 -1234 0
-1214 -1235 0
-1214 -1236 0
-1214 -1237 0
-1214 -1238 0
-1214 -1239 0
-1214 -1240 0
-1214 -1241 0
-1214 -1242 0
-1215 -1216 0
-1215 -1217 0
-1215 -1218 0
-1215 -1219 0
-1215 -1220 0
-1215 -1221 0
-1215 -1222 0
-1215 -1223 0
-1215 -1224 0
-1215 -1225 0
-1215 -1226 0
-1215 -1227 0
-1215 -1228 0
-1215 -1229 0
-1215 -1230 0
-1215 -1231 0
-1215 -1232 0
-1215 -1233 0
-1215 -1234 0
-1215 -1235 0
-1215 -1236 0
-1215 -1237 0
-1215 -1238 0
-1215 -1239 0
-1215 -1240 0
-1215 -1241 0
-1215 -1242 0
-1216 -1217 0
-1216 -1218 0
-1216 -1219 0
-1216 -1220 0
-1216 -1221 0
-1216 -1222 0
-1216 -1223 0
-1216 -1224 0
-1216 -1225 0
-1216 -1226 0
-1216 -1227 0
-1216 -1228 0
-1216 -1229 0
-1216 -1230 0
-1216 -1231 0
-1216 -1232 0
-1216 -1233 0
-1216 -1234 0
-1216 -1235 0
-1216 -1236 0
-1216 -1237 0
-1216 -1238 0
-1216 -1239 0
-1216 -1240 0
-1216 -1241 0
-1216 -1242 0
-1217 -1218 0
-1217 -1219 0
-1217 -1220 0
-1217 -1221 0
-1217 -1222 0
-1217 -1223 0
-1217 -1224 0
-1217 -1225 0
-1217 -1226 0
-1217 -1227 0
-1217 -1228 0
-1217 -1229 0
-1217 -1230 0
-1217 -1231 0
-1217 -1232 0
-1217 -1233 0
-1217 -1234 0
-1217 -1235 0
-1217 -1236 0
-1217 -1237 0
-1217 -1238 0
-1217 -1239 0
-1217 -1240 0
-1217 -1241 0
-1217 -1242 0
-1218 -1219 0
-1218 -1220 0
-1218 -1221 0
-1218 -1222 0
-1218 -1223 0
-1218 -1224 0
-1218 -1225 0
-1218 -1226 0
-1218 -1227 0
-1218 -1228 0
-1218 -1229 0
-1218 -1230 0
-1218 -1231 0
-1218 -1232 0
-1218 -1233 0
-1218 -1234 0
-1218 -1235 0
-1218 -1236 0
-1218 -1237 0
-1218 -1238 0
-1218 -1239 0
-1218 -1240 0
-1218 -1241 0
-1218 -1242 0
-1219 -1220 0
-1219 -1221 0
-1219 -1222 0
-1219 -1223 0
-1219 -1224 0
-1219 -1225 0
-1219 -1226 0
-1219 -1227 0
-1219 -1228 0
-1219 -1229 0
-1219 -1230 0
-1219 -1231 0
-1219 -1232 0
-1219 -1233 0
-1219 -1234 0
-1219 -1235 0
-1219 -1236 0
-1219 -1237 0
-1219 -1238 0
-1219 -1239 0
-1219 -1240 0
-1219 -1241 0
-1219 -1242 0
-1220 -1221 0
-1220 -1222 0
-1220 -1223 0
-1220 -1224 0
-1220 -1225 0
-1220 -1226 0
-1220 -1227 0
-1220 -1228 0
-1220 -1229 0
-1220 -1230 0
-1220 -1231 0
-1220 -1232 0
-1220 -1233 0
-1220 -1234 0
-1220 -1235 0
-1220 -1236 0
-1220 -1237 0
-1220 -1238 0
-1220 -1239 0
-1220 -1240 0
-1220 -1241 0
-1220 -1242 0
-1221 -1222 0
-1221 -1223 0
-1221 -1224 0
-1221 -1225 0
-1221 -1226 0
-1221 -1227 0
-1221 -1228 0
-1221 -1229 0
-1221 -1230 0
-1221 -1231 0
-1221 -1232 0
-1221 -1233 0
-1221 -1234 0
-1221 -1235 0
-1221 -1236 0
-1221 -1237 0
-1221 -1238 0
-1221 -1239 0
-1221 -1240 0
-1221 -1241 0
-1221 -1242 0
-1222 -1223 0
-1222 -1224 0
-1222 -1225 0
-1222 -1226 0
-1222 -1227 0
-1222 -1228 0
-1222 -1229 0
-1222 -1230 0
-1222 -1231 0
-1222 -1232 0
-1222 -1233 0
-1222 -1234 0
-1222 -1235 0
-1222 -1236 0
-1222 -1237 0
-1222 -1238 0
-1222 -1239 0
-1222 -1240 0
-1222 -1241 0
-1222 -1242 0
-1223 -1224 0
-1223 -1225 0
-1223 -1226 0
-1223 -1227 0
-1223 -1228 0
-1223 -1229 0
-1223 -1230 0
-1223 -1231 0
-1223 -1232 0
-1223 -1233 0
-1223 -1234 0
-1223 -1235 0
-1223 -1236 0
-1223 -1237 0
-1223 -1238 0
-1223 -1239 0
-1223 -1240 0
-1223 -1241 0
-1223 -1242 0
-1224 -1225 0
-1224 -1226 0
-1224 -1227 0
-1224 -1228 0
-1224 -1229 0
-1224 -1230 0
-1224 -1231 0
-1224 -1232 0
-1224 -1233 0
-1224 -1234 0
-1224 -1235 0
-1224 -1236 0
-1224 -1237 0
-1224 -1238 0
-1224 -1239 0
-1224 -1240 0
-1224 -1241 0
-1224 -1242 0
-1225 -1226 0
-1225 -1227 0
-1225 -1228 0
-1225 -1229 0
-1225 -1230 0
-1225 -1231 0
-1225 -1232 0
-1225 -1233 0
-1225 -1234 0
-1225 -1235 0
-1225 -1236 0
-1225 -1237 0
-1225 -1238 0
-1225 -1239 0
-1225 -1240 0
-1225 -1241 0
-1225 -1242 0
-1226 -1227 0
-1226 -1228 0
-1226 -1229 0
-1226 -1230 0
-1226 -1231 0
-1226 -1232 0
-1226 -1233 0
-1226 -1234 0
-1226 -1235 0
-1226 -1236 0
-1226 -1237 0
-1226 -1238 0
-1226 -1239 0
-1226 -1240 0
-1226 -1241 0
-1226 -1242 0
-1227 -1228 0
-1227 -1229 0
-1227 -1230 0
-1227 -1231 0
-1227 -1232 0
-1227 -1233 0
-1227 -1234 0
-1227 -1235 0
-1227 -1236 0
-1227 -1237 0
-1227 -1238 0
-1227 -1239 0
-1227 -1240 0
-1227 -1241 0
-1227 -1242 0
-1228 -1229 0
-1228 -1230 0
-1228 -1231 0
-1228 -1232 0
-1228 -1233 0
-1228 -1234 0
-1228 -1235 0
-1228 -1236 0
-1228 -1237 0
-1228 -1238 0
-1228 -1239 0
-1228 -1240 0
-1228 -1241 0
-1228 -1242 0
-1229 -1230 0
-1229 -1231 0
-1229 -1232 0
-1229 -1233 0
-1229 -1234 0
-1229 -1235 0
-1229 -1236 0
-1229 -1237 0
-1229 -1238 0
-1229 -1239 0
-1229 -1240 0
-1229 -1241 0
-1229 -1242 0
-1230 -1231 0
-1230 -1232 0
-1230 -1233 0
-1230 -1234 0
-1230 -1235 0
-1230 -1236 0
-1230 -1237 0
-1230 -1238 0
-1230 -1239 0
-1230 -1240 0
-1230 -1241 0
-1230 -1242 0
-1231 -1232 0
-1231 -1233 0
-1231 -1234 0
-1231 -1235 0
-1231 -1236 0
-1231 -1237 0
-1231 -1238 0
-1231 -1239 0
-1231 -1240 0
-1231 -1241 0
-1231 -1242 0
-1232 -1233 0
-1232 -1234 0
-1232 -1235 0
-1232 -1236 0
-1232 -1237 0
-1232 -1238 0
-1232 -1239 0
-1232 -1240 0
-1232 -1241 0
-1232 -1242 0
-1233 -1234 0
-1233 -1235 0
-1233 -1236 0
-1233 -1237 0
-1233 -1238 0
-1233 -1239 0
-1233 -1240 0
-1233 -1241 0
-1233 -1242 0
-1234 -1235 0
-1234 -1236 0
-1234 -1237 0
-1234 -1238 0
-1234 -1239 0
-1234 -1240 0
-1234 -1241 0
-1234 -1242 0
-1235 -1236 0
-1235 -1237 0
-1235 -1238 0
-1235 -1239 0
-1235 -1240 0
-1235 -1241 0
-1235 -1242 0
-1236 -1237 0
-1236 -1238 0
-1236 -1239 0
-1236 -1240 0
-1236 -1241 0
-1236 -1242 0
-1237 -1238 0
-1237 -1239 0
-1237 -1240 0
-1237 -1241 0
-1237 -1242 0
-1238 -1239 0
-1238 -1240 0
-1238 -1241 0
-1238 -1242 0
-1239 -1240 0
-1239 -1241 0
-1239 -1242 0
-1240 -1241 0
-1240 -1242 0
-1241 -1242 0
-1243 17 0
-1243 136 0
-17 -136 1243 0
-1244 38 0
-1244 152 0
-38 -152 1244 0
-1245 59 0
-1245 168 0
-59 -168 1245 0
-1246 80 0
-1246 184 0
-80 -184 1246 0
-1247 101 0
-1247 200 0
-101 -200 1247 0
-1248 122 0
-1248 216 0
-122 -216 1248 0
-5 -129 1243 0
-26 -145 1243 1244 0
-47 -161 1243 1244 1245 0
-68 -177 1243 1244 1245 1246 0
-89 -193 1243 1244 1245 1246 1247 0
-110 -209 1243 1244 1245 1246 1247 1248 0
