c Mundo dos Blocos de tamanho variavel -> CNF
c INITIAL = {'c': (0, 0), 'a': (3, 0), 'b': (5, 0), 'd': (3, 1)}
c GOAL    = {'c': (0, 0), 'a': (0, 1), 'd': (2, 0), 'b': (5, 0)}
c HORIZON = 4
c        8 clausulas  3.1 estado inicial
c        8 clausulas  3.2 meta
c      250 clausulas  3.3 (A) unicidade de posicao
c      140 clausulas  3.3 (B) unicidade de nivel
c     1640 clausulas  3.3 (Z) definicao de cov
c      720 clausulas  3.3 (C) exclusao horizontal
c      435 clausulas  3.3 (D) estabilidade
c     1680 clausulas  3.3 (Y) definicao de esp
c      585 clausulas  3.3 (E) clear
c    12384 clausulas  3.4 (G) pre-condicoes de move
c     1428 clausulas  3.4 (F) efeitos de move
c      296 clausulas  3.5 frame axioms
c    13948 clausulas  3.6 acao unica por passo
c       20 clausulas  3.7 ordem parcial
p cnf 1146 33542
13 0
114 0
4 0
106 0
12 0
110 0
21 0
119 0
97 0
178 0
85 0
171 0
104 0
182 0
96 0
174 0
1 2 3 4 5 6 0
-1 -2 0
-1 -3 0
-1 -4 0
-1 -5 0
-1 -6 0
-2 -3 0
-2 -4 0
-2 -5 0
-2 -6 0
-3 -4 0
-3 -5 0
-3 -6 0
-4 -5 0
-4 -6 0
-5 -6 0
7 8 9 10 11 12 0
-7 -8 0
-7 -9 0
-7 -10 0
-7 -11 0
-7 -12 0
-8 -9 0
-8 -10 0
-8 -11 0
-8 -12 0
-9 -10 0
-9 -11 0
-9 -12 0
-10 -11 0
-10 -12 0
-11 -12 0
13 14 15 16 17 0
-13 -14 0
-13 -15 0
-13 -16 0
-13 -17 0
-14 -15 0
-14 -16 0
-14 -17 0
-15 -16 0
-15 -17 0
-16 -17 0
18 19 20 21 0
-18 -19 0
-18 -20 0
-18 -21 0
-19 -20 0
-19 -21 0
-20 -21 0
106 107 108 109 0
-106 -107 0
-106 -108 0
-106 -109 0
-107 -108 0
-107 -109 0
-108 -109 0
110 111 112 113 0
-110 -111 0
-110 -112 0
-110 -113 0
-111 -112 0
-111 -113 0
-112 -113 0
114 115 116 117 0
-114 -115 0
-114 -116 0
-114 -117 0
-115 -116 0
-115 -117 0
-116 -117 0
118 119 120 121 0
-118 -119 0
-118 -120 0
-118 -121 0
-119 -120 0
-119 -121 0
-120 -121 0
-206 106 0
-206 1 0
-1 -106 206 0
-207 106 0
-207 2 0
-2 -106 207 0
-208 106 0
-208 3 0
-3 -106 208 0
-209 106 0
-209 4 0
-4 -106 209 0
-210 106 0
-210 5 0
-5 -106 210 0
-211 106 0
-211 6 0
-6 -106 211 0
-212 107 0
-212 1 0
-1 -107 212 0
-213 107 0
-213 2 0
-2 -107 213 0
-214 107 0
-214 3 0
-3 -107 214 0
-215 107 0
-215 4 0
-4 -107 215 0
-216 107 0
-216 5 0
-5 -107 216 0
-217 107 0
-217 6 0
-6 -107 217 0
-218 108 0
-218 1 0
-1 -108 218 0
-219 108 0
-219 2 0
-2 -108 219 0
-220 108 0
-220 3 0
-3 -108 220 0
-221 108 0
-221 4 0
-4 -108 221 0
-222 108 0
-222 5 0
-5 -108 222 0
-223 108 0
-223 6 0
-6 -108 223 0
-224 109 0
-224 1 0
-1 -109 224 0
-225 109 0
-225 2 0
-2 -109 225 0
-226 109 0
-226 3 0
-3 -109 226 0
-227 109 0
-227 4 0
-4 -109 227 0
-228 109 0
-228 5 0
-5 -109 228 0
-229 109 0
-229 6 0
-6 -109 229 0
-230 110 0
-230 7 0
-7 -110 230 0
-231 110 0
-231 8 0
-8 -110 231 0
-232 110 0
-232 9 0
-9 -110 232 0
-233 110 0
-233 10 0
-10 -110 233 0
-234 110 0
-234 11 0
-11 -110 234 0
-235 110 0
-235 12 0
-12 -110 235 0
-236 111 0
-236 7 0
-7 -111 236 0
-237 111 0
-237 8 0
-8 -111 237 0
-238 111 0
-238 9 0
-9 -111 238 0
-239 111 0
-239 10 0
-10 -111 239 0
-240 111 0
-240 11 0
-11 -111 240 0
-241 111 0
-241 12 0
-12 -111 241 0
-242 112 0
-242 7 0
-7 -112 242 0
-243 112 0
-243 8 0
-8 -112 243 0
-244 112 0
-244 9 0
-9 -112 244 0
-245 112 0
-245 10 0
-10 -112 245 0
-246 112 0
-246 11 0
-11 -112 246 0
-247 112 0
-247 12 0
-12 -112 247 0
-248 113 0
-248 7 0
-7 -113 248 0
-249 113 0
-249 8 0
-8 -113 249 0
-250 113 0
-250 9 0
-9 -113 250 0
-251 113 0
-251 10 0
-10 -113 251 0
-252 113 0
-252 11 0
-11 -113 252 0
-253 113 0
-253 12 0
-12 -113 253 0
-254 114 0
-254 13 0
-13 -114 254 0
-255 114 0
-255 13 14 0
-13 -114 255 0
-14 -114 255 0
-256 114 0
-256 14 15 0
-14 -114 256 0
-15 -114 256 0
-257 114 0
-257 15 16 0
-15 -114 257 0
-16 -114 257 0
-258 114 0
-258 16 17 0
-16 -114 258 0
-17 -114 258 0
-259 114 0
-259 17 0
-17 -114 259 0
-260 115 0
-260 13 0
-13 -115 260 0
-261 115 0
-261 13 14 0
-13 -115 261 0
-14 -115 261 0
-262 115 0
-262 14 15 0
-14 -115 262 0
-15 -115 262 0
-263 115 0
-263 15 16 0
-15 -115 263 0
-16 -115 263 0
-264 115 0
-264 16 17 0
-16 -115 264 0
-17 -115 264 0
-265 115 0
-265 17 0
-17 -115 265 0
-266 116 0
-266 13 0
-13 -116 266 0
-267 116 0
-267 13 14 0
-13 -116 267 0
-14 -116 267 0
-268 116 0
-268 14 15 0
-14 -116 268 0
-15 -116 268 0
-269 116 0
-269 15 16 0
-15 -116 269 0
-16 -116 269 0
-270 116 0
-270 16 17 0
-16 -116 270 0
-17 -116 270 0
-271 116 0
-271 17 0
-17 -116 271 0
-272 117 0
-272 13 0
-13 -117 272 0
-273 117 0
-273 13 14 0
-13 -117 273 0
-14 -117 273 0
-274 117 0
-274 14 15 0
-14 -117 274 0
-15 -117 274 0
-275 117 0
-275 15 16 0
-15 -117 275 0
-16 -117 275 0
-276 117 0
-276 16 17 0
-16 -117 276 0
-17 -117 276 0
-277 117 0
-277 17 0
-17 -117 277 0
-278 118 0
-278 18 0
-18 -118 278 0
-279 118 0
-279 18 19 0
-18 -118 279 0
-19 -118 279 0
-280 118 0
-280 18 19 20 0
-18 -118 280 0
-19 -118 280 0
-20 -118 280 0
-281 118 0
-281 19 20 21 0
-19 -118 281 0
-20 -118 281 0
-21 -118 281 0
-282 118 0
-282 20 21 0
-20 -118 282 0
-21 -118 282 0
-283 118 0
-283 21 0
-21 -118 283 0
-284 119 0
-284 18 0
-18 -119 284 0
-285 119 0
-285 18 19 0
-18 -119 285 0
-19 -119 285 0
-286 119 0
-286 18 19 20 0
-18 -119 286 0
-19 -119 286 0
-20 -119 286 0
-287 119 0
-287 19 20 21 0
-19 -119 287 0
-20 -119 287 0
-21 -119 287 0
-288 119 0
-288 20 21 0
-20 -119 288 0
-21 -119 288 0
-289 119 0
-289 21 0
-21 -119 289 0
-290 120 0
-290 18 0
-18 -120 290 0
-291 120 0
-291 18 19 0
-18 -120 291 0
-19 -120 291 0
-292 120 0
-292 18 19 20 0
-18 -120 292 0
-19 -120 292 0
-20 -120 292 0
-293 120 0
-293 19 20 21 0
-19 -120 293 0
-20 -120 293 0
-21 -120 293 0
-294 120 0
-294 20 21 0
-20 -120 294 0
-21 -120 294 0
-295 120 0
-295 21 0
-21 -120 295 0
-296 121 0
-296 18 0
-18 -121 296 0
-297 121 0
-297 18 19 0
-18 -121 297 0
-19 -121 297 0
-298 121 0
-298 18 19 20 0
-18 -121 298 0
-19 -121 298 0
-20 -121 298 0
-299 121 0
-299 19 20 21 0
-19 -121 299 0
-20 -121 299 0
-21 -121 299 0
-300 121 0
-300 20 21 0
-20 -121 300 0
-21 -121 300 0
-301 121 0
-301 21 0
-21 -121 301 0
-206 -230 0
-206 -254 0
-206 -278 0
-230 -254 0
-230 -278 0
-254 -278 0
-207 -231 0
-207 -255 0
-207 -279 0
-231 -255 0
-231 -279 0
-255 -279 0
-208 -232 0
-208 -256 0
-208 -280 0
-232 -256 0
-232 -280 0
-256 -280 0
-209 -233 0
-209 -257 0
-209 -281 0
-233 -257 0
-233 -281 0
-257 -281 0
-210 -234 0
-210 -258 0
-210 -282 0
-234 -258 0
-234 -282 0
-258 -282 0
-211 -235 0
-211 -259 0
-211 -283 0
-235 -259 0
-235 -283 0
-259 -283 0
-212 -236 0
-212 -260 0
-212 -284 0
-236 -260 0
-236 -284 0
-260 -284 0
-213 -237 0
-213 -261 0
-213 -285 0
-237 -261 0
-237 -285 0
-261 -285 0
-214 -238 0
-214 -262 0
-214 -286 0
-238 -262 0
-238 -286 0
-262 -286 0
-215 -239 0
-215 -263 0
-215 -287 0
-239 -263 0
-239 -287 0
-263 -287 0
-216 -240 0
-216 -264 0
-216 -288 0
-240 -264 0
-240 -288 0
-264 -288 0
-217 -241 0
-217 -265 0
-217 -289 0
-241 -265 0
-241 -289 0
-265 -289 0
-218 -242 0
-218 -266 0
-218 -290 0
-242 -266 0
-242 -290 0
-266 -290 0
-219 -243 0
-219 -267 0
-219 -291 0
-243 -267 0
-243 -291 0
-267 -291 0
-220 -244 0
-220 -268 0
-220 -292 0
-244 -268 0
-244 -292 0
-268 -292 0
-221 -245 0
-221 -269 0
-221 -293 0
-245 -269 0
-245 -293 0
-269 -293 0
-222 -246 0
-222 -270 0
-222 -294 0
-246 -270 0
-246 -294 0
-270 -294 0
-223 -247 0
-223 -271 0
-223 -295 0
-247 -271 0
-247 -295 0
-271 -295 0
-224 -248 0
-224 -272 0
-224 -296 0
-248 -272 0
-248 -296 0
-272 -296 0
-225 -249 0
-225 -273 0
-225 -297 0
-249 -273 0
-249 -297 0
-273 -297 0
-226 -250 0
-226 -274 0
-226 -298 0
-250 -274 0
-250 -298 0
-274 -298 0
-227 -251 0
-227 -275 0
-227 -299 0
-251 -275 0
-251 -299 0
-275 -299 0
-228 -252 0
-228 -276 0
-228 -300 0
-252 -276 0
-252 -300 0
-276 -300 0
-229 -253 0
-229 -277 0
-229 -301 0
-253 -277 0
-253 -301 0
-277 -301 0
-1 -107 230 254 278 0
-1 -108 236 260 284 0
-1 -109 242 266 290 0
-2 -107 231 255 279 0
-2 -108 237 261 285 0
-2 -109 243 267 291 0
-3 -107 232 256 280 0
-3 -108 238 262 286 0
-3 -109 244 268 292 0
-4 -107 233 257 281 0
-4 -108 239 263 287 0
-4 -109 245 269 293 0
-5 -107 234 258 282 0
-5 -108 240 264 288 0
-5 -109 246 270 294 0
-6 -107 235 259 283 0
-6 -108 241 265 289 0
-6 -109 247 271 295 0
-7 -111 206 254 278 0
-7 -112 212 260 284 0
-7 -113 218 266 290 0
-8 -111 207 255 279 0
-8 -112 213 261 285 0
-8 -113 219 267 291 0
-9 -111 208 256 280 0
-9 -112 214 262 286 0
-9 -113 220 268 292 0
-10 -111 209 257 281 0
-10 -112 215 263 287 0
-10 -113 221 269 293 0
-11 -111 210 258 282 0
-11 -112 216 264 288 0
-11 -113 222 270 294 0
-12 -111 211 259 283 0
-12 -112 217 265 289 0
-12 -113 223 271 295 0
-13 -115 206 230 278 207 231 279 0
-13 -116 212 236 284 213 237 285 0
-13 -117 218 242 290 219 243 291 0
-14 -115 207 231 279 208 232 280 0
-14 -116 213 237 285 214 238 286 0
-14 -117 219 243 291 220 244 292 0
-15 -115 208 232 280 209 233 281 0
-15 -116 214 238 286 215 239 287 0
-15 -117 220 244 292 221 245 293 0
-16 -115 209 233 281 210 234 282 0
-16 -116 215 239 287 216 240 288 0
-16 -117 221 245 293 222 246 294 0
-17 -115 210 234 282 211 235 283 0
-17 -116 216 240 288 217 241 289 0
-17 -117 222 246 294 223 247 295 0
-18 -119 206 230 254 207 231 255 0
-18 -119 206 230 254 208 232 256 0
-18 -119 207 231 255 208 232 256 0
-18 -120 212 236 260 213 237 261 0
-18 -120 212 236 260 214 238 262 0
-18 -120 213 237 261 214 238 262 0
-18 -121 218 242 266 219 243 267 0
-18 -121 218 242 266 220 244 268 0
-18 -121 219 243 267 220 244 268 0
-19 -119 207 231 255 208 232 256 0
-19 -119 207 231 255 209 233 257 0
-19 -119 208 232 256 209 233 257 0
-19 -120 213 237 261 214 238 262 0
-19 -120 213 237 261 215 239 263 0
-19 -120 214 238 262 215 239 263 0
-19 -121 219 243 267 220 244 268 0
-19 -121 219 243 267 221 245 269 0
-19 -121 220 244 268 221 245 269 0
-20 -119 208 232 256 209 233 257 0
-20 -119 208 232 256 210 234 258 0
-20 -119 209 233 257 210 234 258 0
-20 -120 214 238 262 215 239 263 0
-20 -120 214 238 262 216 240 264 0
-20 -120 215 239 263 216 240 264 0
-20 -121 220 244 268 221 245 269 0
-20 -121 220 244 268 222 246 270 0
-20 -121 221 245 269 222 246 270 0
-21 -119 209 233 257 210 234 258 0
-21 -119 209 233 257 211 235 259 0
-21 -119 210 234 258 211 235 259 0
-21 -120 215 239 263 216 240 264 0
-21 -120 215 239 263 217 241 265 0
-21 -120 216 240 264 217 241 265 0
-21 -121 221 245 269 222 246 270 0
-21 -121 221 245 269 223 247 271 0
-21 -121 222 246 270 223 247 271 0
-1027 206 212 218 224 0
-1027 -206 -236 0
-1027 -206 -260 0
-1027 -206 -284 0
-206 1027 236 260 284 0
-1027 -212 -242 0
-1027 -212 -266 0
-1027 -212 -290 0
-212 1027 242 266 290 0
-1027 -218 -248 0
-1027 -218 -272 0
-1027 -218 -296 0
-218 1027 248 272 296 0
-224 1027 0
-1028 207 213 219 225 0
-1028 -207 -237 0
-1028 -207 -261 0
-1028 -207 -285 0
-207 1028 237 261 285 0
-1028 -213 -243 0
-1028 -213 -267 0
-1028 -213 -291 0
-213 1028 243 267 291 0
-1028 -219 -249 0
-1028 -219 -273 0
-1028 -219 -297 0
-219 1028 249 273 297 0
-225 1028 0
-1029 208 214 220 226 0
-1029 -208 -238 0
-1029 -208 -262 0
-1029 -208 -286 0
-208 1029 238 262 286 0
-1029 -214 -244 0
-1029 -214 -268 0
-1029 -214 -292 0
-214 1029 244 268 292 0
-1029 -220 -250 0
-1029 -220 -274 0
-1029 -220 -298 0
-220 1029 250 274 298 0
-226 1029 0
-1030 209 215 221 227 0
-1030 -209 -239 0
-1030 -209 -263 0
-1030 -209 -287 0
-209 1030 239 263 287 0
-1030 -215 -245 0
-1030 -215 -269 0
-1030 -215 -293 0
-215 1030 245 269 293 0
-1030 -221 -251 0
-1030 -221 -275 0
-1030 -221 -299 0
-221 1030 251 275 299 0
-227 1030 0
-1031 210 216 222 228 0
-1031 -210 -240 0
-1031 -210 -264 0
-1031 -210 -288 0
-210 1031 240 264 288 0
-1031 -216 -246 0
-1031 -216 -270 0
-1031 -216 -294 0
-216 1031 246 270 294 0
-1031 -222 -252 0
-1031 -222 -276 0
-1031 -222 -300 0
-222 1031 252 276 300 0
-228 1031 0
-1032 211 217 223 229 0
-1032 -211 -241 0
-1032 -211 -265 0
-1032 -211 -289 0
-211 1032 241 265 289 0
-1032 -217 -247 0
-1032 -217 -271 0
-1032 -217 -295 0
-217 1032 247 271 295 0
-1032 -223 -253 0
-1032 -223 -277 0
-1032 -223 -301 0
-223 1032 253 277 301 0
-229 1032 0
-1033 230 236 242 248 0
-1033 -230 -212 0
-1033 -230 -260 0
-1033 -230 -284 0
-230 1033 212 260 284 0
-1033 -236 -218 0
-1033 -236 -266 0
-1033 -236 -290 0
-236 1033 218 266 290 0
-1033 -242 -224 0
-1033 -242 -272 0
-1033 -242 -296 0
-242 1033 224 272 296 0
-248 1033 0
-1034 231 237 243 249 0
-1034 -231 -213 0
-1034 -231 -261 0
-1034 -231 -285 0
-231 1034 213 261 285 0
-1034 -237 -219 0
-1034 -237 -267 0
-1034 -237 -291 0
-237 1034 219 267 291 0
-1034 -243 -225 0
-1034 -243 -273 0
-1034 -243 -297 0
-243 1034 225 273 297 0
-249 1034 0
-1035 232 238 244 250 0
-1035 -232 -214 0
-1035 -232 -262 0
-1035 -232 -286 0
-232 1035 214 262 286 0
-1035 -238 -220 0
-1035 -238 -268 0
-1035 -238 -292 0
-238 1035 220 268 292 0
-1035 -244 -226 0
-1035 -244 -274 0
-1035 -244 -298 0
-244 1035 226 274 298 0
-250 1035 0
-1036 233 239 245 251 0
-1036 -233 -215 0
-1036 -233 -263 0
-1036 -233 -287 0
-233 1036 215 263 287 0
-1036 -239 -221 0
-1036 -239 -269 0
-1036 -239 -293 0
-239 1036 221 269 293 0
-1036 -245 -227 0
-1036 -245 -275 0
-1036 -245 -299 0
-245 1036 227 275 299 0
-251 1036 0
-1037 234 240 246 252 0
-1037 -234 -216 0
-1037 -234 -264 0
-1037 -234 -288 0
-234 1037 216 264 288 0
-1037 -240 -222 0
-1037 -240 -270 0
-1037 -240 -294 0
-240 1037 222 270 294 0
-1037 -246 -228 0
-1037 -246 -276 0
-1037 -246 -300 0
-246 1037 228 276 300 0
-252 1037 0
-1038 235 241 247 253 0
-1038 -235 -217 0
-1038 -235 -265 0
-1038 -235 -289 0
-235 1038 217 265 289 0
-1038 -241 -223 0
-1038 -241 -271 0
-1038 -241 -295 0
-241 1038 223 271 295 0
-1038 -247 -229 0
-1038 -247 -277 0
-1038 -247 -301 0
-247 1038 229 277 301 0
-253 1038 0
-1039 254 260 266 272 0
-1039 -254 -212 0
-1039 -254 -236 0
-1039 -254 -284 0
-254 1039 212 236 284 0
-1039 -260 -218 0
-1039 -260 -242 0
-1039 -260 -290 0
-260 1039 218 242 290 0
-1039 -266 -224 0
-1039 -266 -248 0
-1039 -266 -296 0
-266 1039 224 248 296 0
-272 1039 0
-1040 255 261 267 273 0
-1040 -255 -213 0
-1040 -255 -237 0
-1040 -255 -285 0
-255 1040 213 237 285 0
-1040 -261 -219 0
-1040 -261 -243 0
-1040 -261 -291 0
-261 1040 219 243 291 0
-1040 -267 -225 0
-1040 -267 -249 0
-1040 -267 -297 0
-267 1040 225 249 297 0
-273 1040 0
-1041 256 262 268 274 0
-1041 -256 -214 0
-1041 -256 -238 0
-1041 -256 -286 0
-256 1041 214 238 286 0
-1041 -262 -220 0
-1041 -262 -244 0
-1041 -262 -292 0
-262 1041 220 244 292 0
-1041 -268 -226 0
-1041 -268 -250 0
-1041 -268 -298 0
-268 1041 226 250 298 0
-274 1041 0
-1042 257 263 269 275 0
-1042 -257 -215 0
-1042 -257 -239 0
-1042 -257 -287 0
-257 1042 215 239 287 0
-1042 -263 -221 0
-1042 -263 -245 0
-1042 -263 -293 0
-263 1042 221 245 293 0
-1042 -269 -227 0
-1042 -269 -251 0
-1042 -269 -299 0
-269 1042 227 251 299 0
-275 1042 0
-1043 258 264 270 276 0
-1043 -258 -216 0
-1043 -258 -240 0
-1043 -258 -288 0
-258 1043 216 240 288 0
-1043 -264 -222 0
-1043 -264 -246 0
-1043 -264 -294 0
-264 1043 222 246 294 0
-1043 -270 -228 0
-1043 -270 -252 0
-1043 -270 -300 0
-270 1043 228 252 300 0
-276 1043 0
-1044 259 265 271 277 0
-1044 -259 -217 0
-1044 -259 -241 0
-1044 -259 -289 0
-259 1044 217 241 289 0
-1044 -265 -223 0
-1044 -265 -247 0
-1044 -265 -295 0
-265 1044 223 247 295 0
-1044 -271 -229 0
-1044 -271 -253 0
-1044 -271 -301 0
-271 1044 229 253 301 0
-277 1044 0
-1045 278 284 290 296 0
-1045 -278 -212 0
-1045 -278 -236 0
-1045 -278 -260 0
-278 1045 212 236 260 0
-1045 -284 -218 0
-1045 -284 -242 0
-1045 -284 -266 0
-284 1045 218 242 266 0
-1045 -290 -224 0
-1045 -290 -248 0
-1045 -290 -272 0
-290 1045 224 248 272 0
-296 1045 0
-1046 279 285 291 297 0
-1046 -279 -213 0
-1046 -279 -237 0
-1046 -279 -261 0
-279 1046 213 237 261 0
-1046 -285 -219 0
-1046 -285 -243 0
-1046 -285 -267 0
-285 1046 219 243 267 0
-1046 -291 -225 0
-1046 -291 -249 0
-1046 -291 -273 0
-291 1046 225 249 273 0
-297 1046 0
-1047 280 286 292 298 0
-1047 -280 -214 0
-1047 -280 -238 0
-1047 -280 -262 0
-280 1047 214 238 262 0
-1047 -286 -220 0
-1047 -286 -244 0
-1047 -286 -268 0
-286 1047 220 244 268 0
-1047 -292 -226 0
-1047 -292 -250 0
-1047 -292 -274 0
-292 1047 226 250 274 0
-298 1047 0
-1048 281 287 293 299 0
-1048 -281 -215 0
-1048 -281 -239 0
-1048 -281 -263 0
-281 1048 215 239 263 0
-1048 -287 -221 0
-1048 -287 -245 0
-1048 -287 -269 0
-287 1048 221 245 269 0
-1048 -293 -227 0
-1048 -293 -251 0
-1048 -293 -275 0
-293 1048 227 251 275 0
-299 1048 0
-1049 282 288 294 300 0
-1049 -282 -216 0
-1049 -282 -240 0
-1049 -282 -264 0
-282 1049 216 240 264 0
-1049 -288 -222 0
-1049 -288 -246 0
-1049 -288 -270 0
-288 1049 222 246 270 0
-1049 -294 -228 0
-1049 -294 -252 0
-1049 -294 -276 0
-294 1049 228 252 276 0
-300 1049 0
-1050 283 289 295 301 0
-1050 -283 -217 0
-1050 -283 -241 0
-1050 -283 -265 0
-283 1050 217 241 265 0
-1050 -289 -223 0
-1050 -289 -247 0
-1050 -289 -271 0
-289 1050 223 247 271 0
-1050 -295 -229 0
-1050 -295 -253 0
-1050 -295 -277 0
-295 1050 229 253 277 0
-301 1050 0
-186 -206 1027 0
-186 -212 1027 0
-186 -218 1027 0
-186 -224 1027 0
-186 -207 1028 0
-186 -213 1028 0
-186 -219 1028 0
-186 -225 1028 0
-186 -208 1029 0
-186 -214 1029 0
-186 -220 1029 0
-186 -226 1029 0
-186 -209 1030 0
-186 -215 1030 0
-186 -221 1030 0
-186 -227 1030 0
-186 -210 1031 0
-186 -216 1031 0
-186 -222 1031 0
-186 -228 1031 0
-186 -211 1032 0
-186 -217 1032 0
-186 -223 1032 0
-186 -229 1032 0
-1 186 -1027 0
-2 186 -1028 0
-3 186 -1029 0
-4 186 -1030 0
-5 186 -1031 0
-6 186 -1032 0
-187 -230 1033 0
-187 -236 1033 0
-187 -242 1033 0
-187 -248 1033 0
-187 -231 1034 0
-187 -237 1034 0
-187 -243 1034 0
-187 -249 1034 0
-187 -232 1035 0
-187 -238 1035 0
-187 -244 1035 0
-187 -250 1035 0
-187 -233 1036 0
-187 -239 1036 0
-187 -245 1036 0
-187 -251 1036 0
-187 -234 1037 0
-187 -240 1037 0
-187 -246 1037 0
-187 -252 1037 0
-187 -235 1038 0
-187 -241 1038 0
-187 -247 1038 0
-187 -253 1038 0
-7 187 -1033 0
-8 187 -1034 0
-9 187 -1035 0
-10 187 -1036 0
-11 187 -1037 0
-12 187 -1038 0
-188 -254 1039 0
-188 -260 1039 0
-188 -266 1039 0
-188 -272 1039 0
-188 -255 1040 0
-188 -261 1040 0
-188 -267 1040 0
-188 -273 1040 0
-188 -256 1041 0
-188 -262 1041 0
-188 -268 1041 0
-188 -274 1041 0
-188 -257 1042 0
-188 -263 1042 0
-188 -269 1042 0
-188 -275 1042 0
-188 -258 1043 0
-188 -264 1043 0
-188 -270 1043 0
-188 -276 1043 0
-188 -259 1044 0
-188 -265 1044 0
-188 -271 1044 0
-188 -277 1044 0
-13 188 -1039 -1040 0
-14 188 -1040 -1041 0
-15 188 -1041 -1042 0
-16 188 -1042 -1043 0
-17 188 -1043 -1044 0
-189 -278 1045 0
-189 -284 1045 0
-189 -290 1045 0
-189 -296 1045 0
-189 -279 1046 0
-189 -285 1046 0
-189 -291 1046 0
-189 -297 1046 0
-189 -280 1047 0
-189 -286 1047 0
-189 -292 1047 0
-189 -298 1047 0
-189 -281 1048 0
-189 -287 1048 0
-189 -293 1048 0
-189 -299 1048 0
-189 -282 1049 0
-189 -288 1049 0
-189 -294 1049 0
-189 -300 1049 0
-189 -283 1050 0
-189 -289 1050 0
-189 -295 1050 0
-189 -301 1050 0
-18 189 -1045 -1046 -1047 0
-19 189 -1046 -1047 -1048 0
-20 189 -1047 -1048 -1049 0
-21 189 -1048 -1049 -1050 0
22 23 24 25 26 27 0
-22 -23 0
-22 -24 0
-22 -25 0
-22 -26 0
-22 -27 0
-23 -24 0
-23 -25 0
-23 -26 0
-23 -27 0
-24 -25 0
-24 -26 0
-24 -27 0
-25 -26 0
-25 -27 0
-26 -27 0
28 29 30 31 32 33 0
-28 -29 0
-28 -30 0
-28 -31 0
-28 -32 0
-28 -33 0
-29 -30 0
-29 -31 0
-29 -32 0
-29 -33 0
-30 -31 0
-30 -32 0
-30 -33 0
-31 -32 0
-31 -33 0
-32 -33 0
34 35 36 37 38 0
-34 -35 0
-34 -36 0
-34 -37 0
-34 -38 0
-35 -36 0
-35 -37 0
-35 -38 0
-36 -37 0
-36 -38 0
-37 -38 0
39 40 41 42 0
-39 -40 0
-39 -41 0
-39 -42 0
-40 -41 0
-40 -42 0
-41 -42 0
122 123 124 125 0
-122 -123 0
-122 -124 0
-122 -125 0
-123 -124 0
-123 -125 0
-124 -125 0
126 127 128 129 0
-126 -127 0
-126 -128 0
-126 -129 0
-127 -128 0
-127 -129 0
-128 -129 0
130 131 132 133 0
-130 -131 0
-130 -132 0
-130 -133 0
-131 -132 0
-131 -133 0
-132 -133 0
134 135 136 137 0
-134 -135 0
-134 -136 0
-134 -137 0
-135 -136 0
-135 -137 0
-136 -137 0
-302 122 0
-302 22 0
-22 -122 302 0
-303 122 0
-303 23 0
-23 -122 303 0
-304 122 0
-304 24 0
-24 -122 304 0
-305 122 0
-305 25 0
-25 -122 305 0
-306 122 0
-306 26 0
-26 -122 306 0
-307 122 0
-307 27 0
-27 -122 307 0
-308 123 0
-308 22 0
-22 -123 308 0
-309 123 0
-309 23 0
-23 -123 309 0
-310 123 0
-310 24 0
-24 -123 310 0
-311 123 0
-311 25 0
-25 -123 311 0
-312 123 0
-312 26 0
-26 -123 312 0
-313 123 0
-313 27 0
-27 -123 313 0
-314 124 0
-314 22 0
-22 -124 314 0
-315 124 0
-315 23 0
-23 -124 315 0
-316 124 0
-316 24 0
-24 -124 316 0
-317 124 0
-317 25 0
-25 -124 317 0
-318 124 0
-318 26 0
-26 -124 318 0
-319 124 0
-319 27 0
-27 -124 319 0
-320 125 0
-320 22 0
-22 -125 320 0
-321 125 0
-321 23 0
-23 -125 321 0
-322 125 0
-322 24 0
-24 -125 322 0
-323 125 0
-323 25 0
-25 -125 323 0
-324 125 0
-324 26 0
-26 -125 324 0
-325 125 0
-325 27 0
-27 -125 325 0
-326 126 0
-326 28 0
-28 -126 326 0
-327 126 0
-327 29 0
-29 -126 327 0
-328 126 0
-328 30 0
-30 -126 328 0
-329 126 0
-329 31 0
-31 -126 329 0
-330 126 0
-330 32 0
-32 -126 330 0
-331 126 0
-331 33 0
-33 -126 331 0
-332 127 0
-332 28 0
-28 -127 332 0
-333 127 0
-333 29 0
-29 -127 333 0
-334 127 0
-334 30 0
-30 -127 334 0
-335 127 0
-335 31 0
-31 -127 335 0
-336 127 0
-336 32 0
-32 -127 336 0
-337 127 0
-337 33 0
-33 -127 337 0
-338 128 0
-338 28 0
-28 -128 338 0
-339 128 0
-339 29 0
-29 -128 339 0
-340 128 0
-340 30 0
-30 -128 340 0
-341 128 0
-341 31 0
-31 -128 341 0
-342 128 0
-342 32 0
-32 -128 342 0
-343 128 0
-343 33 0
-33 -128 343 0
-344 129 0
-344 28 0
-28 -129 344 0
-345 129 0
-345 29 0
-29 -129 345 0
-346 129 0
-346 30 0
-30 -129 346 0
-347 129 0
-347 31 0
-31 -129 347 0
-348 129 0
-348 32 0
-32 -129 348 0
-349 129 0
-349 33 0
-33 -129 349 0
-350 130 0
-350 34 0
-34 -130 350 0
-351 130 0
-351 34 35 0
-34 -130 351 0
-35 -130 351 0
-352 130 0
-352 35 36 0
-35 -130 352 0
-36 -130 352 0
-353 130 0
-353 36 37 0
-36 -130 353 0
-37 -130 353 0
-354 130 0
-354 37 38 0
-37 -130 354 0
-38 -130 354 0
-355 130 0
-355 38 0
-38 -130 355 0
-356 131 0
-356 34 0
-34 -131 356 0
-357 131 0
-357 34 35 0
-34 -131 357 0
-35 -131 357 0
-358 131 0
-358 35 36 0
-35 -131 358 0
-36 -131 358 0
-359 131 0
-359 36 37 0
-36 -131 359 0
-37 -131 359 0
-360 131 0
-360 37 38 0
-37 -131 360 0
-38 -131 360 0
-361 131 0
-361 38 0
-38 -131 361 0
-362 132 0
-362 34 0
-34 -132 362 0
-363 132 0
-363 34 35 0
-34 -132 363 0
-35 -132 363 0
-364 132 0
-364 35 36 0
-35 -132 364 0
-36 -132 364 0
-365 132 0
-365 36 37 0
-36 -132 365 0
-37 -132 365 0
-366 132 0
-366 37 38 0
-37 -132 366 0
-38 -132 366 0
-367 132 0
-367 38 0
-38 -132 367 0
-368 133 0
-368 34 0
-34 -133 368 0
-369 133 0
-369 34 35 0
-34 -133 369 0
-35 -133 369 0
-370 133 0
-370 35 36 0
-35 -133 370 0
-36 -133 370 0
-371 133 0
-371 36 37 0
-36 -133 371 0
-37 -133 371 0
-372 133 0
-372 37 38 0
-37 -133 372 0
-38 -133 372 0
-373 133 0
-373 38 0
-38 -133 373 0
-374 134 0
-374 39 0
-39 -134 374 0
-375 134 0
-375 39 40 0
-39 -134 375 0
-40 -134 375 0
-376 134 0
-376 39 40 41 0
-39 -134 376 0
-40 -134 376 0
-41 -134 376 0
-377 134 0
-377 40 41 42 0
-40 -134 377 0
-41 -134 377 0
-42 -134 377 0
-378 134 0
-378 41 42 0
-41 -134 378 0
-42 -134 378 0
-379 134 0
-379 42 0
-42 -134 379 0
-380 135 0
-380 39 0
-39 -135 380 0
-381 135 0
-381 39 40 0
-39 -135 381 0
-40 -135 381 0
-382 135 0
-382 39 40 41 0
-39 -135 382 0
-40 -135 382 0
-41 -135 382 0
-383 135 0
-383 40 41 42 0
-40 -135 383 0
-41 -135 383 0
-42 -135 383 0
-384 135 0
-384 41 42 0
-41 -135 384 0
-42 -135 384 0
-385 135 0
-385 42 0
-42 -135 385 0
-386 136 0
-386 39 0
-39 -136 386 0
-387 136 0
-387 39 40 0
-39 -136 387 0
-40 -136 387 0
-388 136 0
-388 39 40 41 0
-39 -136 388 0
-40 -136 388 0
-41 -136 388 0
-389 136 0
-389 40 41 42 0
-40 -136 389 0
-41 -136 389 0
-42 -136 389 0
-390 136 0
-390 41 42 0
-41 -136 390 0
-42 -136 390 0
-391 136 0
-391 42 0
-42 -136 391 0
-392 137 0
-392 39 0
-39 -137 392 0
-393 137 0
-393 39 40 0
-39 -137 393 0
-40 -137 393 0
-394 137 0
-394 39 40 41 0
-39 -137 394 0
-40 -137 394 0
-41 -137 394 0
-395 137 0
-395 40 41 42 0
-40 -137 395 0
-41 -137 395 0
-42 -137 395 0
-396 137 0
-396 41 42 0
-41 -137 396 0
-42 -137 396 0
-397 137 0
-397 42 0
-42 -137 397 0
-302 -326 0
-302 -350 0
-302 -374 0
-326 -350 0
-326 -374 0
-350 -374 0
-303 -327 0
-303 -351 0
-303 -375 0
-327 -351 0
-327 -375 0
-351 -375 0
-304 -328 0
-304 -352 0
-304 -376 0
-328 -352 0
-328 -376 0
-352 -376 0
-305 -329 0
-305 -353 0
-305 -377 0
-329 -353 0
-329 -377 0
-353 -377 0
-306 -330 0
-306 -354 0
-306 -378 0
-330 -354 0
-330 -378 0
-354 -378 0
-307 -331 0
-307 -355 0
-307 -379 0
-331 -355 0
-331 -379 0
-355 -379 0
-308 -332 0
-308 -356 0
-308 -380 0
-332 -356 0
-332 -380 0
-356 -380 0
-309 -333 0
-309 -357 0
-309 -381 0
-333 -357 0
-333 -381 0
-357 -381 0
-310 -334 0
-310 -358 0
-310 -382 0
-334 -358 0
-334 -382 0
-358 -382 0
-311 -335 0
-311 -359 0
-311 -383 0
-335 -359 0
-335 -383 0
-359 -383 0
-312 -336 0
-312 -360 0
-312 -384 0
-336 -360 0
-336 -384 0
-360 -384 0
-313 -337 0
-313 -361 0
-313 -385 0
-337 -361 0
-337 -385 0
-361 -385 0
-314 -338 0
-314 -362 0
-314 -386 0
-338 -362 0
-338 -386 0
-362 -386 0
-315 -339 0
-315 -363 0
-315 -387 0
-339 -363 0
-339 -387 0
-363 -387 0
-316 -340 0
-316 -364 0
-316 -388 0
-340 -364 0
-340 -388 0
-364 -388 0
-317 -341 0
-317 -365 0
-317 -389 0
-341 -365 0
-341 -389 0
-365 -389 0
-318 -342 0
-318 -366 0
-318 -390 0
-342 -366 0
-342 -390 0
-366 -390 0
-319 -343 0
-319 -367 0
-319 -391 0
-343 -367 0
-343 -391 0
-367 -391 0
-320 -344 0
-320 -368 0
-320 -392 0
-344 -368 0
-344 -392 0
-368 -392 0
-321 -345 0
-321 -369 0
-321 -393 0
-345 -369 0
-345 -393 0
-369 -393 0
-322 -346 0
-322 -370 0
-322 -394 0
-346 -370 0
-346 -394 0
-370 -394 0
-323 -347 0
-323 -371 0
-323 -395 0
-347 -371 0
-347 -395 0
-371 -395 0
-324 -348 0
-324 -372 0
-324 -396 0
-348 -372 0
-348 -396 0
-372 -396 0
-325 -349 0
-325 -373 0
-325 -397 0
-349 -373 0
-349 -397 0
-373 -397 0
-22 -123 326 350 374 0
-22 -124 332 356 380 0
-22 -125 338 362 386 0
-23 -123 327 351 375 0
-23 -124 333 357 381 0
-23 -125 339 363 387 0
-24 -123 328 352 376 0
-24 -124 334 358 382 0
-24 -125 340 364 388 0
-25 -123 329 353 377 0
-25 -124 335 359 383 0
-25 -125 341 365 389 0
-26 -123 330 354 378 0
-26 -124 336 360 384 0
-26 -125 342 366 390 0
-27 -123 331 355 379 0
-27 -124 337 361 385 0
-27 -125 343 367 391 0
-28 -127 302 350 374 0
-28 -128 308 356 380 0
-28 -129 314 362 386 0
-29 -127 303 351 375 0
-29 -128 309 357 381 0
-29 -129 315 363 387 0
-30 -127 304 352 376 0
-30 -128 310 358 382 0
-30 -129 316 364 388 0
-31 -127 305 353 377 0
-31 -128 311 359 383 0
-31 -129 317 365 389 0
-32 -127 306 354 378 0
-32 -128 312 360 384 0
-32 -129 318 366 390 0
-33 -127 307 355 379 0
-33 -128 313 361 385 0
-33 -129 319 367 391 0
-34 -131 302 326 374 303 327 375 0
-34 -132 308 332 380 309 333 381 0
-34 -133 314 338 386 315 339 387 0
-35 -131 303 327 375 304 328 376 0
-35 -132 309 333 381 310 334 382 0
-35 -133 315 339 387 316 340 388 0
-36 -131 304 328 376 305 329 377 0
-36 -132 310 334 382 311 335 383 0
-36 -133 316 340 388 317 341 389 0
-37 -131 305 329 377 306 330 378 0
-37 -132 311 335 383 312 336 384 0
-37 -133 317 341 389 318 342 390 0
-38 -131 306 330 378 307 331 379 0
-38 -132 312 336 384 313 337 385 0
-38 -133 318 342 390 319 343 391 0
-39 -135 302 326 350 303 327 351 0
-39 -135 302 326 350 304 328 352 0
-39 -135 303 327 351 304 328 352 0
-39 -136 308 332 356 309 333 357 0
-39 -136 308 332 356 310 334 358 0
-39 -136 309 333 357 310 334 358 0
-39 -137 314 338 362 315 339 363 0
-39 -137 314 338 362 316 340 364 0
-39 -137 315 339 363 316 340 364 0
-40 -135 303 327 351 304 328 352 0
-40 -135 303 327 351 305 329 353 0
-40 -135 304 328 352 305 329 353 0
-40 -136 309 333 357 310 334 358 0
-40 -136 309 333 357 311 335 359 0
-40 -136 310 334 358 311 335 359 0
-40 -137 315 339 363 316 340 364 0
-40 -137 315 339 363 317 341 365 0
-40 -137 316 340 364 317 341 365 0
-41 -135 304 328 352 305 329 353 0
-41 -135 304 328 352 306 330 354 0
-41 -135 305 329 353 306 330 354 0
-41 -136 310 334 358 311 335 359 0
-41 -136 310 334 358 312 336 360 0
-41 -136 311 335 359 312 336 360 0
-41 -137 316 340 364 317 341 365 0
-41 -137 316 340 364 318 342 366 0
-41 -137 317 341 365 318 342 366 0
-42 -135 305 329 353 306 330 354 0
-42 -135 305 329 353 307 331 355 0
-42 -135 306 330 354 307 331 355 0
-42 -136 311 335 359 312 336 360 0
-42 -136 311 335 359 313 337 361 0
-42 -136 312 336 360 313 337 361 0
-42 -137 317 341 365 318 342 366 0
-42 -137 317 341 365 319 343 367 0
-42 -137 318 342 366 319 343 367 0
-1051 302 308 314 320 0
-1051 -302 -332 0
-1051 -302 -356 0
-1051 -302 -380 0
-302 1051 332 356 380 0
-1051 -308 -338 0
-1051 -308 -362 0
-1051 -308 -386 0
-308 1051 338 362 386 0
-1051 -314 -344 0
-1051 -314 -368 0
-1051 -314 -392 0
-314 1051 344 368 392 0
-320 1051 0
-1052 303 309 315 321 0
-1052 -303 -333 0
-1052 -303 -357 0
-1052 -303 -381 0
-303 1052 333 357 381 0
-1052 -309 -339 0
-1052 -309 -363 0
-1052 -309 -387 0
-309 1052 339 363 387 0
-1052 -315 -345 0
-1052 -315 -369 0
-1052 -315 -393 0
-315 1052 345 369 393 0
-321 1052 0
-1053 304 310 316 322 0
-1053 -304 -334 0
-1053 -304 -358 0
-1053 -304 -382 0
-304 1053 334 358 382 0
-1053 -310 -340 0
-1053 -310 -364 0
-1053 -310 -388 0
-310 1053 340 364 388 0
-1053 -316 -346 0
-1053 -316 -370 0
-1053 -316 -394 0
-316 1053 346 370 394 0
-322 1053 0
-1054 305 311 317 323 0
-1054 -305 -335 0
-1054 -305 -359 0
-1054 -305 -383 0
-305 1054 335 359 383 0
-1054 -311 -341 0
-1054 -311 -365 0
-1054 -311 -389 0
-311 1054 341 365 389 0
-1054 -317 -347 0
-1054 -317 -371 0
-1054 -317 -395 0
-317 1054 347 371 395 0
-323 1054 0
-1055 306 312 318 324 0
-1055 -306 -336 0
-1055 -306 -360 0
-1055 -306 -384 0
-306 1055 336 360 384 0
-1055 -312 -342 0
-1055 -312 -366 0
-1055 -312 -390 0
-312 1055 342 366 390 0
-1055 -318 -348 0
-1055 -318 -372 0
-1055 -318 -396 0
-318 1055 348 372 396 0
-324 1055 0
-1056 307 313 319 325 0
-1056 -307 -337 0
-1056 -307 -361 0
-1056 -307 -385 0
-307 1056 337 361 385 0
-1056 -313 -343 0
-1056 -313 -367 0
-1056 -313 -391 0
-313 1056 343 367 391 0
-1056 -319 -349 0
-1056 -319 -373 0
-1056 -319 -397 0
-319 1056 349 373 397 0
-325 1056 0
-1057 326 332 338 344 0
-1057 -326 -308 0
-1057 -326 -356 0
-1057 -326 -380 0
-326 1057 308 356 380 0
-1057 -332 -314 0
-1057 -332 -362 0
-1057 -332 -386 0
-332 1057 314 362 386 0
-1057 -338 -320 0
-1057 -338 -368 0
-1057 -338 -392 0
-338 1057 320 368 392 0
-344 1057 0
-1058 327 333 339 345 0
-1058 -327 -309 0
-1058 -327 -357 0
-1058 -327 -381 0
-327 1058 309 357 381 0
-1058 -333 -315 0
-1058 -333 -363 0
-1058 -333 -387 0
-333 1058 315 363 387 0
-1058 -339 -321 0
-1058 -339 -369 0
-1058 -339 -393 0
-339 1058 321 369 393 0
-345 1058 0
-1059 328 334 340 346 0
-1059 -328 -310 0
-1059 -328 -358 0
-1059 -328 -382 0
-328 1059 310 358 382 0
-1059 -334 -316 0
-1059 -334 -364 0
-1059 -334 -388 0
-334 1059 316 364 388 0
-1059 -340 -322 0
-1059 -340 -370 0
-1059 -340 -394 0
-340 1059 322 370 394 0
-346 1059 0
-1060 329 335 341 347 0
-1060 -329 -311 0
-1060 -329 -359 0
-1060 -329 -383 0
-329 1060 311 359 383 0
-1060 -335 -317 0
-1060 -335 -365 0
-1060 -335 -389 0
-335 1060 317 365 389 0
-1060 -341 -323 0
-1060 -341 -371 0
-1060 -341 -395 0
-341 1060 323 371 395 0
-347 1060 0
-1061 330 336 342 348 0
-1061 -330 -312 0
-1061 -330 -360 0
-1061 -330 -384 0
-330 1061 312 360 384 0
-1061 -336 -318 0
-1061 -336 -366 0
-1061 -336 -390 0
-336 1061 318 366 390 0
-1061 -342 -324 0
-1061 -342 -372 0
-1061 -342 -396 0
-342 1061 324 372 396 0
-348 1061 0
-1062 331 337 343 349 0
-1062 -331 -313 0
-1062 -331 -361 0
-1062 -331 -385 0
-331 1062 313 361 385 0
-1062 -337 -319 0
-1062 -337 -367 0
-1062 -337 -391 0
-337 1062 319 367 391 0
-1062 -343 -325 0
-1062 -343 -373 0
-1062 -343 -397 0
-343 1062 325 373 397 0
-349 1062 0
-1063 350 356 362 368 0
-1063 -350 -308 0
-1063 -350 -332 0
-1063 -350 -380 0
-350 1063 308 332 380 0
-1063 -356 -314 0
-1063 -356 -338 0
-1063 -356 -386 0
-356 1063 314 338 386 0
-1063 -362 -320 0
-1063 -362 -344 0
-1063 -362 -392 0
-362 1063 320 344 392 0
-368 1063 0
-1064 351 357 363 369 0
-1064 -351 -309 0
-1064 -351 -333 0
-1064 -351 -381 0
-351 1064 309 333 381 0
-1064 -357 -315 0
-1064 -357 -339 0
-1064 -357 -387 0
-357 1064 315 339 387 0
-1064 -363 -321 0
-1064 -363 -345 0
-1064 -363 -393 0
-363 1064 321 345 393 0
-369 1064 0
-1065 352 358 364 370 0
-1065 -352 -310 0
-1065 -352 -334 0
-1065 -352 -382 0
-352 1065 310 334 382 0
-1065 -358 -316 0
-1065 -358 -340 0
-1065 -358 -388 0
-358 1065 316 340 388 0
-1065 -364 -322 0
-1065 -364 -346 0
-1065 -364 -394 0
-364 1065 322 346 394 0
-370 1065 0
-1066 353 359 365 371 0
-1066 -353 -311 0
-1066 -353 -335 0
-1066 -353 -383 0
-353 1066 311 335 383 0
-1066 -359 -317 0
-1066 -359 -341 0
-1066 -359 -389 0
-359 1066 317 341 389 0
-1066 -365 -323 0
-1066 -365 -347 0
-1066 -365 -395 0
-365 1066 323 347 395 0
-371 1066 0
-1067 354 360 366 372 0
-1067 -354 -312 0
-1067 -354 -336 0
-1067 -354 -384 0
-354 1067 312 336 384 0
-1067 -360 -318 0
-1067 -360 -342 0
-1067 -360 -390 0
-360 1067 318 342 390 0
-1067 -366 -324 0
-1067 -366 -348 0
-1067 -366 -396 0
-366 1067 324 348 396 0
-372 1067 0
-1068 355 361 367 373 0
-1068 -355 -313 0
-1068 -355 -337 0
-1068 -355 -385 0
-355 1068 313 337 385 0
-1068 -361 -319 0
-1068 -361 -343 0
-1068 -361 -391 0
-361 1068 319 343 391 0
-1068 -367 -325 0
-1068 -367 -349 0
-1068 -367 -397 0
-367 1068 325 349 397 0
-373 1068 0
-1069 374 380 386 392 0
-1069 -374 -308 0
-1069 -374 -332 0
-1069 -374 -356 0
-374 1069 308 332 356 0
-1069 -380 -314 0
-1069 -380 -338 0
-1069 -380 -362 0
-380 1069 314 338 362 0
-1069 -386 -320 0
-1069 -386 -344 0
-1069 -386 -368 0
-386 1069 320 344 368 0
-392 1069 0
-1070 375 381 387 393 0
-1070 -375 -309 0
-1070 -375 -333 0
-1070 -375 -357 0
-375 1070 309 333 357 0
-1070 -381 -315 0
-1070 -381 -339 0
-1070 -381 -363 0
-381 1070 315 339 363 0
-1070 -387 -321 0
-1070 -387 -345 0
-1070 -387 -369 0
-387 1070 321 345 369 0
-393 1070 0
-1071 376 382 388 394 0
-1071 -376 -310 0
-1071 -376 -334 0
-1071 -376 -358 0
-376 1071 310 334 358 0
-1071 -382 -316 0
-1071 -382 -340 0
-1071 -382 -364 0
-382 1071 316 340 364 0
-1071 -388 -322 0
-1071 -388 -346 0
-1071 -388 -370 0
-388 1071 322 346 370 0
-394 1071 0
-1072 377 383 389 395 0
-1072 -377 -311 0
-1072 -377 -335 0
-1072 -377 -359 0
-377 1072 311 335 359 0
-1072 -383 -317 0
-1072 -383 -341 0
-1072 -383 -365 0
-383 1072 317 341 365 0
-1072 -389 -323 0
-1072 -389 -347 0
-1072 -389 -371 0
-389 1072 323 347 371 0
-395 1072 0
-1073 378 384 390 396 0
-1073 -378 -312 0
-1073 -378 -336 0
-1073 -378 -360 0
-378 1073 312 336 360 0
-1073 -384 -318 0
-1073 -384 -342 0
-1073 -384 -366 0
-384 1073 318 342 366 0
-1073 -390 -324 0
-1073 -390 -348 0
-1073 -390 -372 0
-390 1073 324 348 372 0
-396 1073 0
-1074 379 385 391 397 0
-1074 -379 -313 0
-1074 -379 -337 0
-1074 -379 -361 0
-379 1074 313 337 361 0
-1074 -385 -319 0
-1074 -385 -343 0
-1074 -385 -367 0
-385 1074 319 343 367 0
-1074 -391 -325 0
-1074 -391 -349 0
-1074 -391 -373 0
-391 1074 325 349 373 0
-397 1074 0
-190 -302 1051 0
-190 -308 1051 0
-190 -314 1051 0
-190 -320 1051 0
-190 -303 1052 0
-190 -309 1052 0
-190 -315 1052 0
-190 -321 1052 0
-190 -304 1053 0
-190 -310 1053 0
-190 -316 1053 0
-190 -322 1053 0
-190 -305 1054 0
-190 -311 1054 0
-190 -317 1054 0
-190 -323 1054 0
-190 -306 1055 0
-190 -312 1055 0
-190 -318 1055 0
-190 -324 1055 0
-190 -307 1056 0
-190 -313 1056 0
-190 -319 1056 0
-190 -325 1056 0
-22 190 -1051 0
-23 190 -1052 0
-24 190 -1053 0
-25 190 -1054 0
-26 190 -1055 0
-27 190 -1056 0
-191 -326 1057 0
-191 -332 1057 0
-191 -338 1057 0
-191 -344 1057 0
-191 -327 1058 0
-191 -333 1058 0
-191 -339 1058 0
-191 -345 1058 0
-191 -328 1059 0
-191 -334 1059 0
-191 -340 1059 0
-191 -346 1059 0
-191 -329 1060 0
-191 -335 1060 0
-191 -341 1060 0
-191 -347 1060 0
-191 -330 1061 0
-191 -336 1061 0
-191 -342 1061 0
-191 -348 1061 0
-191 -331 1062 0
-191 -337 1062 0
-191 -343 1062 0
-191 -349 1062 0
-28 191 -1057 0
-29 191 -1058 0
-30 191 -1059 0
-31 191 -1060 0
-32 191 -1061 0
-33 191 -1062 0
-192 -350 1063 0
-192 -356 1063 0
-192 -362 1063 0
-192 -368 1063 0
-192 -351 1064 0
-192 -357 1064 0
-192 -363 1064 0
-192 -369 1064 0
-192 -352 1065 0
-192 -358 1065 0
-192 -364 1065 0
-192 -370 1065 0
-192 -353 1066 0
-192 -359 1066 0
-192 -365 1066 0
-192 -371 1066 0
-192 -354 1067 0
-192 -360 1067 0
-192 -366 1067 0
-192 -372 1067 0
-192 -355 1068 0
-192 -361 1068 0
-192 -367 1068 0
-192 -373 1068 0
-34 192 -1063 -1064 0
-35 192 -1064 -1065 0
-36 192 -1065 -1066 0
-37 192 -1066 -1067 0
-38 192 -1067 -1068 0
-193 -374 1069 0
-193 -380 1069 0
-193 -386 1069 0
-193 -392 1069 0
-193 -375 1070 0
-193 -381 1070 0
-193 -387 1070 0
-193 -393 1070 0
-193 -376 1071 0
-193 -382 1071 0
-193 -388 1071 0
-193 -394 1071 0
-193 -377 1072 0
-193 -383 1072 0
-193 -389 1072 0
-193 -395 1072 0
-193 -378 1073 0
-193 -384 1073 0
-193 -390 1073 0
-193 -396 1073 0
-193 -379 1074 0
-193 -385 1074 0
-193 -391 1074 0
-193 -397 1074 0
-39 193 -1069 -1070 -1071 0
-40 193 -1070 -1071 -1072 0
-41 193 -1071 -1072 -1073 0
-42 193 -1072 -1073 -1074 0
43 44 45 46 47 48 0
-43 -44 0
-43 -45 0
-43 -46 0
-43 -47 0
-43 -48 0
-44 -45 0
-44 -46 0
-44 -47 0
-44 -48 0
-45 -46 0
-45 -47 0
-45 -48 0
-46 -47 0
-46 -48 0
-47 -48 0
49 50 51 52 53 54 0
-49 -50 0
-49 -51 0
-49 -52 0
-49 -53 0
-49 -54 0
-50 -51 0
-50 -52 0
-50 -53 0
-50 -54 0
-51 -52 0
-51 -53 0
-51 -54 0
-52 -53 0
-52 -54 0
-53 -54 0
55 56 57 58 59 0
-55 -56 0
-55 -57 0
-55 -58 0
-55 -59 0
-56 -57 0
-56 -58 0
-56 -59 0
-57 -58 0
-57 -59 0
-58 -59 0
60 61 62 63 0
-60 -61 0
-60 -62 0
-60 -63 0
-61 -62 0
-61 -63 0
-62 -63 0
138 139 140 141 0
-138 -139 0
-138 -140 0
-138 -141 0
-139 -140 0
-139 -141 0
-140 -141 0
142 143 144 145 0
-142 -143 0
-142 -144 0
-142 -145 0
-143 -144 0
-143 -145 0
-144 -145 0
146 147 148 149 0
-146 -147 0
-146 -148 0
-146 -149 0
-147 -148 0
-147 -149 0
-148 -149 0
150 151 152 153 0
-150 -151 0
-150 -152 0
-150 -153 0
-151 -152 0
-151 -153 0
-152 -153 0
-398 138 0
-398 43 0
-43 -138 398 0
-399 138 0
-399 44 0
-44 -138 399 0
-400 138 0
-400 45 0
-45 -138 400 0
-401 138 0
-401 46 0
-46 -138 401 0
-402 138 0
-402 47 0
-47 -138 402 0
-403 138 0
-403 48 0
-48 -138 403 0
-404 139 0
-404 43 0
-43 -139 404 0
-405 139 0
-405 44 0
-44 -139 405 0
-406 139 0
-406 45 0
-45 -139 406 0
-407 139 0
-407 46 0
-46 -139 407 0
-408 139 0
-408 47 0
-47 -139 408 0
-409 139 0
-409 48 0
-48 -139 409 0
-410 140 0
-410 43 0
-43 -140 410 0
-411 140 0
-411 44 0
-44 -140 411 0
-412 140 0
-412 45 0
-45 -140 412 0
-413 140 0
-413 46 0
-46 -140 413 0
-414 140 0
-414 47 0
-47 -140 414 0
-415 140 0
-415 48 0
-48 -140 415 0
-416 141 0
-416 43 0
-43 -141 416 0
-417 141 0
-417 44 0
-44 -141 417 0
-418 141 0
-418 45 0
-45 -141 418 0
-419 141 0
-419 46 0
-46 -141 419 0
-420 141 0
-420 47 0
-47 -141 420 0
-421 141 0
-421 48 0
-48 -141 421 0
-422 142 0
-422 49 0
-49 -142 422 0
-423 142 0
-423 50 0
-50 -142 423 0
-424 142 0
-424 51 0
-51 -142 424 0
-425 142 0
-425 52 0
-52 -142 425 0
-426 142 0
-426 53 0
-53 -142 426 0
-427 142 0
-427 54 0
-54 -142 427 0
-428 143 0
-428 49 0
-49 -143 428 0
-429 143 0
-429 50 0
-50 -143 429 0
-430 143 0
-430 51 0
-51 -143 430 0
-431 143 0
-431 52 0
-52 -143 431 0
-432 143 0
-432 53 0
-53 -143 432 0
-433 143 0
-433 54 0
-54 -143 433 0
-434 144 0
-434 49 0
-49 -144 434 0
-435 144 0
-435 50 0
-50 -144 435 0
-436 144 0
-436 51 0
-51 -144 436 0
-437 144 0
-437 52 0
-52 -144 437 0
-438 144 0
-438 53 0
-53 -144 438 0
-439 144 0
-439 54 0
-54 -144 439 0
-440 145 0
-440 49 0
-49 -145 440 0
-441 145 0
-441 50 0
-50 -145 441 0
-442 145 0
-442 51 0
-51 -145 442 0
-443 145 0
-443 52 0
-52 -145 443 0
-444 145 0
-444 53 0
-53 -145 444 0
-445 145 0
-445 54 0
-54 -145 445 0
-446 146 0
-446 55 0
-55 -146 446 0
-447 146 0
-447 55 56 0
-55 -146 447 0
-56 -146 447 0
-448 146 0
-448 56 57 0
-56 -146 448 0
-57 -146 448 0
-449 146 0
-449 57 58 0
-57 -146 449 0
-58 -146 449 0
-450 146 0
-450 58 59 0
-58 -146 450 0
-59 -146 450 0
-451 146 0
-451 59 0
-59 -146 451 0
-452 147 0
-452 55 0
-55 -147 452 0
-453 147 0
-453 55 56 0
-55 -147 453 0
-56 -147 453 0
-454 147 0
-454 56 57 0
-56 -147 454 0
-57 -147 454 0
-455 147 0
-455 57 58 0
-57 -147 455 0
-58 -147 455 0
-456 147 0
-456 58 59 0
-58 -147 456 0
-59 -147 456 0
-457 147 0
-457 59 0
-59 -147 457 0
-458 148 0
-458 55 0
-55 -148 458 0
-459 148 0
-459 55 56 0
-55 -148 459 0
-56 -148 459 0
-460 148 0
-460 56 57 0
-56 -148 460 0
-57 -148 460 0
-461 148 0
-461 57 58 0
-57 -148 461 0
-58 -148 461 0
-462 148 0
-462 58 59 0
-58 -148 462 0
-59 -148 462 0
-463 148 0
-463 59 0
-59 -148 463 0
-464 149 0
-464 55 0
-55 -149 464 0
-465 149 0
-465 55 56 0
-55 -149 465 0
-56 -149 465 0
-466 149 0
-466 56 57 0
-56 -149 466 0
-57 -149 466 0
-467 149 0
-467 57 58 0
-57 -149 467 0
-58 -149 467 0
-468 149 0
-468 58 59 0
-58 -149 468 0
-59 -149 468 0
-469 149 0
-469 59 0
-59 -149 469 0
-470 150 0
-470 60 0
-60 -150 470 0
-471 150 0
-471 60 61 0
-60 -150 471 0
-61 -150 471 0
-472 150 0
-472 60 61 62 0
-60 -150 472 0
-61 -150 472 0
-62 -150 472 0
-473 150 0
-473 61 62 63 0
-61 -150 473 0
-62 -150 473 0
-63 -150 473 0
-474 150 0
-474 62 63 0
-62 -150 474 0
-63 -150 474 0
-475 150 0
-475 63 0
-63 -150 475 0
-476 151 0
-476 60 0
-60 -151 476 0
-477 151 0
-477 60 61 0
-60 -151 477 0
-61 -151 477 0
-478 151 0
-478 60 61 62 0
-60 -151 478 0
-61 -151 478 0
-62 -151 478 0
-479 151 0
-479 61 62 63 0
-61 -151 479 0
-62 -151 479 0
-63 -151 479 0
-480 151 0
-480 62 63 0
-62 -151 480 0
-63 -151 480 0
-481 151 0
-481 63 0
-63 -151 481 0
-482 152 0
-482 60 0
-60 -152 482 0
-483 152 0
-483 60 61 0
-60 -152 483 0
-61 -152 483 0
-484 152 0
-484 60 61 62 0
-60 -152 484 0
-61 -152 484 0
-62 -152 484 0
-485 152 0
-485 61 62 63 0
-61 -152 485 0
-62 -152 485 0
-63 -152 485 0
-486 152 0
-486 62 63 0
-62 -152 486 0
-63 -152 486 0
-487 152 0
-487 63 0
-63 -152 487 0
-488 153 0
-488 60 0
-60 -153 488 0
-489 153 0
-489 60 61 0
-60 -153 489 0
-61 -153 489 0
-490 153 0
-490 60 61 62 0
-60 -153 490 0
-61 -153 490 0
-62 -153 490 0
-491 153 0
-491 61 62 63 0
-61 -153 491 0
-62 -153 491 0
-63 -153 491 0
-492 153 0
-492 62 63 0
-62 -153 492 0
-63 -153 492 0
-493 153 0
-493 63 0
-63 -153 493 0
-398 -422 0
-398 -446 0
-398 -470 0
-422 -446 0
-422 -470 0
-446 -470 0
-399 -423 0
-399 -447 0
-399 -471 0
-423 -447 0
-423 -471 0
-447 -471 0
-400 -424 0
-400 -448 0
-400 -472 0
-424 -448 0
-424 -472 0
-448 -472 0
-401 -425 0
-401 -449 0
-401 -473 0
-425 -449 0
-425 -473 0
-449 -473 0
-402 -426 0
-402 -450 0
-402 -474 0
-426 -450 0
-426 -474 0
-450 -474 0
-403 -427 0
-403 -451 0
-403 -475 0
-427 -451 0
-427 -475 0
-451 -475 0
-404 -428 0
-404 -452 0
-404 -476 0
-428 -452 0
-428 -476 0
-452 -476 0
-405 -429 0
-405 -453 0
-405 -477 0
-429 -453 0
-429 -477 0
-453 -477 0
-406 -430 0
-406 -454 0
-406 -478 0
-430 -454 0
-430 -478 0
-454 -478 0
-407 -431 0
-407 -455 0
-407 -479 0
-431 -455 0
-431 -479 0
-455 -479 0
-408 -432 0
-408 -456 0
-408 -480 0
-432 -456 0
-432 -480 0
-456 -480 0
-409 -433 0
-409 -457 0
-409 -481 0
-433 -457 0
-433 -481 0
-457 -481 0
-410 -434 0
-410 -458 0
-410 -482 0
-434 -458 0
-434 -482 0
-458 -482 0
-411 -435 0
-411 -459 0
-411 -483 0
-435 -459 0
-435 -483 0
-459 -483 0
-412 -436 0
-412 -460 0
-412 -484 0
-436 -460 0
-436 -484 0
-460 -484 0
-413 -437 0
-413 -461 0
-413 -485 0
-437 -461 0
-437 -485 0
-461 -485 0
-414 -438 0
-414 -462 0
-414 -486 0
-438 -462 0
-438 -486 0
-462 -486 0
-415 -439 0
-415 -463 0
-415 -487 0
-439 -463 0
-439 -487 0
-463 -487 0
-416 -440 0
-416 -464 0
-416 -488 0
-440 -464 0
-440 -488 0
-464 -488 0
-417 -441 0
-417 -465 0
-417 -489 0
-441 -465 0
-441 -489 0
-465 -489 0
-418 -442 0
-418 -466 0
-418 -490 0
-442 -466 0
-442 -490 0
-466 -490 0
-419 -443 0
-419 -467 0
-419 -491 0
-443 -467 0
-443 -491 0
-467 -491 0
-420 -444 0
-420 -468 0
-420 -492 0
-444 -468 0
-444 -492 0
-468 -492 0
-421 -445 0
-421 -469 0
-421 -493 0
-445 -469 0
-445 -493 0
-469 -493 0
-43 -139 422 446 470 0
-43 -140 428 452 476 0
-43 -141 434 458 482 0
-44 -139 423 447 471 0
-44 -140 429 453 477 0
-44 -141 435 459 483 0
-45 -139 424 448 472 0
-45 -140 430 454 478 0
-45 -141 436 460 484 0
-46 -139 425 449 473 0
-46 -140 431 455 479 0
-46 -141 437 461 485 0
-47 -139 426 450 474 0
-47 -140 432 456 480 0
-47 -141 438 462 486 0
-48 -139 427 451 475 0
-48 -140 433 457 481 0
-48 -141 439 463 487 0
-49 -143 398 446 470 0
-49 -144 404 452 476 0
-49 -145 410 458 482 0
-50 -143 399 447 471 0
-50 -144 405 453 477 0
-50 -145 411 459 483 0
-51 -143 400 448 472 0
-51 -144 406 454 478 0
-51 -145 412 460 484 0
-52 -143 401 449 473 0
-52 -144 407 455 479 0
-52 -145 413 461 485 0
-53 -143 402 450 474 0
-53 -144 408 456 480 0
-53 -145 414 462 486 0
-54 -143 403 451 475 0
-54 -144 409 457 481 0
-54 -145 415 463 487 0
-55 -147 398 422 470 399 423 471 0
-55 -148 404 428 476 405 429 477 0
-55 -149 410 434 482 411 435 483 0
-56 -147 399 423 471 400 424 472 0
-56 -148 405 429 477 406 430 478 0
-56 -149 411 435 483 412 436 484 0
-57 -147 400 424 472 401 425 473 0
-57 -148 406 430 478 407 431 479 0
-57 -149 412 436 484 413 437 485 0
-58 -147 401 425 473 402 426 474 0
-58 -148 407 431 479 408 432 480 0
-58 -149 413 437 485 414 438 486 0
-59 -147 402 426 474 403 427 475 0
-59 -148 408 432 480 409 433 481 0
-59 -149 414 438 486 415 439 487 0
-60 -151 398 422 446 399 423 447 0
-60 -151 398 422 446 400 424 448 0
-60 -151 399 423 447 400 424 448 0
-60 -152 404 428 452 405 429 453 0
-60 -152 404 428 452 406 430 454 0
-60 -152 405 429 453 406 430 454 0
-60 -153 410 434 458 411 435 459 0
-60 -153 410 434 458 412 436 460 0
-60 -153 411 435 459 412 436 460 0
-61 -151 399 423 447 400 424 448 0
-61 -151 399 423 447 401 425 449 0
-61 -151 400 424 448 401 425 449 0
-61 -152 405 429 453 406 430 454 0
-61 -152 405 429 453 407 431 455 0
-61 -152 406 430 454 407 431 455 0
-61 -153 411 435 459 412 436 460 0
-61 -153 411 435 459 413 437 461 0
-61 -153 412 436 460 413 437 461 0
-62 -151 400 424 448 401 425 449 0
-62 -151 400 424 448 402 426 450 0
-62 -151 401 425 449 402 426 450 0
-62 -152 406 430 454 407 431 455 0
-62 -152 406 430 454 408 432 456 0
-62 -152 407 431 455 408 432 456 0
-62 -153 412 436 460 413 437 461 0
-62 -153 412 436 460 414 438 462 0
-62 -153 413 437 461 414 438 462 0
-63 -151 401 425 449 402 426 450 0
-63 -151 401 425 449 403 427 451 0
-63 -151 402 426 450 403 427 451 0
-63 -152 407 431 455 408 432 456 0
-63 -152 407 431 455 409 433 457 0
-63 -152 408 432 456 409 433 457 0
-63 -153 413 437 461 414 438 462 0
-63 -153 413 437 461 415 439 463 0
-63 -153 414 438 462 415 439 463 0
-1075 398 404 410 416 0
-1075 -398 -428 0
-1075 -398 -452 0
-1075 -398 -476 0
-398 1075 428 452 476 0
-1075 -404 -434 0
-1075 -404 -458 0
-1075 -404 -482 0
-404 1075 434 458 482 0
-1075 -410 -440 0
-1075 -410 -464 0
-1075 -410 -488 0
-410 1075 440 464 488 0
-416 1075 0
-1076 399 405 411 417 0
-1076 -399 -429 0
-1076 -399 -453 0
-1076 -399 -477 0
-399 1076 429 453 477 0
-1076 -405 -435 0
-1076 -405 -459 0
-1076 -405 -483 0
-405 1076 435 459 483 0
-1076 -411 -441 0
-1076 -411 -465 0
-1076 -411 -489 0
-411 1076 441 465 489 0
-417 1076 0
-1077 400 406 412 418 0
-1077 -400 -430 0
-1077 -400 -454 0
-1077 -400 -478 0
-400 1077 430 454 478 0
-1077 -406 -436 0
-1077 -406 -460 0
-1077 -406 -484 0
-406 1077 436 460 484 0
-1077 -412 -442 0
-1077 -412 -466 0
-1077 -412 -490 0
-412 1077 442 466 490 0
-418 1077 0
-1078 401 407 413 419 0
-1078 -401 -431 0
-1078 -401 -455 0
-1078 -401 -479 0
-401 1078 431 455 479 0
-1078 -407 -437 0
-1078 -407 -461 0
-1078 -407 -485 0
-407 1078 437 461 485 0
-1078 -413 -443 0
-1078 -413 -467 0
-1078 -413 -491 0
-413 1078 443 467 491 0
-419 1078 0
-1079 402 408 414 420 0
-1079 -402 -432 0
-1079 -402 -456 0
-1079 -402 -480 0
-402 1079 432 456 480 0
-1079 -408 -438 0
-1079 -408 -462 0
-1079 -408 -486 0
-408 1079 438 462 486 0
-1079 -414 -444 0
-1079 -414 -468 0
-1079 -414 -492 0
-414 1079 444 468 492 0
-420 1079 0
-1080 403 409 415 421 0
-1080 -403 -433 0
-1080 -403 -457 0
-1080 -403 -481 0
-403 1080 433 457 481 0
-1080 -409 -439 0
-1080 -409 -463 0
-1080 -409 -487 0
-409 1080 439 463 487 0
-1080 -415 -445 0
-1080 -415 -469 0
-1080 -415 -493 0
-415 1080 445 469 493 0
-421 1080 0
-1081 422 428 434 440 0
-1081 -422 -404 0
-1081 -422 -452 0
-1081 -422 -476 0
-422 1081 404 452 476 0
-1081 -428 -410 0
-1081 -428 -458 0
-1081 -428 -482 0
-428 1081 410 458 482 0
-1081 -434 -416 0
-1081 -434 -464 0
-1081 -434 -488 0
-434 1081 416 464 488 0
-440 1081 0
-1082 423 429 435 441 0
-1082 -423 -405 0
-1082 -423 -453 0
-1082 -423 -477 0
-423 1082 405 453 477 0
-1082 -429 -411 0
-1082 -429 -459 0
-1082 -429 -483 0
-429 1082 411 459 483 0
-1082 -435 -417 0
-1082 -435 -465 0
-1082 -435 -489 0
-435 1082 417 465 489 0
-441 1082 0
-1083 424 430 436 442 0
-1083 -424 -406 0
-1083 -424 -454 0
-1083 -424 -478 0
-424 1083 406 454 478 0
-1083 -430 -412 0
-1083 -430 -460 0
-1083 -430 -484 0
-430 1083 412 460 484 0
-1083 -436 -418 0
-1083 -436 -466 0
-1083 -436 -490 0
-436 1083 418 466 490 0
-442 1083 0
-1084 425 431 437 443 0
-1084 -425 -407 0
-1084 -425 -455 0
-1084 -425 -479 0
-425 1084 407 455 479 0
-1084 -431 -413 0
-1084 -431 -461 0
-1084 -431 -485 0
-431 1084 413 461 485 0
-1084 -437 -419 0
-1084 -437 -467 0
-1084 -437 -491 0
-437 1084 419 467 491 0
-443 1084 0
-1085 426 432 438 444 0
-1085 -426 -408 0
-1085 -426 -456 0
-1085 -426 -480 0
-426 1085 408 456 480 0
-1085 -432 -414 0
-1085 -432 -462 0
-1085 -432 -486 0
-432 1085 414 462 486 0
-1085 -438 -420 0
-1085 -438 -468 0
-1085 -438 -492 0
-438 1085 420 468 492 0
-444 1085 0
-1086 427 433 439 445 0
-1086 -427 -409 0
-1086 -427 -457 0
-1086 -427 -481 0
-427 1086 409 457 481 0
-1086 -433 -415 0
-1086 -433 -463 0
-1086 -433 -487 0
-433 1086 415 463 487 0
-1086 -439 -421 0
-1086 -439 -469 0
-1086 -439 -493 0
-439 1086 421 469 493 0
-445 1086 0
-1087 446 452 458 464 0
-1087 -446 -404 0
-1087 -446 -428 0
-1087 -446 -476 0
-446 1087 404 428 476 0
-1087 -452 -410 0
-1087 -452 -434 0
-1087 -452 -482 0
-452 1087 410 434 482 0
-1087 -458 -416 0
-1087 -458 -440 0
-1087 -458 -488 0
-458 1087 416 440 488 0
-464 1087 0
-1088 447 453 459 465 0
-1088 -447 -405 0
-1088 -447 -429 0
-1088 -447 -477 0
-447 1088 405 429 477 0
-1088 -453 -411 0
-1088 -453 -435 0
-1088 -453 -483 0
-453 1088 411 435 483 0
-1088 -459 -417 0
-1088 -459 -441 0
-1088 -459 -489 0
-459 1088 417 441 489 0
-465 1088 0
-1089 448 454 460 466 0
-1089 -448 -406 0
-1089 -448 -430 0
-1089 -448 -478 0
-448 1089 406 430 478 0
-1089 -454 -412 0
-1089 -454 -436 0
-1089 -454 -484 0
-454 1089 412 436 484 0
-1089 -460 -418 0
-1089 -460 -442 0
-1089 -460 -490 0
-460 1089 418 442 490 0
-466 1089 0
-1090 449 455 461 467 0
-1090 -449 -407 0
-1090 -449 -431 0
-1090 -449 -479 0
-449 1090 407 431 479 0
-1090 -455 -413 0
-1090 -455 -437 0
-1090 -455 -485 0
-455 1090 413 437 485 0
-1090 -461 -419 0
-1090 -461 -443 0
-1090 -461 -491 0
-461 1090 419 443 491 0
-467 1090 0
-1091 450 456 462 468 0
-1091 -450 -408 0
-1091 -450 -432 0
-1091 -450 -480 0
-450 1091 408 432 480 0
-1091 -456 -414 0
-1091 -456 -438 0
-1091 -456 -486 0
-456 1091 414 438 486 0
-1091 -462 -420 0
-1091 -462 -444 0
-1091 -462 -492 0
-462 1091 420 444 492 0
-468 1091 0
-1092 451 457 463 469 0
-1092 -451 -409 0
-1092 -451 -433 0
-1092 -451 -481 0
-451 1092 409 433 481 0
-1092 -457 -415 0
-1092 -457 -439 0
-1092 -457 -487 0
-457 1092 415 439 487 0
-1092 -463 -421 0
-1092 -463 -445 0
-1092 -463 -493 0
-463 1092 421 445 493 0
-469 1092 0
-1093 470 476 482 488 0
-1093 -470 -404 0
-1093 -470 -428 0
-1093 -470 -452 0
-470 1093 404 428 452 0
-1093 -476 -410 0
-1093 -476 -434 0
-1093 -476 -458 0
-476 1093 410 434 458 0
-1093 -482 -416 0
-1093 -482 -440 0
-1093 -482 -464 0
-482 1093 416 440 464 0
-488 1093 0
-1094 471 477 483 489 0
-1094 -471 -405 0
-1094 -471 -429 0
-1094 -471 -453 0
-471 1094 405 429 453 0
-1094 -477 -411 0
-1094 -477 -435 0
-1094 -477 -459 0
-477 1094 411 435 459 0
-1094 -483 -417 0
-1094 -483 -441 0
-1094 -483 -465 0
-483 1094 417 441 465 0
-489 1094 0
-1095 472 478 484 490 0
-1095 -472 -406 0
-1095 -472 -430 0
-1095 -472 -454 0
-472 1095 406 430 454 0
-1095 -478 -412 0
-1095 -478 -436 0
-1095 -478 -460 0
-478 1095 412 436 460 0
-1095 -484 -418 0
-1095 -484 -442 0
-1095 -484 -466 0
-484 1095 418 442 466 0
-490 1095 0
-1096 473 479 485 491 0
-1096 -473 -407 0
-1096 -473 -431 0
-1096 -473 -455 0
-473 1096 407 431 455 0
-1096 -479 -413 0
-1096 -479 -437 0
-1096 -479 -461 0
-479 1096 413 437 461 0
-1096 -485 -419 0
-1096 -485 -443 0
-1096 -485 -467 0
-485 1096 419 443 467 0
-491 1096 0
-1097 474 480 486 492 0
-1097 -474 -408 0
-1097 -474 -432 0
-1097 -474 -456 0
-474 1097 408 432 456 0
-1097 -480 -414 0
-1097 -480 -438 0
-1097 -480 -462 0
-480 1097 414 438 462 0
-1097 -486 -420 0
-1097 -486 -444 0
-1097 -486 -468 0
-486 1097 420 444 468 0
-492 1097 0
-1098 475 481 487 493 0
-1098 -475 -409 0
-1098 -475 -433 0
-1098 -475 -457 0
-475 1098 409 433 457 0
-1098 -481 -415 0
-1098 -481 -439 0
-1098 -481 -463 0
-481 1098 415 439 463 0
-1098 -487 -421 0
-1098 -487 -445 0
-1098 -487 -469 0
-487 1098 421 445 469 0
-493 1098 0
-194 -398 1075 0
-194 -404 1075 0
-194 -410 1075 0
-194 -416 1075 0
-194 -399 1076 0
-194 -405 1076 0
-194 -411 1076 0
-194 -417 1076 0
-194 -400 1077 0
-194 -406 1077 0
-194 -412 1077 0
-194 -418 1077 0
-194 -401 1078 0
-194 -407 1078 0
-194 -413 1078 0
-194 -419 1078 0
-194 -402 1079 0
-194 -408 1079 0
-194 -414 1079 0
-194 -420 1079 0
-194 -403 1080 0
-194 -409 1080 0
-194 -415 1080 0
-194 -421 1080 0
-43 194 -1075 0
-44 194 -1076 0
-45 194 -1077 0
-46 194 -1078 0
-47 194 -1079 0
-48 194 -1080 0
-195 -422 1081 0
-195 -428 1081 0
-195 -434 1081 0
-195 -440 1081 0
-195 -423 1082 0
-195 -429 1082 0
-195 -435 1082 0
-195 -441 1082 0
-195 -424 1083 0
-195 -430 1083 0
-195 -436 1083 0
-195 -442 1083 0
-195 -425 1084 0
-195 -431 1084 0
-195 -437 1084 0
-195 -443 1084 0
-195 -426 1085 0
-195 -432 1085 0
-195 -438 1085 0
-195 -444 1085 0
-195 -427 1086 0
-195 -433 1086 0
-195 -439 1086 0
-195 -445 1086 0
-49 195 -1081 0
-50 195 -1082 0
-51 195 -1083 0
-52 195 -1084 0
-53 195 -1085 0
-54 195 -1086 0
-196 -446 1087 0
-196 -452 1087 0
-196 -458 1087 0
-196 -464 1087 0
-196 -447 1088 0
-196 -453 1088 0
-196 -459 1088 0
-196 -465 1088 0
-196 -448 1089 0
-196 -454 1089 0
-196 -460 1089 0
-196 -466 1089 0
-196 -449 1090 0
-196 -455 1090 0
-196 -461 1090 0
-196 -467 1090 0
-196 -450 1091 0
-196 -456 1091 0
-196 -462 1091 0
-196 -468 1091 0
-196 -451 1092 0
-196 -457 1092 0
-196 -463 1092 0
-196 -469 1092 0
-55 196 -1087 -1088 0
-56 196 -1088 -1089 0
-57 196 -1089 -1090 0
-58 196 -1090 -1091 0
-59 196 -1091 -1092 0
-197 -470 1093 0
-197 -476 1093 0
-197 -482 1093 0
-197 -488 1093 0
-197 -471 1094 0
-197 -477 1094 0
-197 -483 1094 0
-197 -489 1094 0
-197 -472 1095 0
-197 -478 1095 0
-197 -484 1095 0
-197 -490 1095 0
-197 -473 1096 0
-197 -479 1096 0
-197 -485 1096 0
-197 -491 1096 0
-197 -474 1097 0
-197 -480 1097 0
-197 -486 1097 0
-197 -492 1097 0
-197 -475 1098 0
-197 -481 1098 0
-197 -487 1098 0
-197 -493 1098 0
-60 197 -1093 -1094 -1095 0
-61 197 -1094 -1095 -1096 0
-62 197 -1095 -1096 -1097 0
-63 197 -1096 -1097 -1098 0
64 65 66 67 68 69 0
-64 -65 0
-64 -66 0
-64 -67 0
-64 -68 0
-64 -69 0
-65 -66 0
-65 -67 0
-65 -68 0
-65 -69 0
-66 -67 0
-66 -68 0
-66 -69 0
-67 -68 0
-67 -69 0
-68 -69 0
70 71 72 73 74 75 0
-70 -71 0
-70 -72 0
-70 -73 0
-70 -74 0
-70 -75 0
-71 -72 0
-71 -73 0
-71 -74 0
-71 -75 0
-72 -73 0
-72 -74 0
-72 -75 0
-73 -74 0
-73 -75 0
-74 -75 0
76 77 78 79 80 0
-76 -77 0
-76 -78 0
-76 -79 0
-76 -80 0
-77 -78 0
-77 -79 0
-77 -80 0
-78 -79 0
-78 -80 0
-79 -80 0
81 82 83 84 0
-81 -82 0
-81 -83 0
-81 -84 0
-82 -83 0
-82 -84 0
-83 -84 0
154 155 156 157 0
-154 -155 0
-154 -156 0
-154 -157 0
-155 -156 0
-155 -157 0
-156 -157 0
158 159 160 161 0
-158 -159 0
-158 -160 0
-158 -161 0
-159 -160 0
-159 -161 0
-160 -161 0
162 163 164 165 0
-162 -163 0
-162 -164 0
-162 -165 0
-163 -164 0
-163 -165 0
-164 -165 0
166 167 168 169 0
-166 -167 0
-166 -168 0
-166 -169 0
-167 -168 0
-167 -169 0
-168 -169 0
-494 154 0
-494 64 0
-64 -154 494 0
-495 154 0
-495 65 0
-65 -154 495 0
-496 154 0
-496 66 0
-66 -154 496 0
-497 154 0
-497 67 0
-67 -154 497 0
-498 154 0
-498 68 0
-68 -154 498 0
-499 154 0
-499 69 0
-69 -154 499 0
-500 155 0
-500 64 0
-64 -155 500 0
-501 155 0
-501 65 0
-65 -155 501 0
-502 155 0
-502 66 0
-66 -155 502 0
-503 155 0
-503 67 0
-67 -155 503 0
-504 155 0
-504 68 0
-68 -155 504 0
-505 155 0
-505 69 0
-69 -155 505 0
-506 156 0
-506 64 0
-64 -156 506 0
-507 156 0
-507 65 0
-65 -156 507 0
-508 156 0
-508 66 0
-66 -156 508 0
-509 156 0
-509 67 0
-67 -156 509 0
-510 156 0
-510 68 0
-68 -156 510 0
-511 156 0
-511 69 0
-69 -156 511 0
-512 157 0
-512 64 0
-64 -157 512 0
-513 157 0
-513 65 0
-65 -157 513 0
-514 157 0
-514 66 0
-66 -157 514 0
-515 157 0
-515 67 0
-67 -157 515 0
-516 157 0
-516 68 0
-68 -157 516 0
-517 157 0
-517 69 0
-69 -157 517 0
-518 158 0
-518 70 0
-70 -158 518 0
-519 158 0
-519 71 0
-71 -158 519 0
-520 158 0
-520 72 0
-72 -158 520 0
-521 158 0
-521 73 0
-73 -158 521 0
-522 158 0
-522 74 0
-74 -158 522 0
-523 158 0
-523 75 0
-75 -158 523 0
-524 159 0
-524 70 0
-70 -159 524 0
-525 159 0
-525 71 0
-71 -159 525 0
-526 159 0
-526 72 0
-72 -159 526 0
-527 159 0
-527 73 0
-73 -159 527 0
-528 159 0
-528 74 0
-74 -159 528 0
-529 159 0
-529 75 0
-75 -159 529 0
-530 160 0
-530 70 0
-70 -160 530 0
-531 160 0
-531 71 0
-71 -160 531 0
-532 160 0
-532 72 0
-72 -160 532 0
-533 160 0
-533 73 0
-73 -160 533 0
-534 160 0
-534 74 0
-74 -160 534 0
-535 160 0
-535 75 0
-75 -160 535 0
-536 161 0
-536 70 0
-70 -161 536 0
-537 161 0
-537 71 0
-71 -161 537 0
-538 161 0
-538 72 0
-72 -161 538 0
-539 161 0
-539 73 0
-73 -161 539 0
-540 161 0
-540 74 0
-74 -161 540 0
-541 161 0
-541 75 0
-75 -161 541 0
-542 162 0
-542 76 0
-76 -162 542 0
-543 162 0
-543 76 77 0
-76 -162 543 0
-77 -162 543 0
-544 162 0
-544 77 78 0
-77 -162 544 0
-78 -162 544 0
-545 162 0
-545 78 79 0
-78 -162 545 0
-79 -162 545 0
-546 162 0
-546 79 80 0
-79 -162 546 0
-80 -162 546 0
-547 162 0
-547 80 0
-80 -162 547 0
-548 163 0
-548 76 0
-76 -163 548 0
-549 163 0
-549 76 77 0
-76 -163 549 0
-77 -163 549 0
-550 163 0
-550 77 78 0
-77 -163 550 0
-78 -163 550 0
-551 163 0
-551 78 79 0
-78 -163 551 0
-79 -163 551 0
-552 163 0
-552 79 80 0
-79 -163 552 0
-80 -163 552 0
-553 163 0
-553 80 0
-80 -163 553 0
-554 164 0
-554 76 0
-76 -164 554 0
-555 164 0
-555 76 77 0
-76 -164 555 0
-77 -164 555 0
-556 164 0
-556 77 78 0
-77 -164 556 0
-78 -164 556 0
-557 164 0
-557 78 79 0
-78 -164 557 0
-79 -164 557 0
-558 164 0
-558 79 80 0
-79 -164 558 0
-80 -164 558 0
-559 164 0
-559 80 0
-80 -164 559 0
-560 165 0
-560 76 0
-76 -165 560 0
-561 165 0
-561 76 77 0
-76 -165 561 0
-77 -165 561 0
-562 165 0
-562 77 78 0
-77 -165 562 0
-78 -165 562 0
-563 165 0
-563 78 79 0
-78 -165 563 0
-79 -165 563 0
-564 165 0
-564 79 80 0
-79 -165 564 0
-80 -165 564 0
-565 165 0
-565 80 0
-80 -165 565 0
-566 166 0
-566 81 0
-81 -166 566 0
-567 166 0
-567 81 82 0
-81 -166 567 0
-82 -166 567 0
-568 166 0
-568 81 82 83 0
-81 -166 568 0
-82 -166 568 0
-83 -166 568 0
-569 166 0
-569 82 83 84 0
-82 -166 569 0
-83 -166 569 0
-84 -166 569 0
-570 166 0
-570 83 84 0
-83 -166 570 0
-84 -166 570 0
-571 166 0
-571 84 0
-84 -166 571 0
-572 167 0
-572 81 0
-81 -167 572 0
-573 167 0
-573 81 82 0
-81 -167 573 0
-82 -167 573 0
-574 167 0
-574 81 82 83 0
-81 -167 574 0
-82 -167 574 0
-83 -167 574 0
-575 167 0
-575 82 83 84 0
-82 -167 575 0
-83 -167 575 0
-84 -167 575 0
-576 167 0
-576 83 84 0
-83 -167 576 0
-84 -167 576 0
-577 167 0
-577 84 0
-84 -167 577 0
-578 168 0
-578 81 0
-81 -168 578 0
-579 168 0
-579 81 82 0
-81 -168 579 0
-82 -168 579 0
-580 168 0
-580 81 82 83 0
-81 -168 580 0
-82 -168 580 0
-83 -168 580 0
-581 168 0
-581 82 83 84 0
-82 -168 581 0
-83 -168 581 0
-84 -168 581 0
-582 168 0
-582 83 84 0
-83 -168 582 0
-84 -168 582 0
-583 168 0
-583 84 0
-84 -168 583 0
-584 169 0
-584 81 0
-81 -169 584 0
-585 169 0
-585 81 82 0
-81 -169 585 0
-82 -169 585 0
-586 169 0
-586 81 82 83 0
-81 -169 586 0
-82 -169 586 0
-83 -169 586 0
-587 169 0
-587 82 83 84 0
-82 -169 587 0
-83 -169 587 0
-84 -169 587 0
-588 169 0
-588 83 84 0
-83 -169 588 0
-84 -169 588 0
-589 169 0
-589 84 0
-84 -169 589 0
-494 -518 0
-494 -542 0
-494 -566 0
-518 -542 0
-518 -566 0
-542 -566 0
-495 -519 0
-495 -543 0
-495 -567 0
-519 -543 0
-519 -567 0
-543 -567 0
-496 -520 0
-496 -544 0
-496 -568 0
-520 -544 0
-520 -568 0
-544 -568 0
-497 -521 0
-497 -545 0
-497 -569 0
-521 -545 0
-521 -569 0
-545 -569 0
-498 -522 0
-498 -546 0
-498 -570 0
-522 -546 0
-522 -570 0
-546 -570 0
-499 -523 0
-499 -547 0
-499 -571 0
-523 -547 0
-523 -571 0
-547 -571 0
-500 -524 0
-500 -548 0
-500 -572 0
-524 -548 0
-524 -572 0
-548 -572 0
-501 -525 0
-501 -549 0
-501 -573 0
-525 -549 0
-525 -573 0
-549 -573 0
-502 -526 0
-502 -550 0
-502 -574 0
-526 -550 0
-526 -574 0
-550 -574 0
-503 -527 0
-503 -551 0
-503 -575 0
-527 -551 0
-527 -575 0
-551 -575 0
-504 -528 0
-504 -552 0
-504 -576 0
-528 -552 0
-528 -576 0
-552 -576 0
-505 -529 0
-505 -553 0
-505 -577 0
-529 -553 0
-529 -577 0
-553 -577 0
-506 -530 0
-506 -554 0
-506 -578 0
-530 -554 0
-530 -578 0
-554 -578 0
-507 -531 0
-507 -555 0
-507 -579 0
-531 -555 0
-531 -579 0
-555 -579 0
-508 -532 0
-508 -556 0
-508 -580 0
-532 -556 0
-532 -580 0
-556 -580 0
-509 -533 0
-509 -557 0
-509 -581 0
-533 -557 0
-533 -581 0
-557 -581 0
-510 -534 0
-510 -558 0
-510 -582 0
-534 -558 0
-534 -582 0
-558 -582 0
-511 -535 0
-511 -559 0
-511 -583 0
-535 -559 0
-535 -583 0
-559 -583 0
-512 -536 0
-512 -560 0
-512 -584 0
-536 -560 0
-536 -584 0
-560 -584 0
-513 -537 0
-513 -561 0
-513 -585 0
-537 -561 0
-537 -585 0
-561 -585 0
-514 -538 0
-514 -562 0
-514 -586 0
-538 -562 0
-538 -586 0
-562 -586 0
-515 -539 0
-515 -563 0
-515 -587 0
-539 -563 0
-539 -587 0
-563 -587 0
-516 -540 0
-516 -564 0
-516 -588 0
-540 -564 0
-540 -588 0
-564 -588 0
-517 -541 0
-517 -565 0
-517 -589 0
-541 -565 0
-541 -589 0
-565 -589 0
-64 -155 518 542 566 0
-64 -156 524 548 572 0
-64 -157 530 554 578 0
-65 -155 519 543 567 0
-65 -156 525 549 573 0
-65 -157 531 555 579 0
-66 -155 520 544 568 0
-66 -156 526 550 574 0
-66 -157 532 556 580 0
-67 -155 521 545 569 0
-67 -156 527 551 575 0
-67 -157 533 557 581 0
-68 -155 522 546 570 0
-68 -156 528 552 576 0
-68 -157 534 558 582 0
-69 -155 523 547 571 0
-69 -156 529 553 577 0
-69 -157 535 559 583 0
-70 -159 494 542 566 0
-70 -160 500 548 572 0
-70 -161 506 554 578 0
-71 -159 495 543 567 0
-71 -160 501 549 573 0
-71 -161 507 555 579 0
-72 -159 496 544 568 0
-72 -160 502 550 574 0
-72 -161 508 556 580 0
-73 -159 497 545 569 0
-73 -160 503 551 575 0
-73 -161 509 557 581 0
-74 -159 498 546 570 0
-74 -160 504 552 576 0
-74 -161 510 558 582 0
-75 -159 499 547 571 0
-75 -160 505 553 577 0
-75 -161 511 559 583 0
-76 -163 494 518 566 495 519 567 0
-76 -164 500 524 572 501 525 573 0
-76 -165 506 530 578 507 531 579 0
-77 -163 495 519 567 496 520 568 0
-77 -164 501 525 573 502 526 574 0
-77 -165 507 531 579 508 532 580 0
-78 -163 496 520 568 497 521 569 0
-78 -164 502 526 574 503 527 575 0
-78 -165 508 532 580 509 533 581 0
-79 -163 497 521 569 498 522 570 0
-79 -164 503 527 575 504 528 576 0
-79 -165 509 533 581 510 534 582 0
-80 -163 498 522 570 499 523 571 0
-80 -164 504 528 576 505 529 577 0
-80 -165 510 534 582 511 535 583 0
-81 -167 494 518 542 495 519 543 0
-81 -167 494 518 542 496 520 544 0
-81 -167 495 519 543 496 520 544 0
-81 -168 500 524 548 501 525 549 0
-81 -168 500 524 548 502 526 550 0
-81 -168 501 525 549 502 526 550 0
-81 -169 506 530 554 507 531 555 0
-81 -169 506 530 554 508 532 556 0
-81 -169 507 531 555 508 532 556 0
-82 -167 495 519 543 496 520 544 0
-82 -167 495 519 543 497 521 545 0
-82 -167 496 520 544 497 521 545 0
-82 -168 501 525 549 502 526 550 0
-82 -168 501 525 549 503 527 551 0
-82 -168 502 526 550 503 527 551 0
-82 -169 507 531 555 508 532 556 0
-82 -169 507 531 555 509 533 557 0
-82 -169 508 532 556 509 533 557 0
-83 -167 496 520 544 497 521 545 0
-83 -167 496 520 544 498 522 546 0
-83 -167 497 521 545 498 522 546 0
-83 -168 502 526 550 503 527 551 0
-83 -168 502 526 550 504 528 552 0
-83 -168 503 527 551 504 528 552 0
-83 -169 508 532 556 509 533 557 0
-83 -169 508 532 556 510 534 558 0
-83 -169 509 533 557 510 534 558 0
-84 -167 497 521 545 498 522 546 0
-84 -167 497 521 545 499 523 547 0
-84 -167 498 522 546 499 523 547 0
-84 -168 503 527 551 504 528 552 0
-84 -168 503 527 551 505 529 553 0
-84 -168 504 528 552 505 529 553 0
-84 -169 509 533 557 510 534 558 0
-84 -169 509 533 557 511 535 559 0
-84 -169 510 534 558 511 535 559 0
-1099 494 500 506 512 0
-1099 -494 -524 0
-1099 -494 -548 0
-1099 -494 -572 0
-494 1099 524 548 572 0
-1099 -500 -530 0
-1099 -500 -554 0
-1099 -500 -578 0
-500 1099 530 554 578 0
-1099 -506 -536 0
-1099 -506 -560 0
-1099 -506 -584 0
-506 1099 536 560 584 0
-512 1099 0
-1100 495 501 507 513 0
-1100 -495 -525 0
-1100 -495 -549 0
-1100 -495 -573 0
-495 1100 525 549 573 0
-1100 -501 -531 0
-1100 -501 -555 0
-1100 -501 -579 0
-501 1100 531 555 579 0
-1100 -507 -537 0
-1100 -507 -561 0
-1100 -507 -585 0
-507 1100 537 561 585 0
-513 1100 0
-1101 496 502 508 514 0
-1101 -496 -526 0
-1101 -496 -550 0
-1101 -496 -574 0
-496 1101 526 550 574 0
-1101 -502 -532 0
-1101 -502 -556 0
-1101 -502 -580 0
-502 1101 532 556 580 0
-1101 -508 -538 0
-1101 -508 -562 0
-1101 -508 -586 0
-508 1101 538 562 586 0
-514 1101 0
-1102 497 503 509 515 0
-1102 -497 -527 0
-1102 -497 -551 0
-1102 -497 -575 0
-497 1102 527 551 575 0
-1102 -503 -533 0
-1102 -503 -557 0
-1102 -503 -581 0
-503 1102 533 557 581 0
-1102 -509 -539 0
-1102 -509 -563 0
-1102 -509 -587 0
-509 1102 539 563 587 0
-515 1102 0
-1103 498 504 510 516 0
-1103 -498 -528 0
-1103 -498 -552 0
-1103 -498 -576 0
-498 1103 528 552 576 0
-1103 -504 -534 0
-1103 -504 -558 0
-1103 -504 -582 0
-504 1103 534 558 582 0
-1103 -510 -540 0
-1103 -510 -564 0
-1103 -510 -588 0
-510 1103 540 564 588 0
-516 1103 0
-1104 499 505 511 517 0
-1104 -499 -529 0
-1104 -499 -553 0
-1104 -499 -577 0
-499 1104 529 553 577 0
-1104 -505 -535 0
-1104 -505 -559 0
-1104 -505 -583 0
-505 1104 535 559 583 0
-1104 -511 -541 0
-1104 -511 -565 0
-1104 -511 -589 0
-511 1104 541 565 589 0
-517 1104 0
-1105 518 524 530 536 0
-1105 -518 -500 0
-1105 -518 -548 0
-1105 -518 -572 0
-518 1105 500 548 572 0
-1105 -524 -506 0
-1105 -524 -554 0
-1105 -524 -578 0
-524 1105 506 554 578 0
-1105 -530 -512 0
-1105 -530 -560 0
-1105 -530 -584 0
-530 1105 512 560 584 0
-536 1105 0
-1106 519 525 531 537 0
-1106 -519 -501 0
-1106 -519 -549 0
-1106 -519 -573 0
-519 1106 501 549 573 0
-1106 -525 -507 0
-1106 -525 -555 0
-1106 -525 -579 0
-525 1106 507 555 579 0
-1106 -531 -513 0
-1106 -531 -561 0
-1106 -531 -585 0
-531 1106 513 561 585 0
-537 1106 0
-1107 520 526 532 538 0
-1107 -520 -502 0
-1107 -520 -550 0
-1107 -520 -574 0
-520 1107 502 550 574 0
-1107 -526 -508 0
-1107 -526 -556 0
-1107 -526 -580 0
-526 1107 508 556 580 0
-1107 -532 -514 0
-1107 -532 -562 0
-1107 -532 -586 0
-532 1107 514 562 586 0
-538 1107 0
-1108 521 527 533 539 0
-1108 -521 -503 0
-1108 -521 -551 0
-1108 -521 -575 0
-521 1108 503 551 575 0
-1108 -527 -509 0
-1108 -527 -557 0
-1108 -527 -581 0
-527 1108 509 557 581 0
-1108 -533 -515 0
-1108 -533 -563 0
-1108 -533 -587 0
-533 1108 515 563 587 0
-539 1108 0
-1109 522 528 534 540 0
-1109 -522 -504 0
-1109 -522 -552 0
-1109 -522 -576 0
-522 1109 504 552 576 0
-1109 -528 -510 0
-1109 -528 -558 0
-1109 -528 -582 0
-528 1109 510 558 582 0
-1109 -534 -516 0
-1109 -534 -564 0
-1109 -534 -588 0
-534 1109 516 564 588 0
-540 1109 0
-1110 523 529 535 541 0
-1110 -523 -505 0
-1110 -523 -553 0
-1110 -523 -577 0
-523 1110 505 553 577 0
-1110 -529 -511 0
-1110 -529 -559 0
-1110 -529 -583 0
-529 1110 511 559 583 0
-1110 -535 -517 0
-1110 -535 -565 0
-1110 -535 -589 0
-535 1110 517 565 589 0
-541 1110 0
-1111 542 548 554 560 0
-1111 -542 -500 0
-1111 -542 -524 0
-1111 -542 -572 0
-542 1111 500 524 572 0
-1111 -548 -506 0
-1111 -548 -530 0
-1111 -548 -578 0
-548 1111 506 530 578 0
-1111 -554 -512 0
-1111 -554 -536 0
-1111 -554 -584 0
-554 1111 512 536 584 0
-560 1111 0
-1112 543 549 555 561 0
-1112 -543 -501 0
-1112 -543 -525 0
-1112 -543 -573 0
-543 1112 501 525 573 0
-1112 -549 -507 0
-1112 -549 -531 0
-1112 -549 -579 0
-549 1112 507 531 579 0
-1112 -555 -513 0
-1112 -555 -537 0
-1112 -555 -585 0
-555 1112 513 537 585 0
-561 1112 0
-1113 544 550 556 562 0
-1113 -544 -502 0
-1113 -544 -526 0
-1113 -544 -574 0
-544 1113 502 526 574 0
-1113 -550 -508 0
-1113 -550 -532 0
-1113 -550 -580 0
-550 1113 508 532 580 0
-1113 -556 -514 0
-1113 -556 -538 0
-1113 -556 -586 0
-556 1113 514 538 586 0
-562 1113 0
-1114 545 551 557 563 0
-1114 -545 -503 0
-1114 -545 -527 0
-1114 -545 -575 0
-545 1114 503 527 575 0
-1114 -551 -509 0
-1114 -551 -533 0
-1114 -551 -581 0
-551 1114 509 533 581 0
-1114 -557 -515 0
-1114 -557 -539 0
-1114 -557 -587 0
-557 1114 515 539 587 0
-563 1114 0
-1115 546 552 558 564 0
-1115 -546 -504 0
-1115 -546 -528 0
-1115 -546 -576 0
-546 1115 504 528 576 0
-1115 -552 -510 0
-1115 -552 -534 0
-1115 -552 -582 0
-552 1115 510 534 582 0
-1115 -558 -516 0
-1115 -558 -540 0
-1115 -558 -588 0
-558 1115 516 540 588 0
-564 1115 0
-1116 547 553 559 565 0
-1116 -547 -505 0
-1116 -547 -529 0
-1116 -547 -577 0
-547 1116 505 529 577 0
-1116 -553 -511 0
-1116 -553 -535 0
-1116 -553 -583 0
-553 1116 511 535 583 0
-1116 -559 -517 0
-1116 -559 -541 0
-1116 -559 -589 0
-559 1116 517 541 589 0
-565 1116 0
-1117 566 572 578 584 0
-1117 -566 -500 0
-1117 -566 -524 0
-1117 -566 -548 0
-566 1117 500 524 548 0
-1117 -572 -506 0
-1117 -572 -530 0
-1117 -572 -554 0
-572 1117 506 530 554 0
-1117 -578 -512 0
-1117 -578 -536 0
-1117 -578 -560 0
-578 1117 512 536 560 0
-584 1117 0
-1118 567 573 579 585 0
-1118 -567 -501 0
-1118 -567 -525 0
-1118 -567 -549 0
-567 1118 501 525 549 0
-1118 -573 -507 0
-1118 -573 -531 0
-1118 -573 -555 0
-573 1118 507 531 555 0
-1118 -579 -513 0
-1118 -579 -537 0
-1118 -579 -561 0
-579 1118 513 537 561 0
-585 1118 0
-1119 568 574 580 586 0
-1119 -568 -502 0
-1119 -568 -526 0
-1119 -568 -550 0
-568 1119 502 526 550 0
-1119 -574 -508 0
-1119 -574 -532 0
-1119 -574 -556 0
-574 1119 508 532 556 0
-1119 -580 -514 0
-1119 -580 -538 0
-1119 -580 -562 0
-580 1119 514 538 562 0
-586 1119 0
-1120 569 575 581 587 0
-1120 -569 -503 0
-1120 -569 -527 0
-1120 -569 -551 0
-569 1120 503 527 551 0
-1120 -575 -509 0
-1120 -575 -533 0
-1120 -575 -557 0
-575 1120 509 533 557 0
-1120 -581 -515 0
-1120 -581 -539 0
-1120 -581 -563 0
-581 1120 515 539 563 0
-587 1120 0
-1121 570 576 582 588 0
-1121 -570 -504 0
-1121 -570 -528 0
-1121 -570 -552 0
-570 1121 504 528 552 0
-1121 -576 -510 0
-1121 -576 -534 0
-1121 -576 -558 0
-576 1121 510 534 558 0
-1121 -582 -516 0
-1121 -582 -540 0
-1121 -582 -564 0
-582 1121 516 540 564 0
-588 1121 0
-1122 571 577 583 589 0
-1122 -571 -505 0
-1122 -571 -529 0
-1122 -571 -553 0
-571 1122 505 529 553 0
-1122 -577 -511 0
-1122 -577 -535 0
-1122 -577 -559 0
-577 1122 511 535 559 0
-1122 -583 -517 0
-1122 -583 -541 0
-1122 -583 -565 0
-583 1122 517 541 565 0
-589 1122 0
-198 -494 1099 0
-198 -500 1099 0
-198 -506 1099 0
-198 -512 1099 0
-198 -495 1100 0
-198 -501 1100 0
-198 -507 1100 0
-198 -513 1100 0
-198 -496 1101 0
-198 -502 1101 0
-198 -508 1101 0
-198 -514 1101 0
-198 -497 1102 0
-198 -503 1102 0
-198 -509 1102 0
-198 -515 1102 0
-198 -498 1103 0
-198 -504 1103 0
-198 -510 1103 0
-198 -516 1103 0
-198 -499 1104 0
-198 -505 1104 0
-198 -511 1104 0
-198 -517 1104 0
-64 198 -1099 0
-65 198 -1100 0
-66 198 -1101 0
-67 198 -1102 0
-68 198 -1103 0
-69 198 -1104 0
-199 -518 1105 0
-199 -524 1105 0
-199 -530 1105 0
-199 -536 1105 0
-199 -519 1106 0
-199 -525 1106 0
-199 -531 1106 0
-199 -537 1106 0
-199 -520 1107 0
-199 -526 1107 0
-199 -532 1107 0
-199 -538 1107 0
-199 -521 1108 0
-199 -527 1108 0
-199 -533 1108 0
-199 -539 1108 0
-199 -522 1109 0
-199 -528 1109 0
-199 -534 1109 0
-199 -540 1109 0
-199 -523 1110 0
-199 -529 1110 0
-199 -535 1110 0
-199 -541 1110 0
-70 199 -1105 0
-71 199 -1106 0
-72 199 -1107 0
-73 199 -1108 0
-74 199 -1109 0
-75 199 -1110 0
-200 -542 1111 0
-200 -548 1111 0
-200 -554 1111 0
-200 -560 1111 0
-200 -543 1112 0
-200 -549 1112 0
-200 -555 1112 0
-200 -561 1112 0
-200 -544 1113 0
-200 -550 1113 0
-200 -556 1113 0
-200 -562 1113 0
-200 -545 1114 0
-200 -551 1114 0
-200 -557 1114 0
-200 -563 1114 0
-200 -546 1115 0
-200 -552 1115 0
-200 -558 1115 0
-200 -564 1115 0
-200 -547 1116 0
-200 -553 1116 0
-200 -559 1116 0
-200 -565 1116 0
-76 200 -1111 -1112 0
-77 200 -1112 -1113 0
-78 200 -1113 -1114 0
-79 200 -1114 -1115 0
-80 200 -1115 -1116 0
-201 -566 1117 0
-201 -572 1117 0
-201 -578 1117 0
-201 -584 1117 0
-201 -567 1118 0
-201 -573 1118 0
-201 -579 1118 0
-201 -585 1118 0
-201 -568 1119 0
-201 -574 1119 0
-201 -580 1119 0
-201 -586 1119 0
-201 -569 1120 0
-201 -575 1120 0
-201 -581 1120 0
-201 -587 1120 0
-201 -570 1121 0
-201 -576 1121 0
-201 -582 1121 0
-201 -588 1121 0
-201 -571 1122 0
-201 -577 1122 0
-201 -583 1122 0
-201 -589 1122 0
-81 201 -1117 -1118 -1119 0
-82 201 -1118 -1119 -1120 0
-83 201 -1119 -1120 -1121 0
-84 201 -1120 -1121 -1122 0
85 86 87 88 89 90 0
-85 -86 0
-85 -87 0
-85 -88 0
-85 -89 0
-85 -90 0
-86 -87 0
-86 -88 0
-86 -89 0
-86 -90 0
-87 -88 0
-87 -89 0
-87 -90 0
-88 -89 0
-88 -90 0
-89 -90 0
91 92 93 94 95 96 0
-91 -92 0
-91 -93 0
-91 -94 0
-91 -95 0
-91 -96 0
-92 -93 0
-92 -94 0
-92 -95 0
-92 -96 0
-93 -94 0
-93 -95 0
-93 -96 0
-94 -95 0
-94 -96 0
-95 -96 0
97 98 99 100 101 0
-97 -98 0
-97 -99 0
-97 -100 0
-97 -101 0
-98 -99 0
-98 -100 0
-98 -101 0
-99 -100 0
-99 -101 0
-100 -101 0
102 103 104 105 0
-102 -103 0
-102 -104 0
-102 -105 0
-103 -104 0
-103 -105 0
-104 -105 0
170 171 172 173 0
-170 -171 0
-170 -172 0
-170 -173 0
-171 -172 0
-171 -173 0
-172 -173 0
174 175 176 177 0
-174 -175 0
-174 -176 0
-174 -177 0
-175 -176 0
-175 -177 0
-176 -177 0
178 179 180 181 0
-178 -179 0
-178 -180 0
-178 -181 0
-179 -180 0
-179 -181 0
-180 -181 0
182 183 184 185 0
-182 -183 0
-182 -184 0
-182 -185 0
-183 -184 0
-183 -185 0
-184 -185 0
-590 170 0
-590 85 0
-85 -170 590 0
-591 170 0
-591 86 0
-86 -170 591 0
-592 170 0
-592 87 0
-87 -170 592 0
-593 170 0
-593 88 0
-88 -170 593 0
-594 170 0
-594 89 0
-89 -170 594 0
-595 170 0
-595 90 0
-90 -170 595 0
-596 171 0
-596 85 0
-85 -171 596 0
-597 171 0
-597 86 0
-86 -171 597 0
-598 171 0
-598 87 0
-87 -171 598 0
-599 171 0
-599 88 0
-88 -171 599 0
-600 171 0
-600 89 0
-89 -171 600 0
-601 171 0
-601 90 0
-90 -171 601 0
-602 172 0
-602 85 0
-85 -172 602 0
-603 172 0
-603 86 0
-86 -172 603 0
-604 172 0
-604 87 0
-87 -172 604 0
-605 172 0
-605 88 0
-88 -172 605 0
-606 172 0
-606 89 0
-89 -172 606 0
-607 172 0
-607 90 0
-90 -172 607 0
-608 173 0
-608 85 0
-85 -173 608 0
-609 173 0
-609 86 0
-86 -173 609 0
-610 173 0
-610 87 0
-87 -173 610 0
-611 173 0
-611 88 0
-88 -173 611 0
-612 173 0
-612 89 0
-89 -173 612 0
-613 173 0
-613 90 0
-90 -173 613 0
-614 174 0
-614 91 0
-91 -174 614 0
-615 174 0
-615 92 0
-92 -174 615 0
-616 174 0
-616 93 0
-93 -174 616 0
-617 174 0
-617 94 0
-94 -174 617 0
-618 174 0
-618 95 0
-95 -174 618 0
-619 174 0
-619 96 0
-96 -174 619 0
-620 175 0
-620 91 0
-91 -175 620 0
-621 175 0
-621 92 0
-92 -175 621 0
-622 175 0
-622 93 0
-93 -175 622 0
-623 175 0
-623 94 0
-94 -175 623 0
-624 175 0
-624 95 0
-95 -175 624 0
-625 175 0
-625 96 0
-96 -175 625 0
-626 176 0
-626 91 0
-91 -176 626 0
-627 176 0
-627 92 0
-92 -176 627 0
-628 176 0
-628 93 0
-93 -176 628 0
-629 176 0
-629 94 0
-94 -176 629 0
-630 176 0
-630 95 0
-95 -176 630 0
-631 176 0
-631 96 0
-96 -176 631 0
-632 177 0
-632 91 0
-91 -177 632 0
-633 177 0
-633 92 0
-92 -177 633 0
-634 177 0
-634 93 0
-93 -177 634 0
-635 177 0
-635 94 0
-94 -177 635 0
-636 177 0
-636 95 0
-95 -177 636 0
-637 177 0
-637 96 0
-96 -177 637 0
-638 178 0
-638 97 0
-97 -178 638 0
-639 178 0
-639 97 98 0
-97 -178 639 0
-98 -178 639 0
-640 178 0
-640 98 99 0
-98 -178 640 0
-99 -178 640 0
-641 178 0
-641 99 100 0
-99 -178 641 0
-100 -178 641 0
-642 178 0
-642 100 101 0
-100 -178 642 0
-101 -178 642 0
-643 178 0
-643 101 0
-101 -178 643 0
-644 179 0
-644 97 0
-97 -179 644 0
-645 179 0
-645 97 98 0
-97 -179 645 0
-98 -179 645 0
-646 179 0
-646 98 99 0
-98 -179 646 0
-99 -179 646 0
-647 179 0
-647 99 100 0
-99 -179 647 0
-100 -179 647 0
-648 179 0
-648 100 101 0
-100 -179 648 0
-101 -179 648 0
-649 179 0
-649 101 0
-101 -179 649 0
-650 180 0
-650 97 0
-97 -180 650 0
-651 180 0
-651 97 98 0
-97 -180 651 0
-98 -180 651 0
-652 180 0
-652 98 99 0
-98 -180 652 0
-99 -180 652 0
-653 180 0
-653 99 100 0
-99 -180 653 0
-100 -180 653 0
-654 180 0
-654 100 101 0
-100 -180 654 0
-101 -180 654 0
-655 180 0
-655 101 0
-101 -180 655 0
-656 181 0
-656 97 0
-97 -181 656 0
-657 181 0
-657 97 98 0
-97 -181 657 0
-98 -181 657 0
-658 181 0
-658 98 99 0
-98 -181 658 0
-99 -181 658 0
-659 181 0
-659 99 100 0
-99 -181 659 0
-100 -181 659 0
-660 181 0
-660 100 101 0
-100 -181 660 0
-101 -181 660 0
-661 181 0
-661 101 0
-101 -181 661 0
-662 182 0
-662 102 0
-102 -182 662 0
-663 182 0
-663 102 103 0
-102 -182 663 0
-103 -182 663 0
-664 182 0
-664 102 103 104 0
-102 -182 664 0
-103 -182 664 0
-104 -182 664 0
-665 182 0
-665 103 104 105 0
-103 -182 665 0
-104 -182 665 0
-105 -182 665 0
-666 182 0
-666 104 105 0
-104 -182 666 0
-105 -182 666 0
-667 182 0
-667 105 0
-105 -182 667 0
-668 183 0
-668 102 0
-102 -183 668 0
-669 183 0
-669 102 103 0
-102 -183 669 0
-103 -183 669 0
-670 183 0
-670 102 103 104 0
-102 -183 670 0
-103 -183 670 0
-104 -183 670 0
-671 183 0
-671 103 104 105 0
-103 -183 671 0
-104 -183 671 0
-105 -183 671 0
-672 183 0
-672 104 105 0
-104 -183 672 0
-105 -183 672 0
-673 183 0
-673 105 0
-105 -183 673 0
-674 184 0
-674 102 0
-102 -184 674 0
-675 184 0
-675 102 103 0
-102 -184 675 0
-103 -184 675 0
-676 184 0
-676 102 103 104 0
-102 -184 676 0
-103 -184 676 0
-104 -184 676 0
-677 184 0
-677 103 104 105 0
-103 -184 677 0
-104 -184 677 0
-105 -184 677 0
-678 184 0
-678 104 105 0
-104 -184 678 0
-105 -184 678 0
-679 184 0
-679 105 0
-105 -184 679 0
-680 185 0
-680 102 0
-102 -185 680 0
-681 185 0
-681 102 103 0
-102 -185 681 0
-103 -185 681 0
-682 185 0
-682 102 103 104 0
-102 -185 682 0
-103 -185 682 0
-104 -185 682 0
-683 185 0
-683 103 104 105 0
-103 -185 683 0
-104 -185 683 0
-105 -185 683 0
-684 185 0
-684 104 105 0
-104 -185 684 0
-105 -185 684 0
-685 185 0
-685 105 0
-105 -185 685 0
-590 -614 0
-590 -638 0
-590 -662 0
-614 -638 0
-614 -662 0
-638 -662 0
-591 -615 0
-591 -639 0
-591 -663 0
-615 -639 0
-615 -663 0
-639 -663 0
-592 -616 0
-592 -640 0
-592 -664 0
-616 -640 0
-616 -664 0
-640 -664 0
-593 -617 0
-593 -641 0
-593 -665 0
-617 -641 0
-617 -665 0
-641 -665 0
-594 -618 0
-594 -642 0
-594 -666 0
-618 -642 0
-618 -666 0
-642 -666 0
-595 -619 0
-595 -643 0
-595 -667 0
-619 -643 0
-619 -667 0
-643 -667 0
-596 -620 0
-596 -644 0
-596 -668 0
-620 -644 0
-620 -668 0
-644 -668 0
-597 -621 0
-597 -645 0
-597 -669 0
-621 -645 0
-621 -669 0
-645 -669 0
-598 -622 0
-598 -646 0
-598 -670 0
-622 -646 0
-622 -670 0
-646 -670 0
-599 -623 0
-599 -647 0
-599 -671 0
-623 -647 0
-623 -671 0
-647 -671 0
-600 -624 0
-600 -648 0
-600 -672 0
-624 -648 0
-624 -672 0
-648 -672 0
-601 -625 0
-601 -649 0
-601 -673 0
-625 -649 0
-625 -673 0
-649 -673 0
-602 -626 0
-602 -650 0
-602 -674 0
-626 -650 0
-626 -674 0
-650 -674 0
-603 -627 0
-603 -651 0
-603 -675 0
-627 -651 0
-627 -675 0
-651 -675 0
-604 -628 0
-604 -652 0
-604 -676 0
-628 -652 0
-628 -676 0
-652 -676 0
-605 -629 0
-605 -653 0
-605 -677 0
-629 -653 0
-629 -677 0
-653 -677 0
-606 -630 0
-606 -654 0
-606 -678 0
-630 -654 0
-630 -678 0
-654 -678 0
-607 -631 0
-607 -655 0
-607 -679 0
-631 -655 0
-631 -679 0
-655 -679 0
-608 -632 0
-608 -656 0
-608 -680 0
-632 -656 0
-632 -680 0
-656 -680 0
-609 -633 0
-609 -657 0
-609 -681 0
-633 -657 0
-633 -681 0
-657 -681 0
-610 -634 0
-610 -658 0
-610 -682 0
-634 -658 0
-634 -682 0
-658 -682 0
-611 -635 0
-611 -659 0
-611 -683 0
-635 -659 0
-635 -683 0
-659 -683 0
-612 -636 0
-612 -660 0
-612 -684 0
-636 -660 0
-636 -684 0
-660 -684 0
-613 -637 0
-613 -661 0
-613 -685 0
-637 -661 0
-637 -685 0
-661 -685 0
-85 -171 614 638 662 0
-85 -172 620 644 668 0
-85 -173 626 650 674 0
-86 -171 615 639 663 0
-86 -172 621 645 669 0
-86 -173 627 651 675 0
-87 -171 616 640 664 0
-87 -172 622 646 670 0
-87 -173 628 652 676 0
-88 -171 617 641 665 0
-88 -172 623 647 671 0
-88 -173 629 653 677 0
-89 -171 618 642 666 0
-89 -172 624 648 672 0
-89 -173 630 654 678 0
-90 -171 619 643 667 0
-90 -172 625 649 673 0
-90 -173 631 655 679 0
-91 -175 590 638 662 0
-91 -176 596 644 668 0
-91 -177 602 650 674 0
-92 -175 591 639 663 0
-92 -176 597 645 669 0
-92 -177 603 651 675 0
-93 -175 592 640 664 0
-93 -176 598 646 670 0
-93 -177 604 652 676 0
-94 -175 593 641 665 0
-94 -176 599 647 671 0
-94 -177 605 653 677 0
-95 -175 594 642 666 0
-95 -176 600 648 672 0
-95 -177 606 654 678 0
-96 -175 595 643 667 0
-96 -176 601 649 673 0
-96 -177 607 655 679 0
-97 -179 590 614 662 591 615 663 0
-97 -180 596 620 668 597 621 669 0
-97 -181 602 626 674 603 627 675 0
-98 -179 591 615 663 592 616 664 0
-98 -180 597 621 669 598 622 670 0
-98 -181 603 627 675 604 628 676 0
-99 -179 592 616 664 593 617 665 0
-99 -180 598 622 670 599 623 671 0
-99 -181 604 628 676 605 629 677 0
-100 -179 593 617 665 594 618 666 0
-100 -180 599 623 671 600 624 672 0
-100 -181 605 629 677 606 630 678 0
-101 -179 594 618 666 595 619 667 0
-101 -180 600 624 672 601 625 673 0
-101 -181 606 630 678 607 631 679 0
-102 -183 590 614 638 591 615 639 0
-102 -183 590 614 638 592 616 640 0
-102 -183 591 615 639 592 616 640 0
-102 -184 596 620 644 597 621 645 0
-102 -184 596 620 644 598 622 646 0
-102 -184 597 621 645 598 622 646 0
-102 -185 602 626 650 603 627 651 0
-102 -185 602 626 650 604 628 652 0
-102 -185 603 627 651 604 628 652 0
-103 -183 591 615 639 592 616 640 0
-103 -183 591 615 639 593 617 641 0
-103 -183 592 616 640 593 617 641 0
-103 -184 597 621 645 598 622 646 0
-103 -184 597 621 645 599 623 647 0
-103 -184 598 622 646 599 623 647 0
-103 -185 603 627 651 604 628 652 0
-103 -185 603 627 651 605 629 653 0
-103 -185 604 628 652 605 629 653 0
-104 -183 592 616 640 593 617 641 0
-104 -183 592 616 640 594 618 642 0
-104 -183 593 617 641 594 618 642 0
-104 -184 598 622 646 599 623 647 0
-104 -184 598 622 646 600 624 648 0
-104 -184 599 623 647 600 624 648 0
-104 -185 604 628 652 605 629 653 0
-104 -185 604 628 652 606 630 654 0
-104 -185 605 629 653 606 630 654 0
-105 -183 593 617 641 594 618 642 0
-105 -183 593 617 641 595 619 643 0
-105 -183 594 618 642 595 619 643 0
-105 -184 599 623 647 600 624 648 0
-105 -184 599 623 647 601 625 649 0
-105 -184 600 624 648 601 625 649 0
-105 -185 605 629 653 606 630 654 0
-105 -185 605 629 653 607 631 655 0
-105 -185 606 630 654 607 631 655 0
-1123 590 596 602 608 0
-1123 -590 -620 0
-1123 -590 -644 0
-1123 -590 -668 0
-590 1123 620 644 668 0
-1123 -596 -626 0
-1123 -596 -650 0
-1123 -596 -674 0
-596 1123 626 650 674 0
-1123 -602 -632 0
-1123 -602 -656 0
-1123 -602 -680 0
-602 1123 632 656 680 0
-608 1123 0
-1124 591 597 603 609 0
-1124 -591 -621 0
-1124 -591 -645 0
-1124 -591 -669 0
-591 1124 621 645 669 0
-1124 -597 -627 0
-1124 -597 -651 0
-1124 -597 -675 0
-597 1124 627 651 675 0
-1124 -603 -633 0
-1124 -603 -657 0
-1124 -603 -681 0
-603 1124 633 657 681 0
-609 1124 0
-1125 592 598 604 610 0
-1125 -592 -622 0
-1125 -592 -646 0
-1125 -592 -670 0
-592 1125 622 646 670 0
-1125 -598 -628 0
-1125 -598 -652 0
-1125 -598 -676 0
-598 1125 628 652 676 0
-1125 -604 -634 0
-1125 -604 -658 0
-1125 -604 -682 0
-604 1125 634 658 682 0
-610 1125 0
-1126 593 599 605 611 0
-1126 -593 -623 0
-1126 -593 -647 0
-1126 -593 -671 0
-593 1126 623 647 671 0
-1126 -599 -629 0
-1126 -599 -653 0
-1126 -599 -677 0
-599 1126 629 653 677 0
-1126 -605 -635 0
-1126 -605 -659 0
-1126 -605 -683 0
-605 1126 635 659 683 0
-611 1126 0
-1127 594 600 606 612 0
-1127 -594 -624 0
-1127 -594 -648 0
-1127 -594 -672 0
-594 1127 624 648 672 0
-1127 -600 -630 0
-1127 -600 -654 0
-1127 -600 -678 0
-600 1127 630 654 678 0
-1127 -606 -636 0
-1127 -606 -660 0
-1127 -606 -684 0
-606 1127 636 660 684 0
-612 1127 0
-1128 595 601 607 613 0
-1128 -595 -625 0
-1128 -595 -649 0
-1128 -595 -673 0
-595 1128 625 649 673 0
-1128 -601 -631 0
-1128 -601 -655 0
-1128 -601 -679 0
-601 1128 631 655 679 0
-1128 -607 -637 0
-1128 -607 -661 0
-1128 -607 -685 0
-607 1128 637 661 685 0
-613 1128 0
-1129 614 620 626 632 0
-1129 -614 -596 0
-1129 -614 -644 0
-1129 -614 -668 0
-614 1129 596 644 668 0
-1129 -620 -602 0
-1129 -620 -650 0
-1129 -620 -674 0
-620 1129 602 650 674 0
-1129 -626 -608 0
-1129 -626 -656 0
-1129 -626 -680 0
-626 1129 608 656 680 0
-632 1129 0
-1130 615 621 627 633 0
-1130 -615 -597 0
-1130 -615 -645 0
-1130 -615 -669 0
-615 1130 597 645 669 0
-1130 -621 -603 0
-1130 -621 -651 0
-1130 -621 -675 0
-621 1130 603 651 675 0
-1130 -627 -609 0
-1130 -627 -657 0
-1130 -627 -681 0
-627 1130 609 657 681 0
-633 1130 0
-1131 616 622 628 634 0
-1131 -616 -598 0
-1131 -616 -646 0
-1131 -616 -670 0
-616 1131 598 646 670 0
-1131 -622 -604 0
-1131 -622 -652 0
-1131 -622 -676 0
-622 1131 604 652 676 0
-1131 -628 -610 0
-1131 -628 -658 0
-1131 -628 -682 0
-628 1131 610 658 682 0
-634 1131 0
-1132 617 623 629 635 0
-1132 -617 -599 0
-1132 -617 -647 0
-1132 -617 -671 0
-617 1132 599 647 671 0
-1132 -623 -605 0
-1132 -623 -653 0
-1132 -623 -677 0
-623 1132 605 653 677 0
-1132 -629 -611 0
-1132 -629 -659 0
-1132 -629 -683 0
-629 1132 611 659 683 0
-635 1132 0
-1133 618 624 630 636 0
-1133 -618 -600 0
-1133 -618 -648 0
-1133 -618 -672 0
-618 1133 600 648 672 0
-1133 -624 -606 0
-1133 -624 -654 0
-1133 -624 -678 0
-624 1133 606 654 678 0
-1133 -630 -612 0
-1133 -630 -660 0
-1133 -630 -684 0
-630 1133 612 660 684 0
-636 1133 0
-1134 619 625 631 637 0
-1134 -619 -601 0
-1134 -619 -649 0
-1134 -619 -673 0
-619 1134 601 649 673 0
-1134 -625 -607 0
-1134 -625 -655 0
-1134 -625 -679 0
-625 1134 607 655 679 0
-1134 -631 -613 0
-1134 -631 -661 0
-1134 -631 -685 0
-631 1134 613 661 685 0
-637 1134 0
-1135 638 644 650 656 0
-1135 -638 -596 0
-1135 -638 -620 0
-1135 -638 -668 0
-638 1135 596 620 668 0
-1135 -644 -602 0
-1135 -644 -626 0
-1135 -644 -674 0
-644 1135 602 626 674 0
-1135 -650 -608 0
-1135 -650 -632 0
-1135 -650 -680 0
-650 1135 608 632 680 0
-656 1135 0
-1136 639 645 651 657 0
-1136 -639 -597 0
-1136 -639 -621 0
-1136 -639 -669 0
-639 1136 597 621 669 0
-1136 -645 -603 0
-1136 -645 -627 0
-1136 -645 -675 0
-645 1136 603 627 675 0
-1136 -651 -609 0
-1136 -651 -633 0
-1136 -651 -681 0
-651 1136 609 633 681 0
-657 1136 0
-1137 640 646 652 658 0
-1137 -640 -598 0
-1137 -640 -622 0
-1137 -640 -670 0
-640 1137 598 622 670 0
-1137 -646 -604 0
-1137 -646 -628 0
-1137 -646 -676 0
-646 1137 604 628 676 0
-1137 -652 -610 0
-1137 -652 -634 0
-1137 -652 -682 0
-652 1137 610 634 682 0
-658 1137 0
-1138 641 647 653 659 0
-1138 -641 -599 0
-1138 -641 -623 0
-1138 -641 -671 0
-641 1138 599 623 671 0
-1138 -647 -605 0
-1138 -647 -629 0
-1138 -647 -677 0
-647 1138 605 629 677 0
-1138 -653 -611 0
-1138 -653 -635 0
-1138 -653 -683 0
-653 1138 611 635 683 0
-659 1138 0
-1139 642 648 654 660 0
-1139 -642 -600 0
-1139 -642 -624 0
-1139 -642 -672 0
-642 1139 600 624 672 0
-1139 -648 -606 0
-1139 -648 -630 0
-1139 -648 -678 0
-648 1139 606 630 678 0
-1139 -654 -612 0
-1139 -654 -636 0
-1139 -654 -684 0
-654 1139 612 636 684 0
-660 1139 0
-1140 643 649 655 661 0
-1140 -643 -601 0
-1140 -643 -625 0
-1140 -643 -673 0
-643 1140 601 625 673 0
-1140 -649 -607 0
-1140 -649 -631 0
-1140 -649 -679 0
-649 1140 607 631 679 0
-1140 -655 -613 0
-1140 -655 -637 0
-1140 -655 -685 0
-655 1140 613 637 685 0
-661 1140 0
-1141 662 668 674 680 0
-1141 -662 -596 0
-1141 -662 -620 0
-1141 -662 -644 0
-662 1141 596 620 644 0
-1141 -668 -602 0
-1141 -668 -626 0
-1141 -668 -650 0
-668 1141 602 626 650 0
-1141 -674 -608 0
-1141 -674 -632 0
-1141 -674 -656 0
-674 1141 608 632 656 0
-680 1141 0
-1142 663 669 675 681 0
-1142 -663 -597 0
-1142 -663 -621 0
-1142 -663 -645 0
-663 1142 597 621 645 0
-1142 -669 -603 0
-1142 -669 -627 0
-1142 -669 -651 0
-669 1142 603 627 651 0
-1142 -675 -609 0
-1142 -675 -633 0
-1142 -675 -657 0
-675 1142 609 633 657 0
-681 1142 0
-1143 664 670 676 682 0
-1143 -664 -598 0
-1143 -664 -622 0
-1143 -664 -646 0
-664 1143 598 622 646 0
-1143 -670 -604 0
-1143 -670 -628 0
-1143 -670 -652 0
-670 1143 604 628 652 0
-1143 -676 -610 0
-1143 -676 -634 0
-1143 -676 -658 0
-676 1143 610 634 658 0
-682 1143 0
-1144 665 671 677 683 0
-1144 -665 -599 0
-1144 -665 -623 0
-1144 -665 -647 0
-665 1144 599 623 647 0
-1144 -671 -605 0
-1144 -671 -629 0
-1144 -671 -653 0
-671 1144 605 629 653 0
-1144 -677 -611 0
-1144 -677 -635 0
-1144 -677 -659 0
-677 1144 611 635 659 0
-683 1144 0
-1145 666 672 678 684 0
-1145 -666 -600 0
-1145 -666 -624 0
-1145 -666 -648 0
-666 1145 600 624 648 0
-1145 -672 -606 0
-1145 -672 -630 0
-1145 -672 -654 0
-672 1145 606 630 654 0
-1145 -678 -612 0
-1145 -678 -636 0
-1145 -678 -660 0
-678 1145 612 636 660 0
-684 1145 0
-1146 667 673 679 685 0
-1146 -667 -601 0
-1146 -667 -625 0
-1146 -667 -649 0
-667 1146 601 625 649 0
-1146 -673 -607 0
-1146 -673 -631 0
-1146 -673 -655 0
-673 1146 607 631 655 0
-1146 -679 -613 0
-1146 -679 -637 0
-1146 -679 -661 0
-679 1146 613 637 661 0
-685 1146 0
-202 -590 1123 0
-202 -596 1123 0
-202 -602 1123 0
-202 -608 1123 0
-202 -591 1124 0
-202 -597 1124 0
-202 -603 1124 0
-202 -609 1124 0
-202 -592 1125 0
-202 -598 1125 0
-202 -604 1125 0
-202 -610 1125 0
-202 -593 1126 0
-202 -599 1126 0
-202 -605 1126 0
-202 -611 1126 0
-202 -594 1127 0
-202 -600 1127 0
-202 -606 1127 0
-202 -612 1127 0
-202 -595 1128 0
-202 -601 1128 0
-202 -607 1128 0
-202 -613 1128 0
-85 202 -1123 0
-86 202 -1124 0
-87 202 -1125 0
-88 202 -1126 0
-89 202 -1127 0
-90 202 -1128 0
-203 -614 1129 0
-203 -620 1129 0
-203 -626 1129 0
-203 -632 1129 0
-203 -615 1130 0
-203 -621 1130 0
-203 -627 1130 0
-203 -633 1130 0
-203 -616 1131 0
-203 -622 1131 0
-203 -628 1131 0
-203 -634 1131 0
-203 -617 1132 0
-203 -623 1132 0
-203 -629 1132 0
-203 -635 1132 0
-203 -618 1133 0
-203 -624 1133 0
-203 -630 1133 0
-203 -636 1133 0
-203 -619 1134 0
-203 -625 1134 0
-203 -631 1134 0
-203 -637 1134 0
-91 203 -1129 0
-92 203 -1130 0
-93 203 -1131 0
-94 203 -1132 0
-95 203 -1133 0
-96 203 -1134 0
-204 -638 1135 0
-204 -644 1135 0
-204 -650 1135 0
-204 -656 1135 0
-204 -639 1136 0
-204 -645 1136 0
-204 -651 1136 0
-204 -657 1136 0
-204 -640 1137 0
-204 -646 1137 0
-204 -652 1137 0
-204 -658 1137 0
-204 -641 1138 0
-204 -647 1138 0
-204 -653 1138 0
-204 -659 1138 0
-204 -642 1139 0
-204 -648 1139 0
-204 -654 1139 0
-204 -660 1139 0
-204 -643 1140 0
-204 -649 1140 0
-204 -655 1140 0
-204 -661 1140 0
-97 204 -1135 -1136 0
-98 204 -1136 -1137 0
-99 204 -1137 -1138 0
-100 204 -1138 -1139 0
-101 204 -1139 -1140 0
-205 -662 1141 0
-205 -668 1141 0
-205 -674 1141 0
-205 -680 1141 0
-205 -663 1142 0
-205 -669 1142 0
-205 -675 1142 0
-205 -681 1142 0
-205 -664 1143 0
-205 -670 1143 0
-205 -676 1143 0
-205 -682 1143 0
-205 -665 1144 0
-205 -671 1144 0
-205 -677 1144 0
-205 -683 1144 0
-205 -666 1145 0
-205 -672 1145 0
-205 -678 1145 0
-205 -684 1145 0
-205 -667 1146 0
-205 -673 1146 0
-205 -679 1146 0
-205 -685 1146 0
-102 205 -1141 -1142 -1143 0
-103 205 -1142 -1143 -1144 0
-104 205 -1143 -1144 -1145 0
-105 205 -1144 -1145 -1146 0
-686 186 0
-686 -1 -110 -107 0
-686 -1 -111 -108 0
-686 -1 -112 -109 0
-686 7 0
-686 -7 -110 1033 212 0
-686 -7 -111 1033 218 0
-686 -7 -112 1033 224 0
-686 -110 -236 0
-686 -110 -260 0
-686 -110 -284 0
-686 -110 -242 0
-686 -110 -266 0
-686 -110 -290 0
-686 -110 -248 0
-686 -110 -272 0
-686 -110 -296 0
-686 -111 -242 0
-686 -111 -266 0
-686 -111 -290 0
-686 -111 -248 0
-686 -111 -272 0
-686 -111 -296 0
-686 -112 -248 0
-686 -112 -272 0
-686 -112 -296 0
-686 -113 0
-686 22 0
-686 -110 123 0
-686 -111 124 0
-686 -112 125 0
-686 -191 0
-687 186 0
-687 -2 -110 -107 0
-687 -2 -111 -108 0
-687 -2 -112 -109 0
-687 8 0
-687 -8 -110 1034 213 0
-687 -8 -111 1034 219 0
-687 -8 -112 1034 225 0
-687 -110 -237 0
-687 -110 -261 0
-687 -110 -285 0
-687 -110 -243 0
-687 -110 -267 0
-687 -110 -291 0
-687 -110 -249 0
-687 -110 -273 0
-687 -110 -297 0
-687 -111 -243 0
-687 -111 -267 0
-687 -111 -291 0
-687 -111 -249 0
-687 -111 -273 0
-687 -111 -297 0
-687 -112 -249 0
-687 -112 -273 0
-687 -112 -297 0
-687 -113 0
-687 23 0
-687 -110 123 0
-687 -111 124 0
-687 -112 125 0
-687 -191 0
-688 186 0
-688 -3 -110 -107 0
-688 -3 -111 -108 0
-688 -3 -112 -109 0
-688 9 0
-688 -9 -110 1035 214 0
-688 -9 -111 1035 220 0
-688 -9 -112 1035 226 0
-688 -110 -238 0
-688 -110 -262 0
-688 -110 -286 0
-688 -110 -244 0
-688 -110 -268 0
-688 -110 -292 0
-688 -110 -250 0
-688 -110 -274 0
-688 -110 -298 0
-688 -111 -244 0
-688 -111 -268 0
-688 -111 -292 0
-688 -111 -250 0
-688 -111 -274 0
-688 -111 -298 0
-688 -112 -250 0
-688 -112 -274 0
-688 -112 -298 0
-688 -113 0
-688 24 0
-688 -110 123 0
-688 -111 124 0
-688 -112 125 0
-688 -191 0
-689 186 0
-689 -4 -110 -107 0
-689 -4 -111 -108 0
-689 -4 -112 -109 0
-689 10 0
-689 -10 -110 1036 215 0
-689 -10 -111 1036 221 0
-689 -10 -112 1036 227 0
-689 -110 -239 0
-689 -110 -263 0
-689 -110 -287 0
-689 -110 -245 0
-689 -110 -269 0
-689 -110 -293 0
-689 -110 -251 0
-689 -110 -275 0
-689 -110 -299 0
-689 -111 -245 0
-689 -111 -269 0
-689 -111 -293 0
-689 -111 -251 0
-689 -111 -275 0
-689 -111 -299 0
-689 -112 -251 0
-689 -112 -275 0
-689 -112 -299 0
-689 -113 0
-689 25 0
-689 -110 123 0
-689 -111 124 0
-689 -112 125 0
-689 -191 0
-690 186 0
-690 -5 -110 -107 0
-690 -5 -111 -108 0
-690 -5 -112 -109 0
-690 11 0
-690 -11 -110 1037 216 0
-690 -11 -111 1037 222 0
-690 -11 -112 1037 228 0
-690 -110 -240 0
-690 -110 -264 0
-690 -110 -288 0
-690 -110 -246 0
-690 -110 -270 0
-690 -110 -294 0
-690 -110 -252 0
-690 -110 -276 0
-690 -110 -300 0
-690 -111 -246 0
-690 -111 -270 0
-690 -111 -294 0
-690 -111 -252 0
-690 -111 -276 0
-690 -111 -300 0
-690 -112 -252 0
-690 -112 -276 0
-690 -112 -300 0
-690 -113 0
-690 26 0
-690 -110 123 0
-690 -111 124 0
-690 -112 125 0
-690 -191 0
-691 186 0
-691 -6 -110 -107 0
-691 -6 -111 -108 0
-691 -6 -112 -109 0
-691 12 0
-691 -12 -110 1038 217 0
-691 -12 -111 1038 223 0
-691 -12 -112 1038 229 0
-691 -110 -241 0
-691 -110 -265 0
-691 -110 -289 0
-691 -110 -247 0
-691 -110 -271 0
-691 -110 -295 0
-691 -110 -253 0
-691 -110 -277 0
-691 -110 -301 0
-691 -111 -247 0
-691 -111 -271 0
-691 -111 -295 0
-691 -111 -253 0
-691 -111 -277 0
-691 -111 -301 0
-691 -112 -253 0
-691 -112 -277 0
-691 -112 -301 0
-691 -113 0
-691 27 0
-691 -110 123 0
-691 -111 124 0
-691 -112 125 0
-691 -191 0
-692 186 0
-692 -1 -114 -107 0
-692 -1 -115 -108 0
-692 -1 -116 -109 0
-692 13 0
-692 -13 -114 1039 212 0
-692 -13 -115 1039 218 0
-692 -13 -116 1039 224 0
-692 -114 -236 0
-692 -114 -260 0
-692 -114 -284 0
-692 -114 -242 0
-692 -114 -266 0
-692 -114 -290 0
-692 -114 -248 0
-692 -114 -272 0
-692 -114 -296 0
-692 -115 -242 0
-692 -115 -266 0
-692 -115 -290 0
-692 -115 -248 0
-692 -115 -272 0
-692 -115 -296 0
-692 -116 -248 0
-692 -116 -272 0
-692 -116 -296 0
-692 -117 0
-692 22 0
-692 -114 123 0
-692 -115 124 0
-692 -116 125 0
-692 -192 0
-693 186 0
-693 -2 -114 -107 0
-693 -2 -115 -108 0
-693 -2 -116 -109 0
-693 13 14 0
-693 -13 -114 1040 213 0
-693 -13 -115 1040 219 0
-693 -13 -116 1040 225 0
-693 -14 -114 1040 213 0
-693 -14 -115 1040 219 0
-693 -14 -116 1040 225 0
-693 -114 -237 0
-693 -114 -261 0
-693 -114 -285 0
-693 -114 -243 0
-693 -114 -267 0
-693 -114 -291 0
-693 -114 -249 0
-693 -114 -273 0
-693 -114 -297 0
-693 -115 -243 0
-693 -115 -267 0
-693 -115 -291 0
-693 -115 -249 0
-693 -115 -273 0
-693 -115 -297 0
-693 -116 -249 0
-693 -116 -273 0
-693 -116 -297 0
-693 -117 0
-693 23 0
-693 -114 123 0
-693 -115 124 0
-693 -116 125 0
-693 -192 0
-694 186 0
-694 -3 -114 -107 0
-694 -3 -115 -108 0
-694 -3 -116 -109 0
-694 14 15 0
-694 -14 -114 1041 214 0
-694 -14 -115 1041 220 0
-694 -14 -116 1041 226 0
-694 -15 -114 1041 214 0
-694 -15 -115 1041 220 0
-694 -15 -116 1041 226 0
-694 -114 -238 0
-694 -114 -262 0
-694 -114 -286 0
-694 -114 -244 0
-694 -114 -268 0
-694 -114 -292 0
-694 -114 -250 0
-694 -114 -274 0
-694 -114 -298 0
-694 -115 -244 0
-694 -115 -268 0
-694 -115 -292 0
-694 -115 -250 0
-694 -115 -274 0
-694 -115 -298 0
-694 -116 -250 0
-694 -116 -274 0
-694 -116 -298 0
-694 -117 0
-694 24 0
-694 -114 123 0
-694 -115 124 0
-694 -116 125 0
-694 -192 0
-695 186 0
-695 -4 -114 -107 0
-695 -4 -115 -108 0
-695 -4 -116 -109 0
-695 15 16 0
-695 -15 -114 1042 215 0
-695 -15 -115 1042 221 0
-695 -15 -116 1042 227 0
-695 -16 -114 1042 215 0
-695 -16 -115 1042 221 0
-695 -16 -116 1042 227 0
-695 -114 -239 0
-695 -114 -263 0
-695 -114 -287 0
-695 -114 -245 0
-695 -114 -269 0
-695 -114 -293 0
-695 -114 -251 0
-695 -114 -275 0
-695 -114 -299 0
-695 -115 -245 0
-695 -115 -269 0
-695 -115 -293 0
-695 -115 -251 0
-695 -115 -275 0
-695 -115 -299 0
-695 -116 -251 0
-695 -116 -275 0
-695 -116 -299 0
-695 -117 0
-695 25 0
-695 -114 123 0
-695 -115 124 0
-695 -116 125 0
-695 -192 0
-696 186 0
-696 -5 -114 -107 0
-696 -5 -115 -108 0
-696 -5 -116 -109 0
-696 16 17 0
-696 -16 -114 1043 216 0
-696 -16 -115 1043 222 0
-696 -16 -116 1043 228 0
-696 -17 -114 1043 216 0
-696 -17 -115 1043 222 0
-696 -17 -116 1043 228 0
-696 -114 -240 0
-696 -114 -264 0
-696 -114 -288 0
-696 -114 -246 0
-696 -114 -270 0
-696 -114 -294 0
-696 -114 -252 0
-696 -114 -276 0
-696 -114 -300 0
-696 -115 -246 0
-696 -115 -270 0
-696 -115 -294 0
-696 -115 -252 0
-696 -115 -276 0
-696 -115 -300 0
-696 -116 -252 0
-696 -116 -276 0
-696 -116 -300 0
-696 -117 0
-696 26 0
-696 -114 123 0
-696 -115 124 0
-696 -116 125 0
-696 -192 0
-697 186 0
-697 -6 -114 -107 0
-697 -6 -115 -108 0
-697 -6 -116 -109 0
-697 17 0
-697 -17 -114 1044 217 0
-697 -17 -115 1044 223 0
-697 -17 -116 1044 229 0
-697 -114 -241 0
-697 -114 -265 0
-697 -114 -289 0
-697 -114 -247 0
-697 -114 -271 0
-697 -114 -295 0
-697 -114 -253 0
-697 -114 -277 0
-697 -114 -301 0
-697 -115 -247 0
-697 -115 -271 0
-697 -115 -295 0
-697 -115 -253 0
-697 -115 -277 0
-697 -115 -301 0
-697 -116 -253 0
-697 -116 -277 0
-697 -116 -301 0
-697 -117 0
-697 27 0
-697 -114 123 0
-697 -115 124 0
-697 -116 125 0
-697 -192 0
-698 186 0
-698 -1 -118 -107 0
-698 -1 -119 -108 0
-698 -1 -120 -109 0
-698 18 0
-698 -18 -118 1045 212 0
-698 -18 -119 1045 218 0
-698 -18 -120 1045 224 0
-698 -118 -236 0
-698 -118 -260 0
-698 -118 -284 0
-698 -118 -242 0
-698 -118 -266 0
-698 -118 -290 0
-698 -118 -248 0
-698 -118 -272 0
-698 -118 -296 0
-698 -119 -242 0
-698 -119 -266 0
-698 -119 -290 0
-698 -119 -248 0
-698 -119 -272 0
-698 -119 -296 0
-698 -120 -248 0
-698 -120 -272 0
-698 -120 -296 0
-698 -121 0
-698 22 0
-698 -118 123 0
-698 -119 124 0
-698 -120 125 0
-698 -193 0
-699 186 0
-699 -2 -118 -107 0
-699 -2 -119 -108 0
-699 -2 -120 -109 0
-699 18 19 0
-699 -18 -118 1046 213 0
-699 -18 -119 1046 219 0
-699 -18 -120 1046 225 0
-699 -19 -118 1046 213 0
-699 -19 -119 1046 219 0
-699 -19 -120 1046 225 0
-699 -118 -237 0
-699 -118 -261 0
-699 -118 -285 0
-699 -118 -243 0
-699 -118 -267 0
-699 -118 -291 0
-699 -118 -249 0
-699 -118 -273 0
-699 -118 -297 0
-699 -119 -243 0
-699 -119 -267 0
-699 -119 -291 0
-699 -119 -249 0
-699 -119 -273 0
-699 -119 -297 0
-699 -120 -249 0
-699 -120 -273 0
-699 -120 -297 0
-699 -121 0
-699 23 0
-699 -118 123 0
-699 -119 124 0
-699 -120 125 0
-699 -193 0
-700 186 0
-700 -3 -118 -107 0
-700 -3 -119 -108 0
-700 -3 -120 -109 0
-700 18 19 20 0
-700 -18 -118 1047 214 0
-700 -18 -119 1047 220 0
-700 -18 -120 1047 226 0
-700 -19 -118 1047 214 0
-700 -19 -119 1047 220 0
-700 -19 -120 1047 226 0
-700 -20 -118 1047 214 0
-700 -20 -119 1047 220 0
-700 -20 -120 1047 226 0
-700 -118 -238 0
-700 -118 -262 0
-700 -118 -286 0
-700 -118 -244 0
-700 -118 -268 0
-700 -118 -292 0
-700 -118 -250 0
-700 -118 -274 0
-700 -118 -298 0
-700 -119 -244 0
-700 -119 -268 0
-700 -119 -292 0
-700 -119 -250 0
-700 -119 -274 0
-700 -119 -298 0
-700 -120 -250 0
-700 -120 -274 0
-700 -120 -298 0
-700 -121 0
-700 24 0
-700 -118 123 0
-700 -119 124 0
-700 -120 125 0
-700 -193 0
-701 186 0
-701 -4 -118 -107 0
-701 -4 -119 -108 0
-701 -4 -120 -109 0
-701 19 20 21 0
-701 -19 -118 1048 215 0
-701 -19 -119 1048 221 0
-701 -19 -120 1048 227 0
-701 -20 -118 1048 215 0
-701 -20 -119 1048 221 0
-701 -20 -120 1048 227 0
-701 -21 -118 1048 215 0
-701 -21 -119 1048 221 0
-701 -21 -120 1048 227 0
-701 -118 -239 0
-701 -118 -263 0
-701 -118 -287 0
-701 -118 -245 0
-701 -118 -269 0
-701 -118 -293 0
-701 -118 -251 0
-701 -118 -275 0
-701 -118 -299 0
-701 -119 -245 0
-701 -119 -269 0
-701 -119 -293 0
-701 -119 -251 0
-701 -119 -275 0
-701 -119 -299 0
-701 -120 -251 0
-701 -120 -275 0
-701 -120 -299 0
-701 -121 0
-701 25 0
-701 -118 123 0
-701 -119 124 0
-701 -120 125 0
-701 -193 0
-702 186 0
-702 -5 -118 -107 0
-702 -5 -119 -108 0
-702 -5 -120 -109 0
-702 20 21 0
-702 -20 -118 1049 216 0
-702 -20 -119 1049 222 0
-702 -20 -120 1049 228 0
-702 -21 -118 1049 216 0
-702 -21 -119 1049 222 0
-702 -21 -120 1049 228 0
-702 -118 -240 0
-702 -118 -264 0
-702 -118 -288 0
-702 -118 -246 0
-702 -118 -270 0
-702 -118 -294 0
-702 -118 -252 0
-702 -118 -276 0
-702 -118 -300 0
-702 -119 -246 0
-702 -119 -270 0
-702 -119 -294 0
-702 -119 -252 0
-702 -119 -276 0
-702 -119 -300 0
-702 -120 -252 0
-702 -120 -276 0
-702 -120 -300 0
-702 -121 0
-702 26 0
-702 -118 123 0
-702 -119 124 0
-702 -120 125 0
-702 -193 0
-703 186 0
-703 -6 -118 -107 0
-703 -6 -119 -108 0
-703 -6 -120 -109 0
-703 21 0
-703 -21 -118 1050 217 0
-703 -21 -119 1050 223 0
-703 -21 -120 1050 229 0
-703 -118 -241 0
-703 -118 -265 0
-703 -118 -289 0
-703 -118 -247 0
-703 -118 -271 0
-703 -118 -295 0
-703 -118 -253 0
-703 -118 -277 0
-703 -118 -301 0
-703 -119 -247 0
-703 -119 -271 0
-703 -119 -295 0
-703 -119 -253 0
-703 -119 -277 0
-703 -119 -301 0
-703 -120 -253 0
-703 -120 -277 0
-703 -120 -301 0
-703 -121 0
-703 27 0
-703 -118 123 0
-703 -119 124 0
-703 -120 125 0
-703 -193 0
-704 186 0
-704 -1 -106 0
-704 -230 0
-704 -254 0
-704 -278 0
-704 -236 0
-704 -260 0
-704 -284 0
-704 -242 0
-704 -266 0
-704 -290 0
-704 -248 0
-704 -272 0
-704 -296 0
-704 22 0
-704 122 0
-705 186 0
-705 -2 -106 0
-705 -231 0
-705 -255 0
-705 -279 0
-705 -237 0
-705 -261 0
-705 -285 0
-705 -243 0
-705 -267 0
-705 -291 0
-705 -249 0
-705 -273 0
-705 -297 0
-705 23 0
-705 122 0
-706 186 0
-706 -3 -106 0
-706 -232 0
-706 -256 0
-706 -280 0
-706 -238 0
-706 -262 0
-706 -286 0
-706 -244 0
-706 -268 0
-706 -292 0
-706 -250 0
-706 -274 0
-706 -298 0
-706 24 0
-706 122 0
-707 186 0
-707 -4 -106 0
-707 -233 0
-707 -257 0
-707 -281 0
-707 -239 0
-707 -263 0
-707 -287 0
-707 -245 0
-707 -269 0
-707 -293 0
-707 -251 0
-707 -275 0
-707 -299 0
-707 25 0
-707 122 0
-708 186 0
-708 -5 -106 0
-708 -234 0
-708 -258 0
-708 -282 0
-708 -240 0
-708 -264 0
-708 -288 0
-708 -246 0
-708 -270 0
-708 -294 0
-708 -252 0
-708 -276 0
-708 -300 0
-708 26 0
-708 122 0
-709 186 0
-709 -6 -106 0
-709 -235 0
-709 -259 0
-709 -283 0
-709 -241 0
-709 -265 0
-709 -289 0
-709 -247 0
-709 -271 0
-709 -295 0
-709 -253 0
-709 -277 0
-709 -301 0
-709 27 0
-709 122 0
-710 187 0
-710 -7 -106 -111 0
-710 -7 -107 -112 0
-710 -7 -108 -113 0
-710 1 0
-710 -1 -106 1027 236 0
-710 -1 -107 1027 242 0
-710 -1 -108 1027 248 0
-710 -106 -212 0
-710 -106 -260 0
-710 -106 -284 0
-710 -106 -218 0
-710 -106 -266 0
-710 -106 -290 0
-710 -106 -224 0
-710 -106 -272 0
-710 -106 -296 0
-710 -107 -218 0
-710 -107 -266 0
-710 -107 -290 0
-710 -107 -224 0
-710 -107 -272 0
-710 -107 -296 0
-710 -108 -224 0
-710 -108 -272 0
-710 -108 -296 0
-710 -109 0
-710 28 0
-710 -106 127 0
-710 -107 128 0
-710 -108 129 0
-710 -190 0
-711 187 0
-711 -8 -106 -111 0
-711 -8 -107 -112 0
-711 -8 -108 -113 0
-711 2 0
-711 -2 -106 1028 237 0
-711 -2 -107 1028 243 0
-711 -2 -108 1028 249 0
-711 -106 -213 0
-711 -106 -261 0
-711 -106 -285 0
-711 -106 -219 0
-711 -106 -267 0
-711 -106 -291 0
-711 -106 -225 0
-711 -106 -273 0
-711 -106 -297 0
-711 -107 -219 0
-711 -107 -267 0
-711 -107 -291 0
-711 -107 -225 0
-711 -107 -273 0
-711 -107 -297 0
-711 -108 -225 0
-711 -108 -273 0
-711 -108 -297 0
-711 -109 0
-711 29 0
-711 -106 127 0
-711 -107 128 0
-711 -108 129 0
-711 -190 0
-712 187 0
-712 -9 -106 -111 0
-712 -9 -107 -112 0
-712 -9 -108 -113 0
-712 3 0
-712 -3 -106 1029 238 0
-712 -3 -107 1029 244 0
-712 -3 -108 1029 250 0
-712 -106 -214 0
-712 -106 -262 0
-712 -106 -286 0
-712 -106 -220 0
-712 -106 -268 0
-712 -106 -292 0
-712 -106 -226 0
-712 -106 -274 0
-712 -106 -298 0
-712 -107 -220 0
-712 -107 -268 0
-712 -107 -292 0
-712 -107 -226 0
-712 -107 -274 0
-712 -107 -298 0
-712 -108 -226 0
-712 -108 -274 0
-712 -108 -298 0
-712 -109 0
-712 30 0
-712 -106 127 0
-712 -107 128 0
-712 -108 129 0
-712 -190 0
-713 187 0
-713 -10 -106 -111 0
-713 -10 -107 -112 0
-713 -10 -108 -113 0
-713 4 0
-713 -4 -106 1030 239 0
-713 -4 -107 1030 245 0
-713 -4 -108 1030 251 0
-713 -106 -215 0
-713 -106 -263 0
-713 -106 -287 0
-713 -106 -221 0
-713 -106 -269 0
-713 -106 -293 0
-713 -106 -227 0
-713 -106 -275 0
-713 -106 -299 0
-713 -107 -221 0
-713 -107 -269 0
-713 -107 -293 0
-713 -107 -227 0
-713 -107 -275 0
-713 -107 -299 0
-713 -108 -227 0
-713 -108 -275 0
-713 -108 -299 0
-713 -109 0
-713 31 0
-713 -106 127 0
-713 -107 128 0
-713 -108 129 0
-713 -190 0
-714 187 0
-714 -11 -106 -111 0
-714 -11 -107 -112 0
-714 -11 -108 -113 0
-714 5 0
-714 -5 -106 1031 240 0
-714 -5 -107 1031 246 0
-714 -5 -108 1031 252 0
-714 -106 -216 0
-714 -106 -264 0
-714 -106 -288 0
-714 -106 -222 0
-714 -106 -270 0
-714 -106 -294 0
-714 -106 -228 0
-714 -106 -276 0
-714 -106 -300 0
-714 -107 -222 0
-714 -107 -270 0
-714 -107 -294 0
-714 -107 -228 0
-714 -107 -276 0
-714 -107 -300 0
-714 -108 -228 0
-714 -108 -276 0
-714 -108 -300 0
-714 -109 0
-714 32 0
-714 -106 127 0
-714 -107 128 0
-714 -108 129 0
-714 -190 0
-715 187 0
-715 -12 -106 -111 0
-715 -12 -107 -112 0
-715 -12 -108 -113 0
-715 6 0
-715 -6 -106 1032 241 0
-715 -6 -107 1032 247 0
-715 -6 -108 1032 253 0
-715 -106 -217 0
-715 -106 -265 0
-715 -106 -289 0
-715 -106 -223 0
-715 -106 -271 0
-715 -106 -295 0
-715 -106 -229 0
-715 -106 -277 0
-715 -106 -301 0
-715 -107 -223 0
-715 -107 -271 0
-715 -107 -295 0
-715 -107 -229 0
-715 -107 -277 0
-715 -107 -301 0
-715 -108 -229 0
-715 -108 -277 0
-715 -108 -301 0
-715 -109 0
-715 33 0
-715 -106 127 0
-715 -107 128 0
-715 -108 129 0
-715 -190 0
-716 187 0
-716 -7 -114 -111 0
-716 -7 -115 -112 0
-716 -7 -116 -113 0
-716 13 0
-716 -13 -114 1039 236 0
-716 -13 -115 1039 242 0
-716 -13 -116 1039 248 0
-716 -114 -212 0
-716 -114 -260 0
-716 -114 -284 0
-716 -114 -218 0
-716 -114 -266 0
-716 -114 -290 0
-716 -114 -224 0
-716 -114 -272 0
-716 -114 -296 0
-716 -115 -218 0
-716 -115 -266 0
-716 -115 -290 0
-716 -115 -224 0
-716 -115 -272 0
-716 -115 -296 0
-716 -116 -224 0
-716 -116 -272 0
-716 -116 -296 0
-716 -117 0
-716 28 0
-716 -114 127 0
-716 -115 128 0
-716 -116 129 0
-716 -192 0
-717 187 0
-717 -8 -114 -111 0
-717 -8 -115 -112 0
-717 -8 -116 -113 0
-717 13 14 0
-717 -13 -114 1040 237 0
-717 -13 -115 1040 243 0
-717 -13 -116 1040 249 0
-717 -14 -114 1040 237 0
-717 -14 -115 1040 243 0
-717 -14 -116 1040 249 0
-717 -114 -213 0
-717 -114 -261 0
-717 -114 -285 0
-717 -114 -219 0
-717 -114 -267 0
-717 -114 -291 0
-717 -114 -225 0
-717 -114 -273 0
-717 -114 -297 0
-717 -115 -219 0
-717 -115 -267 0
-717 -115 -291 0
-717 -115 -225 0
-717 -115 -273 0
-717 -115 -297 0
-717 -116 -225 0
-717 -116 -273 0
-717 -116 -297 0
-717 -117 0
-717 29 0
-717 -114 127 0
-717 -115 128 0
-717 -116 129 0
-717 -192 0
-718 187 0
-718 -9 -114 -111 0
-718 -9 -115 -112 0
-718 -9 -116 -113 0
-718 14 15 0
-718 -14 -114 1041 238 0
-718 -14 -115 1041 244 0
-718 -14 -116 1041 250 0
-718 -15 -114 1041 238 0
-718 -15 -115 1041 244 0
-718 -15 -116 1041 250 0
-718 -114 -214 0
-718 -114 -262 0
-718 -114 -286 0
-718 -114 -220 0
-718 -114 -268 0
-718 -114 -292 0
-718 -114 -226 0
-718 -114 -274 0
-718 -114 -298 0
-718 -115 -220 0
-718 -115 -268 0
-718 -115 -292 0
-718 -115 -226 0
-718 -115 -274 0
-718 -115 -298 0
-718 -116 -226 0
-718 -116 -274 0
-718 -116 -298 0
-718 -117 0
-718 30 0
-718 -114 127 0
-718 -115 128 0
-718 -116 129 0
-718 -192 0
-719 187 0
-719 -10 -114 -111 0
-719 -10 -115 -112 0
-719 -10 -116 -113 0
-719 15 16 0
-719 -15 -114 1042 239 0
-719 -15 -115 1042 245 0
-719 -15 -116 1042 251 0
-719 -16 -114 1042 239 0
-719 -16 -115 1042 245 0
-719 -16 -116 1042 251 0
-719 -114 -215 0
-719 -114 -263 0
-719 -114 -287 0
-719 -114 -221 0
-719 -114 -269 0
-719 -114 -293 0
-719 -114 -227 0
-719 -114 -275 0
-719 -114 -299 0
-719 -115 -221 0
-719 -115 -269 0
-719 -115 -293 0
-719 -115 -227 0
-719 -115 -275 0
-719 -115 -299 0
-719 -116 -227 0
-719 -116 -275 0
-719 -116 -299 0
-719 -117 0
-719 31 0
-719 -114 127 0
-719 -115 128 0
-719 -116 129 0
-719 -192 0
-720 187 0
-720 -11 -114 -111 0
-720 -11 -115 -112 0
-720 -11 -116 -113 0
-720 16 17 0
-720 -16 -114 1043 240 0
-720 -16 -115 1043 246 0
-720 -16 -116 1043 252 0
-720 -17 -114 1043 240 0
-720 -17 -115 1043 246 0
-720 -17 -116 1043 252 0
-720 -114 -216 0
-720 -114 -264 0
-720 -114 -288 0
-720 -114 -222 0
-720 -114 -270 0
-720 -114 -294 0
-720 -114 -228 0
-720 -114 -276 0
-720 -114 -300 0
-720 -115 -222 0
-720 -115 -270 0
-720 -115 -294 0
-720 -115 -228 0
-720 -115 -276 0
-720 -115 -300 0
-720 -116 -228 0
-720 -116 -276 0
-720 -116 -300 0
-720 -117 0
-720 32 0
-720 -114 127 0
-720 -115 128 0
-720 -116 129 0
-720 -192 0
-721 187 0
-721 -12 -114 -111 0
-721 -12 -115 -112 0
-721 -12 -116 -113 0
-721 17 0
-721 -17 -114 1044 241 0
-721 -17 -115 1044 247 0
-721 -17 -116 1044 253 0
-721 -114 -217 0
-721 -114 -265 0
-721 -114 -289 0
-721 -114 -223 0
-721 -114 -271 0
-721 -114 -295 0
-721 -114 -229 0
-721 -114 -277 0
-721 -114 -301 0
-721 -115 -223 0
-721 -115 -271 0
-721 -115 -295 0
-721 -115 -229 0
-721 -115 -277 0
-721 -115 -301 0
-721 -116 -229 0
-721 -116 -277 0
-721 -116 -301 0
-721 -117 0
-721 33 0
-721 -114 127 0
-721 -115 128 0
-721 -116 129 0
-721 -192 0
-722 187 0
-722 -7 -118 -111 0
-722 -7 -119 -112 0
-722 -7 -120 -113 0
-722 18 0
-722 -18 -118 1045 236 0
-722 -18 -119 1045 242 0
-722 -18 -120 1045 248 0
-722 -118 -212 0
-722 -118 -260 0
-722 -118 -284 0
-722 -118 -218 0
-722 -118 -266 0
-722 -118 -290 0
-722 -118 -224 0
-722 -118 -272 0
-722 -118 -296 0
-722 -119 -218 0
-722 -119 -266 0
-722 -119 -290 0
-722 -119 -224 0
-722 -119 -272 0
-722 -119 -296 0
-722 -120 -224 0
-722 -120 -272 0
-722 -120 -296 0
-722 -121 0
-722 28 0
-722 -118 127 0
-722 -119 128 0
-722 -120 129 0
-722 -193 0
-723 187 0
-723 -8 -118 -111 0
-723 -8 -119 -112 0
-723 -8 -120 -113 0
-723 18 19 0
-723 -18 -118 1046 237 0
-723 -18 -119 1046 243 0
-723 -18 -120 1046 249 0
-723 -19 -118 1046 237 0
-723 -19 -119 1046 243 0
-723 -19 -120 1046 249 0
-723 -118 -213 0
-723 -118 -261 0
-723 -118 -285 0
-723 -118 -219 0
-723 -118 -267 0
-723 -118 -291 0
-723 -118 -225 0
-723 -118 -273 0
-723 -118 -297 0
-723 -119 -219 0
-723 -119 -267 0
-723 -119 -291 0
-723 -119 -225 0
-723 -119 -273 0
-723 -119 -297 0
-723 -120 -225 0
-723 -120 -273 0
-723 -120 -297 0
-723 -121 0
-723 29 0
-723 -118 127 0
-723 -119 128 0
-723 -120 129 0
-723 -193 0
-724 187 0
-724 -9 -118 -111 0
-724 -9 -119 -112 0
-724 -9 -120 -113 0
-724 18 19 20 0
-724 -18 -118 1047 238 0
-724 -18 -119 1047 244 0
-724 -18 -120 1047 250 0
-724 -19 -118 1047 238 0
-724 -19 -119 1047 244 0
-724 -19 -120 1047 250 0
-724 -20 -118 1047 238 0
-724 -20 -119 1047 244 0
-724 -20 -120 1047 250 0
-724 -118 -214 0
-724 -118 -262 0
-724 -118 -286 0
-724 -118 -220 0
-724 -118 -268 0
-724 -118 -292 0
-724 -118 -226 0
-724 -118 -274 0
-724 -118 -298 0
-724 -119 -220 0
-724 -119 -268 0
-724 -119 -292 0
-724 -119 -226 0
-724 -119 -274 0
-724 -119 -298 0
-724 -120 -226 0
-724 -120 -274 0
-724 -120 -298 0
-724 -121 0
-724 30 0
-724 -118 127 0
-724 -119 128 0
-724 -120 129 0
-724 -193 0
-725 187 0
-725 -10 -118 -111 0
-725 -10 -119 -112 0
-725 -10 -120 -113 0
-725 19 20 21 0
-725 -19 -118 1048 239 0
-725 -19 -119 1048 245 0
-725 -19 -120 1048 251 0
-725 -20 -118 1048 239 0
-725 -20 -119 1048 245 0
-725 -20 -120 1048 251 0
-725 -21 -118 1048 239 0
-725 -21 -119 1048 245 0
-725 -21 -120 1048 251 0
-725 -118 -215 0
-725 -118 -263 0
-725 -118 -287 0
-725 -118 -221 0
-725 -118 -269 0
-725 -118 -293 0
-725 -118 -227 0
-725 -118 -275 0
-725 -118 -299 0
-725 -119 -221 0
-725 -119 -269 0
-725 -119 -293 0
-725 -119 -227 0
-725 -119 -275 0
-725 -119 -299 0
-725 -120 -227 0
-725 -120 -275 0
-725 -120 -299 0
-725 -121 0
-725 31 0
-725 -118 127 0
-725 -119 128 0
-725 -120 129 0
-725 -193 0
-726 187 0
-726 -11 -118 -111 0
-726 -11 -119 -112 0
-726 -11 -120 -113 0
-726 20 21 0
-726 -20 -118 1049 240 0
-726 -20 -119 1049 246 0
-726 -20 -120 1049 252 0
-726 -21 -118 1049 240 0
-726 -21 -119 1049 246 0
-726 -21 -120 1049 252 0
-726 -118 -216 0
-726 -118 -264 0
-726 -118 -288 0
-726 -118 -222 0
-726 -118 -270 0
-726 -118 -294 0
-726 -118 -228 0
-726 -118 -276 0
-726 -118 -300 0
-726 -119 -222 0
-726 -119 -270 0
-726 -119 -294 0
-726 -119 -228 0
-726 -119 -276 0
-726 -119 -300 0
-726 -120 -228 0
-726 -120 -276 0
-726 -120 -300 0
-726 -121 0
-726 32 0
-726 -118 127 0
-726 -119 128 0
-726 -120 129 0
-726 -193 0
-727 187 0
-727 -12 -118 -111 0
-727 -12 -119 -112 0
-727 -12 -120 -113 0
-727 21 0
-727 -21 -118 1050 241 0
-727 -21 -119 1050 247 0
-727 -21 -120 1050 253 0
-727 -118 -217 0
-727 -118 -265 0
-727 -118 -289 0
-727 -118 -223 0
-727 -118 -271 0
-727 -118 -295 0
-727 -118 -229 0
-727 -118 -277 0
-727 -118 -301 0
-727 -119 -223 0
-727 -119 -271 0
-727 -119 -295 0
-727 -119 -229 0
-727 -119 -277 0
-727 -119 -301 0
-727 -120 -229 0
-727 -120 -277 0
-727 -120 -301 0
-727 -121 0
-727 33 0
-727 -118 127 0
-727 -119 128 0
-727 -120 129 0
-727 -193 0
-728 187 0
-728 -7 -110 0
-728 -206 0
-728 -254 0
-728 -278 0
-728 -212 0
-728 -260 0
-728 -284 0
-728 -218 0
-728 -266 0
-728 -290 0
-728 -224 0
-728 -272 0
-728 -296 0
-728 28 0
-728 126 0
-729 187 0
-729 -8 -110 0
-729 -207 0
-729 -255 0
-729 -279 0
-729 -213 0
-729 -261 0
-729 -285 0
-729 -219 0
-729 -267 0
-729 -291 0
-729 -225 0
-729 -273 0
-729 -297 0
-729 29 0
-729 126 0
-730 187 0
-730 -9 -110 0
-730 -208 0
-730 -256 0
-730 -280 0
-730 -214 0
-730 -262 0
-730 -286 0
-730 -220 0
-730 -268 0
-730 -292 0
-730 -226 0
-730 -274 0
-730 -298 0
-730 30 0
-730 126 0
-731 187 0
-731 -10 -110 0
-731 -209 0
-731 -257 0
-731 -281 0
-731 -215 0
-731 -263 0
-731 -287 0
-731 -221 0
-731 -269 0
-731 -293 0
-731 -227 0
-731 -275 0
-731 -299 0
-731 31 0
-731 126 0
-732 187 0
-732 -11 -110 0
-732 -210 0
-732 -258 0
-732 -282 0
-732 -216 0
-732 -264 0
-732 -288 0
-732 -222 0
-732 -270 0
-732 -294 0
-732 -228 0
-732 -276 0
-732 -300 0
-732 32 0
-732 126 0
-733 187 0
-733 -12 -110 0
-733 -211 0
-733 -259 0
-733 -283 0
-733 -217 0
-733 -265 0
-733 -289 0
-733 -223 0
-733 -271 0
-733 -295 0
-733 -229 0
-733 -277 0
-733 -301 0
-733 33 0
-733 126 0
-734 188 0
-734 -13 -106 -115 0
-734 -13 -107 -116 0
-734 -13 -108 -117 0
-734 1 2 0
-734 -1 -106 1027 260 0
-734 -1 -107 1027 266 0
-734 -1 -108 1027 272 0
-734 -2 -106 1028 261 0
-734 -2 -107 1028 267 0
-734 -2 -108 1028 273 0
-734 -106 -212 0
-734 -106 -236 0
-734 -106 -284 0
-734 -106 -218 0
-734 -106 -242 0
-734 -106 -290 0
-734 -106 -224 0
-734 -106 -248 0
-734 -106 -296 0
-734 -106 -213 0
-734 -106 -237 0
-734 -106 -285 0
-734 -106 -219 0
-734 -106 -243 0
-734 -106 -291 0
-734 -106 -225 0
-734 -106 -249 0
-734 -106 -297 0
-734 -107 -218 0
-734 -107 -242 0
-734 -107 -290 0
-734 -107 -224 0
-734 -107 -248 0
-734 -107 -296 0
-734 -107 -219 0
-734 -107 -243 0
-734 -107 -291 0
-734 -107 -225 0
-734 -107 -249 0
-734 -107 -297 0
-734 -108 -224 0
-734 -108 -248 0
-734 -108 -296 0
-734 -108 -225 0
-734 -108 -249 0
-734 -108 -297 0
-734 -109 0
-734 34 0
-734 -106 131 0
-734 -107 132 0
-734 -108 133 0
-734 -190 0
-735 188 0
-735 -14 -106 -115 0
-735 -14 -107 -116 0
-735 -14 -108 -117 0
-735 2 3 0
-735 -2 -106 1028 261 0
-735 -2 -107 1028 267 0
-735 -2 -108 1028 273 0
-735 -3 -106 1029 262 0
-735 -3 -107 1029 268 0
-735 -3 -108 1029 274 0
-735 -106 -213 0
-735 -106 -237 0
-735 -106 -285 0
-735 -106 -219 0
-735 -106 -243 0
-735 -106 -291 0
-735 -106 -225 0
-735 -106 -249 0
-735 -106 -297 0
-735 -106 -214 0
-735 -106 -238 0
-735 -106 -286 0
-735 -106 -220 0
-735 -106 -244 0
-735 -106 -292 0
-735 -106 -226 0
-735 -106 -250 0
-735 -106 -298 0
-735 -107 -219 0
-735 -107 -243 0
-735 -107 -291 0
-735 -107 -225 0
-735 -107 -249 0
-735 -107 -297 0
-735 -107 -220 0
-735 -107 -244 0
-735 -107 -292 0
-735 -107 -226 0
-735 -107 -250 0
-735 -107 -298 0
-735 -108 -225 0
-735 -108 -249 0
-735 -108 -297 0
-735 -108 -226 0
-735 -108 -250 0
-735 -108 -298 0
-735 -109 0
-735 35 0
-735 -106 131 0
-735 -107 132 0
-735 -108 133 0
-735 -190 0
-736 188 0
-736 -15 -106 -115 0
-736 -15 -107 -116 0
-736 -15 -108 -117 0
-736 3 4 0
-736 -3 -106 1029 262 0
-736 -3 -107 1029 268 0
-736 -3 -108 1029 274 0
-736 -4 -106 1030 263 0
-736 -4 -107 1030 269 0
-736 -4 -108 1030 275 0
-736 -106 -214 0
-736 -106 -238 0
-736 -106 -286 0
-736 -106 -220 0
-736 -106 -244 0
-736 -106 -292 0
-736 -106 -226 0
-736 -106 -250 0
-736 -106 -298 0
-736 -106 -215 0
-736 -106 -239 0
-736 -106 -287 0
-736 -106 -221 0
-736 -106 -245 0
-736 -106 -293 0
-736 -106 -227 0
-736 -106 -251 0
-736 -106 -299 0
-736 -107 -220 0
-736 -107 -244 0
-736 -107 -292 0
-736 -107 -226 0
-736 -107 -250 0
-736 -107 -298 0
-736 -107 -221 0
-736 -107 -245 0
-736 -107 -293 0
-736 -107 -227 0
-736 -107 -251 0
-736 -107 -299 0
-736 -108 -226 0
-736 -108 -250 0
-736 -108 -298 0
-736 -108 -227 0
-736 -108 -251 0
-736 -108 -299 0
-736 -109 0
-736 36 0
-736 -106 131 0
-736 -107 132 0
-736 -108 133 0
-736 -190 0
-737 188 0
-737 -16 -106 -115 0
-737 -16 -107 -116 0
-737 -16 -108 -117 0
-737 4 5 0
-737 -4 -106 1030 263 0
-737 -4 -107 1030 269 0
-737 -4 -108 1030 275 0
-737 -5 -106 1031 264 0
-737 -5 -107 1031 270 0
-737 -5 -108 1031 276 0
-737 -106 -215 0
-737 -106 -239 0
-737 -106 -287 0
-737 -106 -221 0
-737 -106 -245 0
-737 -106 -293 0
-737 -106 -227 0
-737 -106 -251 0
-737 -106 -299 0
-737 -106 -216 0
-737 -106 -240 0
-737 -106 -288 0
-737 -106 -222 0
-737 -106 -246 0
-737 -106 -294 0
-737 -106 -228 0
-737 -106 -252 0
-737 -106 -300 0
-737 -107 -221 0
-737 -107 -245 0
-737 -107 -293 0
-737 -107 -227 0
-737 -107 -251 0
-737 -107 -299 0
-737 -107 -222 0
-737 -107 -246 0
-737 -107 -294 0
-737 -107 -228 0
-737 -107 -252 0
-737 -107 -300 0
-737 -108 -227 0
-737 -108 -251 0
-737 -108 -299 0
-737 -108 -228 0
-737 -108 -252 0
-737 -108 -300 0
-737 -109 0
-737 37 0
-737 -106 131 0
-737 -107 132 0
-737 -108 133 0
-737 -190 0
-738 188 0
-738 -17 -106 -115 0
-738 -17 -107 -116 0
-738 -17 -108 -117 0
-738 5 6 0
-738 -5 -106 1031 264 0
-738 -5 -107 1031 270 0
-738 -5 -108 1031 276 0
-738 -6 -106 1032 265 0
-738 -6 -107 1032 271 0
-738 -6 -108 1032 277 0
-738 -106 -216 0
-738 -106 -240 0
-738 -106 -288 0
-738 -106 -222 0
-738 -106 -246 0
-738 -106 -294 0
-738 -106 -228 0
-738 -106 -252 0
-738 -106 -300 0
-738 -106 -217 0
-738 -106 -241 0
-738 -106 -289 0
-738 -106 -223 0
-738 -106 -247 0
-738 -106 -295 0
-738 -106 -229 0
-738 -106 -253 0
-738 -106 -301 0
-738 -107 -222 0
-738 -107 -246 0
-738 -107 -294 0
-738 -107 -228 0
-738 -107 -252 0
-738 -107 -300 0
-738 -107 -223 0
-738 -107 -247 0
-738 -107 -295 0
-738 -107 -229 0
-738 -107 -253 0
-738 -107 -301 0
-738 -108 -228 0
-738 -108 -252 0
-738 -108 -300 0
-738 -108 -229 0
-738 -108 -253 0
-738 -108 -301 0
-738 -109 0
-738 38 0
-738 -106 131 0
-738 -107 132 0
-738 -108 133 0
-738 -190 0
-739 188 0
-739 -13 -110 -115 0
-739 -13 -111 -116 0
-739 -13 -112 -117 0
-739 7 8 0
-739 -7 -110 1033 260 0
-739 -7 -111 1033 266 0
-739 -7 -112 1033 272 0
-739 -8 -110 1034 261 0
-739 -8 -111 1034 267 0
-739 -8 -112 1034 273 0
-739 -110 -212 0
-739 -110 -236 0
-739 -110 -284 0
-739 -110 -218 0
-739 -110 -242 0
-739 -110 -290 0
-739 -110 -224 0
-739 -110 -248 0
-739 -110 -296 0
-739 -110 -213 0
-739 -110 -237 0
-739 -110 -285 0
-739 -110 -219 0
-739 -110 -243 0
-739 -110 -291 0
-739 -110 -225 0
-739 -110 -249 0
-739 -110 -297 0
-739 -111 -218 0
-739 -111 -242 0
-739 -111 -290 0
-739 -111 -224 0
-739 -111 -248 0
-739 -111 -296 0
-739 -111 -219 0
-739 -111 -243 0
-739 -111 -291 0
-739 -111 -225 0
-739 -111 -249 0
-739 -111 -297 0
-739 -112 -224 0
-739 -112 -248 0
-739 -112 -296 0
-739 -112 -225 0
-739 -112 -249 0
-739 -112 -297 0
-739 -113 0
-739 34 0
-739 -110 131 0
-739 -111 132 0
-739 -112 133 0
-739 -191 0
-740 188 0
-740 -14 -110 -115 0
-740 -14 -111 -116 0
-740 -14 -112 -117 0
-740 8 9 0
-740 -8 -110 1034 261 0
-740 -8 -111 1034 267 0
-740 -8 -112 1034 273 0
-740 -9 -110 1035 262 0
-740 -9 -111 1035 268 0
-740 -9 -112 1035 274 0
-740 -110 -213 0
-740 -110 -237 0
-740 -110 -285 0
-740 -110 -219 0
-740 -110 -243 0
-740 -110 -291 0
-740 -110 -225 0
-740 -110 -249 0
-740 -110 -297 0
-740 -110 -214 0
-740 -110 -238 0
-740 -110 -286 0
-740 -110 -220 0
-740 -110 -244 0
-740 -110 -292 0
-740 -110 -226 0
-740 -110 -250 0
-740 -110 -298 0
-740 -111 -219 0
-740 -111 -243 0
-740 -111 -291 0
-740 -111 -225 0
-740 -111 -249 0
-740 -111 -297 0
-740 -111 -220 0
-740 -111 -244 0
-740 -111 -292 0
-740 -111 -226 0
-740 -111 -250 0
-740 -111 -298 0
-740 -112 -225 0
-740 -112 -249 0
-740 -112 -297 0
-740 -112 -226 0
-740 -112 -250 0
-740 -112 -298 0
-740 -113 0
-740 35 0
-740 -110 131 0
-740 -111 132 0
-740 -112 133 0
-740 -191 0
-741 188 0
-741 -15 -110 -115 0
-741 -15 -111 -116 0
-741 -15 -112 -117 0
-741 9 10 0
-741 -9 -110 1035 262 0
-741 -9 -111 1035 268 0
-741 -9 -112 1035 274 0
-741 -10 -110 1036 263 0
-741 -10 -111 1036 269 0
-741 -10 -112 1036 275 0
-741 -110 -214 0
-741 -110 -238 0
-741 -110 -286 0
-741 -110 -220 0
-741 -110 -244 0
-741 -110 -292 0
-741 -110 -226 0
-741 -110 -250 0
-741 -110 -298 0
-741 -110 -215 0
-741 -110 -239 0
-741 -110 -287 0
-741 -110 -221 0
-741 -110 -245 0
-741 -110 -293 0
-741 -110 -227 0
-741 -110 -251 0
-741 -110 -299 0
-741 -111 -220 0
-741 -111 -244 0
-741 -111 -292 0
-741 -111 -226 0
-741 -111 -250 0
-741 -111 -298 0
-741 -111 -221 0
-741 -111 -245 0
-741 -111 -293 0
-741 -111 -227 0
-741 -111 -251 0
-741 -111 -299 0
-741 -112 -226 0
-741 -112 -250 0
-741 -112 -298 0
-741 -112 -227 0
-741 -112 -251 0
-741 -112 -299 0
-741 -113 0
-741 36 0
-741 -110 131 0
-741 -111 132 0
-741 -112 133 0
-741 -191 0
-742 188 0
-742 -16 -110 -115 0
-742 -16 -111 -116 0
-742 -16 -112 -117 0
-742 10 11 0
-742 -10 -110 1036 263 0
-742 -10 -111 1036 269 0
-742 -10 -112 1036 275 0
-742 -11 -110 1037 264 0
-742 -11 -111 1037 270 0
-742 -11 -112 1037 276 0
-742 -110 -215 0
-742 -110 -239 0
-742 -110 -287 0
-742 -110 -221 0
-742 -110 -245 0
-742 -110 -293 0
-742 -110 -227 0
-742 -110 -251 0
-742 -110 -299 0
-742 -110 -216 0
-742 -110 -240 0
-742 -110 -288 0
-742 -110 -222 0
-742 -110 -246 0
-742 -110 -294 0
-742 -110 -228 0
-742 -110 -252 0
-742 -110 -300 0
-742 -111 -221 0
-742 -111 -245 0
-742 -111 -293 0
-742 -111 -227 0
-742 -111 -251 0
-742 -111 -299 0
-742 -111 -222 0
-742 -111 -246 0
-742 -111 -294 0
-742 -111 -228 0
-742 -111 -252 0
-742 -111 -300 0
-742 -112 -227 0
-742 -112 -251 0
-742 -112 -299 0
-742 -112 -228 0
-742 -112 -252 0
-742 -112 -300 0
-742 -113 0
-742 37 0
-742 -110 131 0
-742 -111 132 0
-742 -112 133 0
-742 -191 0
-743 188 0
-743 -17 -110 -115 0
-743 -17 -111 -116 0
-743 -17 -112 -117 0
-743 11 12 0
-743 -11 -110 1037 264 0
-743 -11 -111 1037 270 0
-743 -11 -112 1037 276 0
-743 -12 -110 1038 265 0
-743 -12 -111 1038 271 0
-743 -12 -112 1038 277 0
-743 -110 -216 0
-743 -110 -240 0
-743 -110 -288 0
-743 -110 -222 0
-743 -110 -246 0
-743 -110 -294 0
-743 -110 -228 0
-743 -110 -252 0
-743 -110 -300 0
-743 -110 -217 0
-743 -110 -241 0
-743 -110 -289 0
-743 -110 -223 0
-743 -110 -247 0
-743 -110 -295 0
-743 -110 -229 0
-743 -110 -253 0
-743 -110 -301 0
-743 -111 -222 0
-743 -111 -246 0
-743 -111 -294 0
-743 -111 -228 0
-743 -111 -252 0
-743 -111 -300 0
-743 -111 -223 0
-743 -111 -247 0
-743 -111 -295 0
-743 -111 -229 0
-743 -111 -253 0
-743 -111 -301 0
-743 -112 -228 0
-743 -112 -252 0
-743 -112 -300 0
-743 -112 -229 0
-743 -112 -253 0
-743 -112 -301 0
-743 -113 0
-743 38 0
-743 -110 131 0
-743 -111 132 0
-743 -112 133 0
-743 -191 0
-744 188 0
-744 -13 -118 -115 0
-744 -13 -119 -116 0
-744 -13 -120 -117 0
-744 18 19 0
-744 -18 -118 1045 260 0
-744 -18 -119 1045 266 0
-744 -18 -120 1045 272 0
-744 -18 -118 1046 261 0
-744 -18 -119 1046 267 0
-744 -18 -120 1046 273 0
-744 -19 -118 1046 261 0
-744 -19 -119 1046 267 0
-744 -19 -120 1046 273 0
-744 -118 -212 0
-744 -118 -236 0
-744 -118 -284 0
-744 -118 -218 0
-744 -118 -242 0
-744 -118 -290 0
-744 -118 -224 0
-744 -118 -248 0
-744 -118 -296 0
-744 -118 -213 0
-744 -118 -237 0
-744 -118 -285 0
-744 -118 -219 0
-744 -118 -243 0
-744 -118 -291 0
-744 -118 -225 0
-744 -118 -249 0
-744 -118 -297 0
-744 -119 -218 0
-744 -119 -242 0
-744 -119 -290 0
-744 -119 -224 0
-744 -119 -248 0
-744 -119 -296 0
-744 -119 -219 0
-744 -119 -243 0
-744 -119 -291 0
-744 -119 -225 0
-744 -119 -249 0
-744 -119 -297 0
-744 -120 -224 0
-744 -120 -248 0
-744 -120 -296 0
-744 -120 -225 0
-744 -120 -249 0
-744 -120 -297 0
-744 -121 0
-744 34 0
-744 -118 131 0
-744 -119 132 0
-744 -120 133 0
-744 -193 0
-745 188 0
-745 -14 -118 -115 0
-745 -14 -119 -116 0
-745 -14 -120 -117 0
-745 18 19 20 0
-745 -18 -118 1046 261 0
-745 -18 -119 1046 267 0
-745 -18 -120 1046 273 0
-745 -18 -118 1047 262 0
-745 -18 -119 1047 268 0
-745 -18 -120 1047 274 0
-745 -19 -118 1046 261 0
-745 -19 -119 1046 267 0
-745 -19 -120 1046 273 0
-745 -19 -118 1047 262 0
-745 -19 -119 1047 268 0
-745 -19 -120 1047 274 0
-745 -20 -118 1047 262 0
-745 -20 -119 1047 268 0
-745 -20 -120 1047 274 0
-745 -118 -213 0
-745 -118 -237 0
-745 -118 -285 0
-745 -118 -219 0
-745 -118 -243 0
-745 -118 -291 0
-745 -118 -225 0
-745 -118 -249 0
-745 -118 -297 0
-745 -118 -214 0
-745 -118 -238 0
-745 -118 -286 0
-745 -118 -220 0
-745 -118 -244 0
-745 -118 -292 0
-745 -118 -226 0
-745 -118 -250 0
-745 -118 -298 0
-745 -119 -219 0
-745 -119 -243 0
-745 -119 -291 0
-745 -119 -225 0
-745 -119 -249 0
-745 -119 -297 0
-745 -119 -220 0
-745 -119 -244 0
-745 -119 -292 0
-745 -119 -226 0
-745 -119 -250 0
-745 -119 -298 0
-745 -120 -225 0
-745 -120 -249 0
-745 -120 -297 0
-745 -120 -226 0
-745 -120 -250 0
-745 -120 -298 0
-745 -121 0
-745 35 0
-745 -118 131 0
-745 -119 132 0
-745 -120 133 0
-745 -193 0
-746 188 0
-746 -15 -118 -115 0
-746 -15 -119 -116 0
-746 -15 -120 -117 0
-746 18 19 20 21 0
-746 -18 -118 1047 262 0
-746 -18 -119 1047 268 0
-746 -18 -120 1047 274 0
-746 -19 -118 1047 262 0
-746 -19 -119 1047 268 0
-746 -19 -120 1047 274 0
-746 -19 -118 1048 263 0
-746 -19 -119 1048 269 0
-746 -19 -120 1048 275 0
-746 -20 -118 1047 262 0
-746 -20 -119 1047 268 0
-746 -20 -120 1047 274 0
-746 -20 -118 1048 263 0
-746 -20 -119 1048 269 0
-746 -20 -120 1048 275 0
-746 -21 -118 1048 263 0
-746 -21 -119 1048 269 0
-746 -21 -120 1048 275 0
-746 -118 -214 0
-746 -118 -238 0
-746 -118 -286 0
-746 -118 -220 0
-746 -118 -244 0
-746 -118 -292 0
-746 -118 -226 0
-746 -118 -250 0
-746 -118 -298 0
-746 -118 -215 0
-746 -118 -239 0
-746 -118 -287 0
-746 -118 -221 0
-746 -118 -245 0
-746 -118 -293 0
-746 -118 -227 0
-746 -118 -251 0
-746 -118 -299 0
-746 -119 -220 0
-746 -119 -244 0
-746 -119 -292 0
-746 -119 -226 0
-746 -119 -250 0
-746 -119 -298 0
-746 -119 -221 0
-746 -119 -245 0
-746 -119 -293 0
-746 -119 -227 0
-746 -119 -251 0
-746 -119 -299 0
-746 -120 -226 0
-746 -120 -250 0
-746 -120 -298 0
-746 -120 -227 0
-746 -120 -251 0
-746 -120 -299 0
-746 -121 0
-746 36 0
-746 -118 131 0
-746 -119 132 0
-746 -120 133 0
-746 -193 0
-747 188 0
-747 -16 -118 -115 0
-747 -16 -119 -116 0
-747 -16 -120 -117 0
-747 19 20 21 0
-747 -19 -118 1048 263 0
-747 -19 -119 1048 269 0
-747 -19 -120 1048 275 0
-747 -20 -118 1048 263 0
-747 -20 -119 1048 269 0
-747 -20 -120 1048 275 0
-747 -20 -118 1049 264 0
-747 -20 -119 1049 270 0
-747 -20 -120 1049 276 0
-747 -21 -118 1048 263 0
-747 -21 -119 1048 269 0
-747 -21 -120 1048 275 0
-747 -21 -118 1049 264 0
-747 -21 -119 1049 270 0
-747 -21 -120 1049 276 0
-747 -118 -215 0
-747 -118 -239 0
-747 -118 -287 0
-747 -118 -221 0
-747 -118 -245 0
-747 -118 -293 0
-747 -118 -227 0
-747 -118 -251 0
-747 -118 -299 0
-747 -118 -216 0
-747 -118 -240 0
-747 -118 -288 0
-747 -118 -222 0
-747 -118 -246 0
-747 -118 -294 0
-747 -118 -228 0
-747 -118 -252 0
-747 -118 -300 0
-747 -119 -221 0
-747 -119 -245 0
-747 -119 -293 0
-747 -119 -227 0
-747 -119 -251 0
-747 -119 -299 0
-747 -119 -222 0
-747 -119 -246 0
-747 -119 -294 0
-747 -119 -228 0
-747 -119 -252 0
-747 -119 -300 0
-747 -120 -227 0
-747 -120 -251 0
-747 -120 -299 0
-747 -120 -228 0
-747 -120 -252 0
-747 -120 -300 0
-747 -121 0
-747 37 0
-747 -118 131 0
-747 -119 132 0
-747 -120 133 0
-747 -193 0
-748 188 0
-748 -17 -118 -115 0
-748 -17 -119 -116 0
-748 -17 -120 -117 0
-748 20 21 0
-748 -20 -118 1049 264 0
-748 -20 -119 1049 270 0
-748 -20 -120 1049 276 0
-748 -21 -118 1049 264 0
-748 -21 -119 1049 270 0
-748 -21 -120 1049 276 0
-748 -21 -118 1050 265 0
-748 -21 -119 1050 271 0
-748 -21 -120 1050 277 0
-748 -118 -216 0
-748 -118 -240 0
-748 -118 -288 0
-748 -118 -222 0
-748 -118 -246 0
-748 -118 -294 0
-748 -118 -228 0
-748 -118 -252 0
-748 -118 -300 0
-748 -118 -217 0
-748 -118 -241 0
-748 -118 -289 0
-748 -118 -223 0
-748 -118 -247 0
-748 -118 -295 0
-748 -118 -229 0
-748 -118 -253 0
-748 -118 -301 0
-748 -119 -222 0
-748 -119 -246 0
-748 -119 -294 0
-748 -119 -228 0
-748 -119 -252 0
-748 -119 -300 0
-748 -119 -223 0
-748 -119 -247 0
-748 -119 -295 0
-748 -119 -229 0
-748 -119 -253 0
-748 -119 -301 0
-748 -120 -228 0
-748 -120 -252 0
-748 -120 -300 0
-748 -120 -229 0
-748 -120 -253 0
-748 -120 -301 0
-748 -121 0
-748 38 0
-748 -118 131 0
-748 -119 132 0
-748 -120 133 0
-748 -193 0
-749 188 0
-749 -13 -114 0
-749 -206 0
-749 -230 0
-749 -278 0
-749 -212 0
-749 -236 0
-749 -284 0
-749 -218 0
-749 -242 0
-749 -290 0
-749 -224 0
-749 -248 0
-749 -296 0
-749 -207 0
-749 -231 0
-749 -279 0
-749 -213 0
-749 -237 0
-749 -285 0
-749 -219 0
-749 -243 0
-749 -291 0
-749 -225 0
-749 -249 0
-749 -297 0
-749 34 0
-749 130 0
-750 188 0
-750 -14 -114 0
-750 -207 0
-750 -231 0
-750 -279 0
-750 -213 0
-750 -237 0
-750 -285 0
-750 -219 0
-750 -243 0
-750 -291 0
-750 -225 0
-750 -249 0
-750 -297 0
-750 -208 0
-750 -232 0
-750 -280 0
-750 -214 0
-750 -238 0
-750 -286 0
-750 -220 0
-750 -244 0
-750 -292 0
-750 -226 0
-750 -250 0
-750 -298 0
-750 35 0
-750 130 0
-751 188 0
-751 -15 -114 0
-751 -208 0
-751 -232 0
-751 -280 0
-751 -214 0
-751 -238 0
-751 -286 0
-751 -220 0
-751 -244 0
-751 -292 0
-751 -226 0
-751 -250 0
-751 -298 0
-751 -209 0
-751 -233 0
-751 -281 0
-751 -215 0
-751 -239 0
-751 -287 0
-751 -221 0
-751 -245 0
-751 -293 0
-751 -227 0
-751 -251 0
-751 -299 0
-751 36 0
-751 130 0
-752 188 0
-752 -16 -114 0
-752 -209 0
-752 -233 0
-752 -281 0
-752 -215 0
-752 -239 0
-752 -287 0
-752 -221 0
-752 -245 0
-752 -293 0
-752 -227 0
-752 -251 0
-752 -299 0
-752 -210 0
-752 -234 0
-752 -282 0
-752 -216 0
-752 -240 0
-752 -288 0
-752 -222 0
-752 -246 0
-752 -294 0
-752 -228 0
-752 -252 0
-752 -300 0
-752 37 0
-752 130 0
-753 188 0
-753 -17 -114 0
-753 -210 0
-753 -234 0
-753 -282 0
-753 -216 0
-753 -240 0
-753 -288 0
-753 -222 0
-753 -246 0
-753 -294 0
-753 -228 0
-753 -252 0
-753 -300 0
-753 -211 0
-753 -235 0
-753 -283 0
-753 -217 0
-753 -241 0
-753 -289 0
-753 -223 0
-753 -247 0
-753 -295 0
-753 -229 0
-753 -253 0
-753 -301 0
-753 38 0
-753 130 0
-754 189 0
-754 -18 -106 -119 0
-754 -18 -107 -120 0
-754 -18 -108 -121 0
-754 1 2 3 0
-754 -1 -106 1027 284 0
-754 -1 -107 1027 290 0
-754 -1 -108 1027 296 0
-754 -2 -106 1028 285 0
-754 -2 -107 1028 291 0
-754 -2 -108 1028 297 0
-754 -3 -106 1029 286 0
-754 -3 -107 1029 292 0
-754 -3 -108 1029 298 0
-754 -106 -212 0
-754 -106 -236 0
-754 -106 -260 0
-754 -106 -218 0
-754 -106 -242 0
-754 -106 -266 0
-754 -106 -224 0
-754 -106 -248 0
-754 -106 -272 0
-754 -106 -213 0
-754 -106 -237 0
-754 -106 -261 0
-754 -106 -219 0
-754 -106 -243 0
-754 -106 -267 0
-754 -106 -225 0
-754 -106 -249 0
-754 -106 -273 0
-754 -106 -214 0
-754 -106 -238 0
-754 -106 -262 0
-754 -106 -220 0
-754 -106 -244 0
-754 -106 -268 0
-754 -106 -226 0
-754 -106 -250 0
-754 -106 -274 0
-754 -107 -218 0
-754 -107 -242 0
-754 -107 -266 0
-754 -107 -224 0
-754 -107 -248 0
-754 -107 -272 0
-754 -107 -219 0
-754 -107 -243 0
-754 -107 -267 0
-754 -107 -225 0
-754 -107 -249 0
-754 -107 -273 0
-754 -107 -220 0
-754 -107 -244 0
-754 -107 -268 0
-754 -107 -226 0
-754 -107 -250 0
-754 -107 -274 0
-754 -108 -224 0
-754 -108 -248 0
-754 -108 -272 0
-754 -108 -225 0
-754 -108 -249 0
-754 -108 -273 0
-754 -108 -226 0
-754 -108 -250 0
-754 -108 -274 0
-754 -109 0
-754 39 0
-754 -106 135 0
-754 -107 136 0
-754 -108 137 0
-754 -190 0
-755 189 0
-755 -19 -106 -119 0
-755 -19 -107 -120 0
-755 -19 -108 -121 0
-755 2 3 4 0
-755 -2 -106 1028 285 0
-755 -2 -107 1028 291 0
-755 -2 -108 1028 297 0
-755 -3 -106 1029 286 0
-755 -3 -107 1029 292 0
-755 -3 -108 1029 298 0
-755 -4 -106 1030 287 0
-755 -4 -107 1030 293 0
-755 -4 -108 1030 299 0
-755 -106 -213 0
-755 -106 -237 0
-755 -106 -261 0
-755 -106 -219 0
-755 -106 -243 0
-755 -106 -267 0
-755 -106 -225 0
-755 -106 -249 0
-755 -106 -273 0
-755 -106 -214 0
-755 -106 -238 0
-755 -106 -262 0
-755 -106 -220 0
-755 -106 -244 0
-755 -106 -268 0
-755 -106 -226 0
-755 -106 -250 0
-755 -106 -274 0
-755 -106 -215 0
-755 -106 -239 0
-755 -106 -263 0
-755 -106 -221 0
-755 -106 -245 0
-755 -106 -269 0
-755 -106 -227 0
-755 -106 -251 0
-755 -106 -275 0
-755 -107 -219 0
-755 -107 -243 0
-755 -107 -267 0
-755 -107 -225 0
-755 -107 -249 0
-755 -107 -273 0
-755 -107 -220 0
-755 -107 -244 0
-755 -107 -268 0
-755 -107 -226 0
-755 -107 -250 0
-755 -107 -274 0
-755 -107 -221 0
-755 -107 -245 0
-755 -107 -269 0
-755 -107 -227 0
-755 -107 -251 0
-755 -107 -275 0
-755 -108 -225 0
-755 -108 -249 0
-755 -108 -273 0
-755 -108 -226 0
-755 -108 -250 0
-755 -108 -274 0
-755 -108 -227 0
-755 -108 -251 0
-755 -108 -275 0
-755 -109 0
-755 40 0
-755 -106 135 0
-755 -107 136 0
-755 -108 137 0
-755 -190 0
-756 189 0
-756 -20 -106 -119 0
-756 -20 -107 -120 0
-756 -20 -108 -121 0
-756 3 4 5 0
-756 -3 -106 1029 286 0
-756 -3 -107 1029 292 0
-756 -3 -108 1029 298 0
-756 -4 -106 1030 287 0
-756 -4 -107 1030 293 0
-756 -4 -108 1030 299 0
-756 -5 -106 1031 288 0
-756 -5 -107 1031 294 0
-756 -5 -108 1031 300 0
-756 -106 -214 0
-756 -106 -238 0
-756 -106 -262 0
-756 -106 -220 0
-756 -106 -244 0
-756 -106 -268 0
-756 -106 -226 0
-756 -106 -250 0
-756 -106 -274 0
-756 -106 -215 0
-756 -106 -239 0
-756 -106 -263 0
-756 -106 -221 0
-756 -106 -245 0
-756 -106 -269 0
-756 -106 -227 0
-756 -106 -251 0
-756 -106 -275 0
-756 -106 -216 0
-756 -106 -240 0
-756 -106 -264 0
-756 -106 -222 0
-756 -106 -246 0
-756 -106 -270 0
-756 -106 -228 0
-756 -106 -252 0
-756 -106 -276 0
-756 -107 -220 0
-756 -107 -244 0
-756 -107 -268 0
-756 -107 -226 0
-756 -107 -250 0
-756 -107 -274 0
-756 -107 -221 0
-756 -107 -245 0
-756 -107 -269 0
-756 -107 -227 0
-756 -107 -251 0
-756 -107 -275 0
-756 -107 -222 0
-756 -107 -246 0
-756 -107 -270 0
-756 -107 -228 0
-756 -107 -252 0
-756 -107 -276 0
-756 -108 -226 0
-756 -108 -250 0
-756 -108 -274 0
-756 -108 -227 0
-756 -108 -251 0
-756 -108 -275 0
-756 -108 -228 0
-756 -108 -252 0
-756 -108 -276 0
-756 -109 0
-756 41 0
-756 -106 135 0
-756 -107 136 0
-756 -108 137 0
-756 -190 0
-757 189 0
-757 -21 -106 -119 0
-757 -21 -107 -120 0
-757 -21 -108 -121 0
-757 4 5 6 0
-757 -4 -106 1030 287 0
-757 -4 -107 1030 293 0
-757 -4 -108 1030 299 0
-757 -5 -106 1031 288 0
-757 -5 -107 1031 294 0
-757 -5 -108 1031 300 0
-757 -6 -106 1032 289 0
-757 -6 -107 1032 295 0
-757 -6 -108 1032 301 0
-757 -106 -215 0
-757 -106 -239 0
-757 -106 -263 0
-757 -106 -221 0
-757 -106 -245 0
-757 -106 -269 0
-757 -106 -227 0
-757 -106 -251 0
-757 -106 -275 0
-757 -106 -216 0
-757 -106 -240 0
-757 -106 -264 0
-757 -106 -222 0
-757 -106 -246 0
-757 -106 -270 0
-757 -106 -228 0
-757 -106 -252 0
-757 -106 -276 0
-757 -106 -217 0
-757 -106 -241 0
-757 -106 -265 0
-757 -106 -223 0
-757 -106 -247 0
-757 -106 -271 0
-757 -106 -229 0
-757 -106 -253 0
-757 -106 -277 0
-757 -107 -221 0
-757 -107 -245 0
-757 -107 -269 0
-757 -107 -227 0
-757 -107 -251 0
-757 -107 -275 0
-757 -107 -222 0
-757 -107 -246 0
-757 -107 -270 0
-757 -107 -228 0
-757 -107 -252 0
-757 -107 -276 0
-757 -107 -223 0
-757 -107 -247 0
-757 -107 -271 0
-757 -107 -229 0
-757 -107 -253 0
-757 -107 -277 0
-757 -108 -227 0
-757 -108 -251 0
-757 -108 -275 0
-757 -108 -228 0
-757 -108 -252 0
-757 -108 -276 0
-757 -108 -229 0
-757 -108 -253 0
-757 -108 -277 0
-757 -109 0
-757 42 0
-757 -106 135 0
-757 -107 136 0
-757 -108 137 0
-757 -190 0
-758 189 0
-758 -18 -110 -119 0
-758 -18 -111 -120 0
-758 -18 -112 -121 0
-758 7 8 9 0
-758 -7 -110 1033 284 0
-758 -7 -111 1033 290 0
-758 -7 -112 1033 296 0
-758 -8 -110 1034 285 0
-758 -8 -111 1034 291 0
-758 -8 -112 1034 297 0
-758 -9 -110 1035 286 0
-758 -9 -111 1035 292 0
-758 -9 -112 1035 298 0
-758 -110 -212 0
-758 -110 -236 0
-758 -110 -260 0
-758 -110 -218 0
-758 -110 -242 0
-758 -110 -266 0
-758 -110 -224 0
-758 -110 -248 0
-758 -110 -272 0
-758 -110 -213 0
-758 -110 -237 0
-758 -110 -261 0
-758 -110 -219 0
-758 -110 -243 0
-758 -110 -267 0
-758 -110 -225 0
-758 -110 -249 0
-758 -110 -273 0
-758 -110 -214 0
-758 -110 -238 0
-758 -110 -262 0
-758 -110 -220 0
-758 -110 -244 0
-758 -110 -268 0
-758 -110 -226 0
-758 -110 -250 0
-758 -110 -274 0
-758 -111 -218 0
-758 -111 -242 0
-758 -111 -266 0
-758 -111 -224 0
-758 -111 -248 0
-758 -111 -272 0
-758 -111 -219 0
-758 -111 -243 0
-758 -111 -267 0
-758 -111 -225 0
-758 -111 -249 0
-758 -111 -273 0
-758 -111 -220 0
-758 -111 -244 0
-758 -111 -268 0
-758 -111 -226 0
-758 -111 -250 0
-758 -111 -274 0
-758 -112 -224 0
-758 -112 -248 0
-758 -112 -272 0
-758 -112 -225 0
-758 -112 -249 0
-758 -112 -273 0
-758 -112 -226 0
-758 -112 -250 0
-758 -112 -274 0
-758 -113 0
-758 39 0
-758 -110 135 0
-758 -111 136 0
-758 -112 137 0
-758 -191 0
-759 189 0
-759 -19 -110 -119 0
-759 -19 -111 -120 0
-759 -19 -112 -121 0
-759 8 9 10 0
-759 -8 -110 1034 285 0
-759 -8 -111 1034 291 0
-759 -8 -112 1034 297 0
-759 -9 -110 1035 286 0
-759 -9 -111 1035 292 0
-759 -9 -112 1035 298 0
-759 -10 -110 1036 287 0
-759 -10 -111 1036 293 0
-759 -10 -112 1036 299 0
-759 -110 -213 0
-759 -110 -237 0
-759 -110 -261 0
-759 -110 -219 0
-759 -110 -243 0
-759 -110 -267 0
-759 -110 -225 0
-759 -110 -249 0
-759 -110 -273 0
-759 -110 -214 0
-759 -110 -238 0
-759 -110 -262 0
-759 -110 -220 0
-759 -110 -244 0
-759 -110 -268 0
-759 -110 -226 0
-759 -110 -250 0
-759 -110 -274 0
-759 -110 -215 0
-759 -110 -239 0
-759 -110 -263 0
-759 -110 -221 0
-759 -110 -245 0
-759 -110 -269 0
-759 -110 -227 0
-759 -110 -251 0
-759 -110 -275 0
-759 -111 -219 0
-759 -111 -243 0
-759 -111 -267 0
-759 -111 -225 0
-759 -111 -249 0
-759 -111 -273 0
-759 -111 -220 0
-759 -111 -244 0
-759 -111 -268 0
-759 -111 -226 0
-759 -111 -250 0
-759 -111 -274 0
-759 -111 -221 0
-759 -111 -245 0
-759 -111 -269 0
-759 -111 -227 0
-759 -111 -251 0
-759 -111 -275 0
-759 -112 -225 0
-759 -112 -249 0
-759 -112 -273 0
-759 -112 -226 0
-759 -112 -250 0
-759 -112 -274 0
-759 -112 -227 0
-759 -112 -251 0
-759 -112 -275 0
-759 -113 0
-759 40 0
-759 -110 135 0
-759 -111 136 0
-759 -112 137 0
-759 -191 0
-760 189 0
-760 -20 -110 -119 0
-760 -20 -111 -120 0
-760 -20 -112 -121 0
-760 9 10 11 0
-760 -9 -110 1035 286 0
-760 -9 -111 1035 292 0
-760 -9 -112 1035 298 0
-760 -10 -110 1036 287 0
-760 -10 -111 1036 293 0
-760 -10 -112 1036 299 0
-760 -11 -110 1037 288 0
-760 -11 -111 1037 294 0
-760 -11 -112 1037 300 0
-760 -110 -214 0
-760 -110 -238 0
-760 -110 -262 0
-760 -110 -220 0
-760 -110 -244 0
-760 -110 -268 0
-760 -110 -226 0
-760 -110 -250 0
-760 -110 -274 0
-760 -110 -215 0
-760 -110 -239 0
-760 -110 -263 0
-760 -110 -221 0
-760 -110 -245 0
-760 -110 -269 0
-760 -110 -227 0
-760 -110 -251 0
-760 -110 -275 0
-760 -110 -216 0
-760 -110 -240 0
-760 -110 -264 0
-760 -110 -222 0
-760 -110 -246 0
-760 -110 -270 0
-760 -110 -228 0
-760 -110 -252 0
-760 -110 -276 0
-760 -111 -220 0
-760 -111 -244 0
-760 -111 -268 0
-760 -111 -226 0
-760 -111 -250 0
-760 -111 -274 0
-760 -111 -221 0
-760 -111 -245 0
-760 -111 -269 0
-760 -111 -227 0
-760 -111 -251 0
-760 -111 -275 0
-760 -111 -222 0
-760 -111 -246 0
-760 -111 -270 0
-760 -111 -228 0
-760 -111 -252 0
-760 -111 -276 0
-760 -112 -226 0
-760 -112 -250 0
-760 -112 -274 0
-760 -112 -227 0
-760 -112 -251 0
-760 -112 -275 0
-760 -112 -228 0
-760 -112 -252 0
-760 -112 -276 0
-760 -113 0
-760 41 0
-760 -110 135 0
-760 -111 136 0
-760 -112 137 0
-760 -191 0
-761 189 0
-761 -21 -110 -119 0
-761 -21 -111 -120 0
-761 -21 -112 -121 0
-761 10 11 12 0
-761 -10 -110 1036 287 0
-761 -10 -111 1036 293 0
-761 -10 -112 1036 299 0
-761 -11 -110 1037 288 0
-761 -11 -111 1037 294 0
-761 -11 -112 1037 300 0
-761 -12 -110 1038 289 0
-761 -12 -111 1038 295 0
-761 -12 -112 1038 301 0
-761 -110 -215 0
-761 -110 -239 0
-761 -110 -263 0
-761 -110 -221 0
-761 -110 -245 0
-761 -110 -269 0
-761 -110 -227 0
-761 -110 -251 0
-761 -110 -275 0
-761 -110 -216 0
-761 -110 -240 0
-761 -110 -264 0
-761 -110 -222 0
-761 -110 -246 0
-761 -110 -270 0
-761 -110 -228 0
-761 -110 -252 0
-761 -110 -276 0
-761 -110 -217 0
-761 -110 -241 0
-761 -110 -265 0
-761 -110 -223 0
-761 -110 -247 0
-761 -110 -271 0
-761 -110 -229 0
-761 -110 -253 0
-761 -110 -277 0
-761 -111 -221 0
-761 -111 -245 0
-761 -111 -269 0
-761 -111 -227 0
-761 -111 -251 0
-761 -111 -275 0
-761 -111 -222 0
-761 -111 -246 0
-761 -111 -270 0
-761 -111 -228 0
-761 -111 -252 0
-761 -111 -276 0
-761 -111 -223 0
-761 -111 -247 0
-761 -111 -271 0
-761 -111 -229 0
-761 -111 -253 0
-761 -111 -277 0
-761 -112 -227 0
-761 -112 -251 0
-761 -112 -275 0
-761 -112 -228 0
-761 -112 -252 0
-761 -112 -276 0
-761 -112 -229 0
-761 -112 -253 0
-761 -112 -277 0
-761 -113 0
-761 42 0
-761 -110 135 0
-761 -111 136 0
-761 -112 137 0
-761 -191 0
-762 189 0
-762 -18 -114 -119 0
-762 -18 -115 -120 0
-762 -18 -116 -121 0
-762 13 14 15 0
-762 -13 -114 1039 284 0
-762 -13 -115 1039 290 0
-762 -13 -116 1039 296 0
-762 -13 -114 1040 285 0
-762 -13 -115 1040 291 0
-762 -13 -116 1040 297 0
-762 -14 -114 1040 285 0
-762 -14 -115 1040 291 0
-762 -14 -116 1040 297 0
-762 -14 -114 1041 286 0
-762 -14 -115 1041 292 0
-762 -14 -116 1041 298 0
-762 -15 -114 1041 286 0
-762 -15 -115 1041 292 0
-762 -15 -116 1041 298 0
-762 -114 -212 0
-762 -114 -236 0
-762 -114 -260 0
-762 -114 -218 0
-762 -114 -242 0
-762 -114 -266 0
-762 -114 -224 0
-762 -114 -248 0
-762 -114 -272 0
-762 -114 -213 0
-762 -114 -237 0
-762 -114 -261 0
-762 -114 -219 0
-762 -114 -243 0
-762 -114 -267 0
-762 -114 -225 0
-762 -114 -249 0
-762 -114 -273 0
-762 -114 -214 0
-762 -114 -238 0
-762 -114 -262 0
-762 -114 -220 0
-762 -114 -244 0
-762 -114 -268 0
-762 -114 -226 0
-762 -114 -250 0
-762 -114 -274 0
-762 -115 -218 0
-762 -115 -242 0
-762 -115 -266 0
-762 -115 -224 0
-762 -115 -248 0
-762 -115 -272 0
-762 -115 -219 0
-762 -115 -243 0
-762 -115 -267 0
-762 -115 -225 0
-762 -115 -249 0
-762 -115 -273 0
-762 -115 -220 0
-762 -115 -244 0
-762 -115 -268 0
-762 -115 -226 0
-762 -115 -250 0
-762 -115 -274 0
-762 -116 -224 0
-762 -116 -248 0
-762 -116 -272 0
-762 -116 -225 0
-762 -116 -249 0
-762 -116 -273 0
-762 -116 -226 0
-762 -116 -250 0
-762 -116 -274 0
-762 -117 0
-762 39 0
-762 -114 135 0
-762 -115 136 0
-762 -116 137 0
-762 -192 0
-763 189 0
-763 -19 -114 -119 0
-763 -19 -115 -120 0
-763 -19 -116 -121 0
-763 13 14 15 16 0
-763 -13 -114 1040 285 0
-763 -13 -115 1040 291 0
-763 -13 -116 1040 297 0
-763 -14 -114 1040 285 0
-763 -14 -115 1040 291 0
-763 -14 -116 1040 297 0
-763 -14 -114 1041 286 0
-763 -14 -115 1041 292 0
-763 -14 -116 1041 298 0
-763 -15 -114 1041 286 0
-763 -15 -115 1041 292 0
-763 -15 -116 1041 298 0
-763 -15 -114 1042 287 0
-763 -15 -115 1042 293 0
-763 -15 -116 1042 299 0
-763 -16 -114 1042 287 0
-763 -16 -115 1042 293 0
-763 -16 -116 1042 299 0
-763 -114 -213 0
-763 -114 -237 0
-763 -114 -261 0
-763 -114 -219 0
-763 -114 -243 0
-763 -114 -267 0
-763 -114 -225 0
-763 -114 -249 0
-763 -114 -273 0
-763 -114 -214 0
-763 -114 -238 0
-763 -114 -262 0
-763 -114 -220 0
-763 -114 -244 0
-763 -114 -268 0
-763 -114 -226 0
-763 -114 -250 0
-763 -114 -274 0
-763 -114 -215 0
-763 -114 -239 0
-763 -114 -263 0
-763 -114 -221 0
-763 -114 -245 0
-763 -114 -269 0
-763 -114 -227 0
-763 -114 -251 0
-763 -114 -275 0
-763 -115 -219 0
-763 -115 -243 0
-763 -115 -267 0
-763 -115 -225 0
-763 -115 -249 0
-763 -115 -273 0
-763 -115 -220 0
-763 -115 -244 0
-763 -115 -268 0
-763 -115 -226 0
-763 -115 -250 0
-763 -115 -274 0
-763 -115 -221 0
-763 -115 -245 0
-763 -115 -269 0
-763 -115 -227 0
-763 -115 -251 0
-763 -115 -275 0
-763 -116 -225 0
-763 -116 -249 0
-763 -116 -273 0
-763 -116 -226 0
-763 -116 -250 0
-763 -116 -274 0
-763 -116 -227 0
-763 -116 -251 0
-763 -116 -275 0
-763 -117 0
-763 40 0
-763 -114 135 0
-763 -115 136 0
-763 -116 137 0
-763 -192 0
-764 189 0
-764 -20 -114 -119 0
-764 -20 -115 -120 0
-764 -20 -116 -121 0
-764 14 15 16 17 0
-764 -14 -114 1041 286 0
-764 -14 -115 1041 292 0
-764 -14 -116 1041 298 0
-764 -15 -114 1041 286 0
-764 -15 -115 1041 292 0
-764 -15 -116 1041 298 0
-764 -15 -114 1042 287 0
-764 -15 -115 1042 293 0
-764 -15 -116 1042 299 0
-764 -16 -114 1042 287 0
-764 -16 -115 1042 293 0
-764 -16 -116 1042 299 0
-764 -16 -114 1043 288 0
-764 -16 -115 1043 294 0
-764 -16 -116 1043 300 0
-764 -17 -114 1043 288 0
-764 -17 -115 1043 294 0
-764 -17 -116 1043 300 0
-764 -114 -214 0
-764 -114 -238 0
-764 -114 -262 0
-764 -114 -220 0
-764 -114 -244 0
-764 -114 -268 0
-764 -114 -226 0
-764 -114 -250 0
-764 -114 -274 0
-764 -114 -215 0
-764 -114 -239 0
-764 -114 -263 0
-764 -114 -221 0
-764 -114 -245 0
-764 -114 -269 0
-764 -114 -227 0
-764 -114 -251 0
-764 -114 -275 0
-764 -114 -216 0
-764 -114 -240 0
-764 -114 -264 0
-764 -114 -222 0
-764 -114 -246 0
-764 -114 -270 0
-764 -114 -228 0
-764 -114 -252 0
-764 -114 -276 0
-764 -115 -220 0
-764 -115 -244 0
-764 -115 -268 0
-764 -115 -226 0
-764 -115 -250 0
-764 -115 -274 0
-764 -115 -221 0
-764 -115 -245 0
-764 -115 -269 0
-764 -115 -227 0
-764 -115 -251 0
-764 -115 -275 0
-764 -115 -222 0
-764 -115 -246 0
-764 -115 -270 0
-764 -115 -228 0
-764 -115 -252 0
-764 -115 -276 0
-764 -116 -226 0
-764 -116 -250 0
-764 -116 -274 0
-764 -116 -227 0
-764 -116 -251 0
-764 -116 -275 0
-764 -116 -228 0
-764 -116 -252 0
-764 -116 -276 0
-764 -117 0
-764 41 0
-764 -114 135 0
-764 -115 136 0
-764 -116 137 0
-764 -192 0
-765 189 0
-765 -21 -114 -119 0
-765 -21 -115 -120 0
-765 -21 -116 -121 0
-765 15 16 17 0
-765 -15 -114 1042 287 0
-765 -15 -115 1042 293 0
-765 -15 -116 1042 299 0
-765 -16 -114 1042 287 0
-765 -16 -115 1042 293 0
-765 -16 -116 1042 299 0
-765 -16 -114 1043 288 0
-765 -16 -115 1043 294 0
-765 -16 -116 1043 300 0
-765 -17 -114 1043 288 0
-765 -17 -115 1043 294 0
-765 -17 -116 1043 300 0
-765 -17 -114 1044 289 0
-765 -17 -115 1044 295 0
-765 -17 -116 1044 301 0
-765 -114 -215 0
-765 -114 -239 0
-765 -114 -263 0
-765 -114 -221 0
-765 -114 -245 0
-765 -114 -269 0
-765 -114 -227 0
-765 -114 -251 0
-765 -114 -275 0
-765 -114 -216 0
-765 -114 -240 0
-765 -114 -264 0
-765 -114 -222 0
-765 -114 -246 0
-765 -114 -270 0
-765 -114 -228 0
-765 -114 -252 0
-765 -114 -276 0
-765 -114 -217 0
-765 -114 -241 0
-765 -114 -265 0
-765 -114 -223 0
-765 -114 -247 0
-765 -114 -271 0
-765 -114 -229 0
-765 -114 -253 0
-765 -114 -277 0
-765 -115 -221 0
-765 -115 -245 0
-765 -115 -269 0
-765 -115 -227 0
-765 -115 -251 0
-765 -115 -275 0
-765 -115 -222 0
-765 -115 -246 0
-765 -115 -270 0
-765 -115 -228 0
-765 -115 -252 0
-765 -115 -276 0
-765 -115 -223 0
-765 -115 -247 0
-765 -115 -271 0
-765 -115 -229 0
-765 -115 -253 0
-765 -115 -277 0
-765 -116 -227 0
-765 -116 -251 0
-765 -116 -275 0
-765 -116 -228 0
-765 -116 -252 0
-765 -116 -276 0
-765 -116 -229 0
-765 -116 -253 0
-765 -116 -277 0
-765 -117 0
-765 42 0
-765 -114 135 0
-765 -115 136 0
-765 -116 137 0
-765 -192 0
-766 189 0
-766 -18 -118 0
-766 -206 0
-766 -230 0
-766 -254 0
-766 -212 0
-766 -236 0
-766 -260 0
-766 -218 0
-766 -242 0
-766 -266 0
-766 -224 0
-766 -248 0
-766 -272 0
-766 -207 0
-766 -231 0
-766 -255 0
-766 -213 0
-766 -237 0
-766 -261 0
-766 -219 0
-766 -243 0
-766 -267 0
-766 -225 0
-766 -249 0
-766 -273 0
-766 -208 0
-766 -232 0
-766 -256 0
-766 -214 0
-766 -238 0
-766 -262 0
-766 -220 0
-766 -244 0
-766 -268 0
-766 -226 0
-766 -250 0
-766 -274 0
-766 39 0
-766 134 0
-767 189 0
-767 -19 -118 0
-767 -207 0
-767 -231 0
-767 -255 0
-767 -213 0
-767 -237 0
-767 -261 0
-767 -219 0
-767 -243 0
-767 -267 0
-767 -225 0
-767 -249 0
-767 -273 0
-767 -208 0
-767 -232 0
-767 -256 0
-767 -214 0
-767 -238 0
-767 -262 0
-767 -220 0
-767 -244 0
-767 -268 0
-767 -226 0
-767 -250 0
-767 -274 0
-767 -209 0
-767 -233 0
-767 -257 0
-767 -215 0
-767 -239 0
-767 -263 0
-767 -221 0
-767 -245 0
-767 -269 0
-767 -227 0
-767 -251 0
-767 -275 0
-767 40 0
-767 134 0
-768 189 0
-768 -20 -118 0
-768 -208 0
-768 -232 0
-768 -256 0
-768 -214 0
-768 -238 0
-768 -262 0
-768 -220 0
-768 -244 0
-768 -268 0
-768 -226 0
-768 -250 0
-768 -274 0
-768 -209 0
-768 -233 0
-768 -257 0
-768 -215 0
-768 -239 0
-768 -263 0
-768 -221 0
-768 -245 0
-768 -269 0
-768 -227 0
-768 -251 0
-768 -275 0
-768 -210 0
-768 -234 0
-768 -258 0
-768 -216 0
-768 -240 0
-768 -264 0
-768 -222 0
-768 -246 0
-768 -270 0
-768 -228 0
-768 -252 0
-768 -276 0
-768 41 0
-768 134 0
-769 189 0
-769 -21 -118 0
-769 -209 0
-769 -233 0
-769 -257 0
-769 -215 0
-769 -239 0
-769 -263 0
-769 -221 0
-769 -245 0
-769 -269 0
-769 -227 0
-769 -251 0
-769 -275 0
-769 -210 0
-769 -234 0
-769 -258 0
-769 -216 0
-769 -240 0
-769 -264 0
-769 -222 0
-769 -246 0
-769 -270 0
-769 -228 0
-769 -252 0
-769 -276 0
-769 -211 0
-769 -235 0
-769 -259 0
-769 -217 0
-769 -241 0
-769 -265 0
-769 -223 0
-769 -247 0
-769 -271 0
-769 -229 0
-769 -253 0
-769 -277 0
-769 42 0
-769 134 0
1 -22 686 687 688 689 690 691 692 693 694 695 696 697 698 699 700 701 702 703 704 705 706 707 708 709 0
-1 22 686 687 688 689 690 691 692 693 694 695 696 697 698 699 700 701 702 703 704 705 706 707 708 709 0
2 -23 686 687 688 689 690 691 692 693 694 695 696 697 698 699 700 701 702 703 704 705 706 707 708 709 0
-2 23 686 687 688 689 690 691 692 693 694 695 696 697 698 699 700 701 702 703 704 705 706 707 708 709 0
3 -24 686 687 688 689 690 691 692 693 694 695 696 697 698 699 700 701 702 703 704 705 706 707 708 709 0
-3 24 686 687 688 689 690 691 692 693 694 695 696 697 698 699 700 701 702 703 704 705 706 707 708 709 0
4 -25 686 687 688 689 690 691 692 693 694 695 696 697 698 699 700 701 702 703 704 705 706 707 708 709 0
-4 25 686 687 688 689 690 691 692 693 694 695 696 697 698 699 700 701 702 703 704 705 706 707 708 709 0
5 -26 686 687 688 689 690 691 692 693 694 695 696 697 698 699 700 701 702 703 704 705 706 707 708 709 0
-5 26 686 687 688 689 690 691 692 693 694 695 696 697 698 699 700 701 702 703 704 705 706 707 708 709 0
6 -27 686 687 688 689 690 691 692 693 694 695 696 697 698 699 700 701 702 703 704 705 706 707 708 709 0
-6 27 686 687 688 689 690 691 692 693 694 695 696 697 698 699 700 701 702 703 704 705 706 707 708 709 0
106 -122 686 687 688 689 690 691 692 693 694 695 696 697 698 699 700 701 702 703 704 705 706 707 708 709 0
-106 122 686 687 688 689 690 691 692 693 694 695 696 697 698 699 700 701 702 703 704 705 706 707 708 709 0
107 -123 686 687 688 689 690 691 692 693 694 695 696 697 698 699 700 701 702 703 704 705 706 707 708 709 0
-107 123 686 687 688 689 690 691 692 693 694 695 696 697 698 699 700 701 702 703 704 705 706 707 708 709 0
108 -124 686 687 688 689 690 691 692 693 694 695 696 697 698 699 700 701 702 703 704 705 706 707 708 709 0
-108 124 686 687 688 689 690 691 692 693 694 695 696 697 698 699 700 701 702 703 704 705 706 707 708 709 0
109 -125 686 687 688 689 690 691 692 693 694 695 696 697 698 699 700 701 702 703 704 705 706 707 708 709 0
-109 125 686 687 688 689 690 691 692 693 694 695 696 697 698 699 700 701 702 703 704 705 706 707 708 709 0
7 -28 710 711 712 713 714 715 716 717 718 719 720 721 722 723 724 725 726 727 728 729 730 731 732 733 0
-7 28 710 711 712 713 714 715 716 717 718 719 720 721 722 723 724 725 726 727 728 729 730 731 732 733 0
8 -29 710 711 712 713 714 715 716 717 718 719 720 721 722 723 724 725 726 727 728 729 730 731 732 733 0
-8 29 710 711 712 713 714 715 716 717 718 719 720 721 722 723 724 725 726 727 728 729 730 731 732 733 0
9 -30 710 711 712 713 714 715 716 717 718 719 720 721 722 723 724 725 726 727 728 729 730 731 732 733 0
-9 30 710 711 712 713 714 715 716 717 718 719 720 721 722 723 724 725 726 727 728 729 730 731 732 733 0
10 -31 710 711 712 713 714 715 716 717 718 719 720 721 722 723 724 725 726 727 728 729 730 731 732 733 0
-10 31 710 711 712 713 714 715 716 717 718 719 720 721 722 723 724 725 726 727 728 729 730 731 732 733 0
11 -32 710 711 712 713 714 715 716 717 718 719 720 721 722 723 724 725 726 727 728 729 730 731 732 733 0
-11 32 710 711 712 713 714 715 716 717 718 719 720 721 722 723 724 725 726 727 728 729 730 731 732 733 0
12 -33 710 711 712 713 714 715 716 717 718 719 720 721 722 723 724 725 726 727 728 729 730 731 732 733 0
-12 33 710 711 712 713 714 715 716 717 718 719 720 721 722 723 724 725 726 727 728 729 730 731 732 733 0
110 -126 710 711 712 713 714 715 716 717 718 719 720 721 722 723 724 725 726 727 728 729 730 731 732 733 0
-110 126 710 711 712 713 714 715 716 717 718 719 720 721 722 723 724 725 726 727 728 729 730 731 732 733 0
111 -127 710 711 712 713 714 715 716 717 718 719 720 721 722 723 724 725 726 727 728 729 730 731 732 733 0
-111 127 710 711 712 713 714 715 716 717 718 719 720 721 722 723 724 725 726 727 728 729 730 731 732 733 0
112 -128 710 711 712 713 714 715 716 717 718 719 720 721 722 723 724 725 726 727 728 729 730 731 732 733 0
-112 128 710 711 712 713 714 715 716 717 718 719 720 721 722 723 724 725 726 727 728 729 730 731 732 733 0
113 -129 710 711 712 713 714 715 716 717 718 719 720 721 722 723 724 725 726 727 728 729 730 731 732 733 0
-113 129 710 711 712 713 714 715 716 717 718 719 720 721 722 723 724 725 726 727 728 729 730 731 732 733 0
13 -34 734 735 736 737 738 739 740 741 742 743 744 745 746 747 748 749 750 751 752 753 0
-13 34 734 735 736 737 738 739 740 741 742 743 744 745 746 747 748 749 750 751 752 753 0
14 -35 734 735 736 737 738 739 740 741 742 743 744 745 746 747 748 749 750 751 752 753 0
-14 35 734 735 736 737 738 739 740 741 742 743 744 745 746 747 748 749 750 751 752 753 0
15 -36 734 735 736 737 738 739 740 741 742 743 744 745 746 747 748 749 750 751 752 753 0
-15 36 734 735 736 737 738 739 740 741 742 743 744 745 746 747 748 749 750 751 752 753 0
16 -37 734 735 736 737 738 739 740 741 742 743 744 745 746 747 748 749 750 751 752 753 0
-16 37 734 735 736 737 738 739 740 741 742 743 744 745 746 747 748 749 750 751 752 753 0
17 -38 734 735 736 737 738 739 740 741 742 743 744 745 746 747 748 749 750 751 752 753 0
-17 38 734 735 736 737 738 739 740 741 742 743 744 745 746 747 748 749 750 751 752 753 0
114 -130 734 735 736 737 738 739 740 741 742 743 744 745 746 747 748 749 750 751 752 753 0
-114 130 734 735 736 737 738 739 740 741 742 743 744 745 746 747 748 749 750 751 752 753 0
115 -131 734 735 736 737 738 739 740 741 742 743 744 745 746 747 748 749 750 751 752 753 0
-115 131 734 735 736 737 738 739 740 741 742 743 744 745 746 747 748 749 750 751 752 753 0
116 -132 734 735 736 737 738 739 740 741 742 743 744 745 746 747 748 749 750 751 752 753 0
-116 132 734 735 736 737 738 739 740 741 742 743 744 745 746 747 748 749 750 751 752 753 0
117 -133 734 735 736 737 738 739 740 741 742 743 744 745 746 747 748 749 750 751 752 753 0
-117 133 734 735 736 737 738 739 740 741 742 743 744 745 746 747 748 749 750 751 752 753 0
18 -39 754 755 756 757 758 759 760 761 762 763 764 765 766 767 768 769 0
-18 39 754 755 756 757 758 759 760 761 762 763 764 765 766 767 768 769 0
19 -40 754 755 756 757 758 759 760 761 762 763 764 765 766 767 768 769 0
-19 40 754 755 756 757 758 759 760 761 762 763 764 765 766 767 768 769 0
20 -41 754 755 756 757 758 759 760 761 762 763 764 765 766 767 768 769 0
-20 41 754 755 756 757 758 759 760 761 762 763 764 765 766 767 768 769 0
21 -42 754 755 756 757 758 759 760 761 762 763 764 765 766 767 768 769 0
-21 42 754 755 756 757 758 759 760 761 762 763 764 765 766 767 768 769 0
118 -134 754 755 756 757 758 759 760 761 762 763 764 765 766 767 768 769 0
-118 134 754 755 756 757 758 759 760 761 762 763 764 765 766 767 768 769 0
119 -135 754 755 756 757 758 759 760 761 762 763 764 765 766 767 768 769 0
-119 135 754 755 756 757 758 759 760 761 762 763 764 765 766 767 768 769 0
120 -136 754 755 756 757 758 759 760 761 762 763 764 765 766 767 768 769 0
-120 136 754 755 756 757 758 759 760 761 762 763 764 765 766 767 768 769 0
121 -137 754 755 756 757 758 759 760 761 762 763 764 765 766 767 768 769 0
-121 137 754 755 756 757 758 759 760 761 762 763 764 765 766 767 768 769 0
686 687 688 689 690 691 692 693 694 695 696 697 698 699 700 701 702 703 704 705 706 707 708 709 710 711 712 713 714 715 716 717 718 719 720 721 722 723 724 725 726 727 728 729 730 731 732 733 734 735 736 737 738 739 740 741 742 743 744 745 746 747 748 749 750 751 752 753 754 755 756 757 758 759 760 761 762 763 764 765 766 767 768 769 0
-686 -687 0
-686 -688 0
-686 -689 0
-686 -690 0
-686 -691 0
-686 -692 0
-686 -693 0
-686 -694 0
-686 -695 0
-686 -696 0
-686 -697 0
-686 -698 0
-686 -699 0
-686 -700 0
-686 -701 0
-686 -702 0
-686 -703 0
-686 -704 0
-686 -705 0
-686 -706 0
-686 -707 0
-686 -708 0
-686 -709 0
-686 -710 0
-686 -711 0
-686 -712 0
-686 -713 0
-686 -714 0
-686 -715 0
-686 -716 0
-686 -717 0
-686 -718 0
-686 -719 0
-686 -720 0
-686 -721 0
-686 -722 0
-686 -723 0
-686 -724 0
-686 -725 0
-686 -726 0
-686 -727 0
-686 -728 0
-686 -729 0
-686 -730 0
-686 -731 0
-686 -732 0
-686 -733 0
-686 -734 0
-686 -735 0
-686 -736 0
-686 -737 0
-686 -738 0
-686 -739 0
-686 -740 0
-686 -741 0
-686 -742 0
-686 -743 0
-686 -744 0
-686 -745 0
-686 -746 0
-686 -747 0
-686 -748 0
-686 -749 0
-686 -750 0
-686 -751 0
-686 -752 0
-686 -753 0
-686 -754 0
-686 -755 0
-686 -756 0
-686 -757 0
-686 -758 0
-686 -759 0
-686 -760 0
-686 -761 0
-686 -762 0
-686 -763 0
-686 -764 0
-686 -765 0
-686 -766 0
-686 -767 0
-686 -768 0
-686 -769 0
-687 -688 0
-687 -689 0
-687 -690 0
-687 -691 0
-687 -692 0
-687 -693 0
-687 -694 0
-687 -695 0
-687 -696 0
-687 -697 0
-687 -698 0
-687 -699 0
-687 -700 0
-687 -701 0
-687 -702 0
-687 -703 0
-687 -704 0
-687 -705 0
-687 -706 0
-687 -707 0
-687 -708 0
-687 -709 0
-687 -710 0
-687 -711 0
-687 -712 0
-687 -713 0
-687 -714 0
-687 -715 0
-687 -716 0
-687 -717 0
-687 -718 0
-687 -719 0
-687 -720 0
-687 -721 0
-687 -722 0
-687 -723 0
-687 -724 0
-687 -725 0
-687 -726 0
-687 -727 0
-687 -728 0
-687 -729 0
-687 -730 0
-687 -731 0
-687 -732 0
-687 -733 0
-687 -734 0
-687 -735 0
-687 -736 0
-687 -737 0
-687 -738 0
-687 -739 0
-687 -740 0
-687 -741 0
-687 -742 0
-687 -743 0
-687 -744 0
-687 -745 0
-687 -746 0
-687 -747 0
-687 -748 0
-687 -749 0
-687 -750 0
-687 -751 0
-687 -752 0
-687 -753 0
-687 -754 0
-687 -755 0
-687 -756 0
-687 -757 0
-687 -758 0
-687 -759 0
-687 -760 0
-687 -761 0
-687 -762 0
-687 -763 0
-687 -764 0
-687 -765 0
-687 -766 0
-687 -767 0
-687 -768 0
-687 -769 0
-688 -689 0
-688 -690 0
-688 -691 0
-688 -692 0
-688 -693 0
-688 -694 0
-688 -695 0
-688 -696 0
-688 -697 0
-688 -698 0
-688 -699 0
-688 -700 0
-688 -701 0
-688 -702 0
-688 -703 0
-688 -704 0
-688 -705 0
-688 -706 0
-688 -707 0
-688 -708 0
-688 -709 0
-688 -710 0
-688 -711 0
-688 -712 0
-688 -713 0
-688 -714 0
-688 -715 0
-688 -716 0
-688 -717 0
-688 -718 0
-688 -719 0
-688 -720 0
-688 -721 0
-688 -722 0
-688 -723 0
-688 -724 0
-688 -725 0
-688 -726 0
-688 -727 0
-688 -728 0
-688 -729 0
-688 -730 0
-688 -731 0
-688 -732 0
-688 -733 0
-688 -734 0
-688 -735 0
-688 -736 0
-688 -737 0
-688 -738 0
-688 -739 0
-688 -740 0
-688 -741 0
-688 -742 0
-688 -743 0
-688 -744 0
-688 -745 0
-688 -746 0
-688 -747 0
-688 -748 0
-688 -749 0
-688 -750 0
-688 -751 0
-688 -752 0
-688 -753 0
-688 -754 0
-688 -755 0
-688 -756 0
-688 -757 0
-688 -758 0
-688 -759 0
-688 -760 0
-688 -761 0
-688 -762 0
-688 -763 0
-688 -764 0
-688 -765 0
-688 -766 0
-688 -767 0
-688 -768 0
-688 -769 0
-689 -690 0
-689 -691 0
-689 -692 0
-689 -693 0
-689 -694 0
-689 -695 0
-689 -696 0
-689 -697 0
-689 -698 0
-689 -699 0
-689 -700 0
-689 -701 0
-689 -702 0
-689 -703 0
-689 -704 0
-689 -705 0
-689 -706 0
-689 -707 0
-689 -708 0
-689 -709 0
-689 -710 0
-689 -711 0
-689 -712 0
-689 -713 0
-689 -714 0
-689 -715 0
-689 -716 0
-689 -717 0
-689 -718 0
-689 -719 0
-689 -720 0
-689 -721 0
-689 -722 0
-689 -723 0
-689 -724 0
-689 -725 0
-689 -726 0
-689 -727 0
-689 -728 0
-689 -729 0
-689 -730 0
-689 -731 0
-689 -732 0
-689 -733 0
-689 -734 0
-689 -735 0
-689 -736 0
-689 -737 0
-689 -738 0
-689 -739 0
-689 -740 0
-689 -741 0
-689 -742 0
-689 -743 0
-689 -744 0
-689 -745 0
-689 -746 0
-689 -747 0
-689 -748 0
-689 -749 0
-689 -750 0
-689 -751 0
-689 -752 0
-689 -753 0
-689 -754 0
-689 -755 0
-689 -756 0
-689 -757 0
-689 -758 0
-689 -759 0
-689 -760 0
-689 -761 0
-689 -762 0
-689 -763 0
-689 -764 0
-689 -765 0
-689 -766 0
-689 -767 0
-689 -768 0
-689 -769 0
-690 -691 0
-690 -692 0
-690 -693 0
-690 -694 0
-690 -695 0
-690 -696 0
-690 -697 0
-690 -698 0
-690 -699 0
-690 -700 0
-690 -701 0
-690 -702 0
-690 -703 0
-690 -704 0
-690 -705 0
-690 -706 0
-690 -707 0
-690 -708 0
-690 -709 0
-690 -710 0
-690 -711 0
-690 -712 0
-690 -713 0
-690 -714 0
-690 -715 0
-690 -716 0
-690 -717 0
-690 -718 0
-690 -719 0
-690 -720 0
-690 -721 0
-690 -722 0
-690 -723 0
-690 -724 0
-690 -725 0
-690 -726 0
-690 -727 0
-690 -728 0
-690 -729 0
-690 -730 0
-690 -731 0
-690 -732 0
-690 -733 0
-690 -734 0
-690 -735 0
-690 -736 0
-690 -737 0
-690 -738 0
-690 -739 0
-690 -740 0
-690 -741 0
-690 -742 0
-690 -743 0
-690 -744 0
-690 -745 0
-690 -746 0
-690 -747 0
-690 -748 0
-690 -749 0
-690 -750 0
-690 -751 0
-690 -752 0
-690 -753 0
-690 -754 0
-690 -755 0
-690 -756 0
-690 -757 0
-690 -758 0
-690 -759 0
-690 -760 0
-690 -761 0
-690 -762 0
-690 -763 0
-690 -764 0
-690 -765 0
-690 -766 0
-690 -767 0
-690 -768 0
-690 -769 0
-691 -692 0
-691 -693 0
-691 -694 0
-691 -695 0
-691 -696 0
-691 -697 0
-691 -698 0
-691 -699 0
-691 -700 0
-691 -701 0
-691 -702 0
-691 -703 0
-691 -704 0
-691 -705 0
-691 -706 0
-691 -707 0
-691 -708 0
-691 -709 0
-691 -710 0
-691 -711 0
-691 -712 0
-691 -713 0
-691 -714 0
-691 -715 0
-691 -716 0
-691 -717 0
-691 -718 0
-691 -719 0
-691 -720 0
-691 -721 0
-691 -722 0
-691 -723 0
-691 -724 0
-691 -725 0
-691 -726 0
-691 -727 0
-691 -728 0
-691 -729 0
-691 -730 0
-691 -731 0
-691 -732 0
-691 -733 0
-691 -734 0
-691 -735 0
-691 -736 0
-691 -737 0
-691 -738 0
-691 -739 0
-691 -740 0
-691 -741 0
-691 -742 0
-691 -743 0
-691 -744 0
-691 -745 0
-691 -746 0
-691 -747 0
-691 -748 0
-691 -749 0
-691 -750 0
-691 -751 0
-691 -752 0
-691 -753 0
-691 -754 0
-691 -755 0
-691 -756 0
-691 -757 0
-691 -758 0
-691 -759 0
-691 -760 0
-691 -761 0
-691 -762 0
-691 -763 0
-691 -764 0
-691 -765 0
-691 -766 0
-691 -767 0
-691 -768 0
-691 -769 0
-692 -693 0
-692 -694 0
-692 -695 0
-692 -696 0
-692 -697 0
-692 -698 0
-692 -699 0
-692 -700 0
-692 -701 0
-692 -702 0
-692 -703 0
-692 -704 0
-692 -705 0
-692 -706 0
-692 -707 0
-692 -708 0
-692 -709 0
-692 -710 0
-692 -711 0
-692 -712 0
-692 -713 0
-692 -714 0
-692 -715 0
-692 -716 0
-692 -717 0
-692 -718 0
-692 -719 0
-692 -720 0
-692 -721 0
-692 -722 0
-692 -723 0
-692 -724 0
-692 -725 0
-692 -726 0
-692 -727 0
-692 -728 0
-692 -729 0
-692 -730 0
-692 -731 0
-692 -732 0
-692 -733 0
-692 -734 0
-692 -735 0
-692 -736 0
-692 -737 0
-692 -738 0
-692 -739 0
-692 -740 0
-692 -741 0
-692 -742 0
-692 -743 0
-692 -744 0
-692 -745 0
-692 -746 0
-692 -747 0
-692 -748 0
-692 -749 0
-692 -750 0
-692 -751 0
-692 -752 0
-692 -753 0
-692 -754 0
-692 -755 0
-692 -756 0
-692 -757 0
-692 -758 0
-692 -759 0
-692 -760 0
-692 -761 0
-692 -762 0
-692 -763 0
-692 -764 0
-692 -765 0
-692 -766 0
-692 -767 0
-692 -768 0
-692 -769 0
-693 -694 0
-693 -695 0
-693 -696 0
-693 -697 0
-693 -698 0
-693 -699 0
-693 -700 0
-693 -701 0
-693 -702 0
-693 -703 0
-693 -704 0
-693 -705 0
-693 -706 0
-693 -707 0
-693 -708 0
-693 -709 0
-693 -710 0
-693 -711 0
-693 -712 0
-693 -713 0
-693 -714 0
-693 -715 0
-693 -716 0
-693 -717 0
-693 -718 0
-693 -719 0
-693 -720 0
-693 -721 0
-693 -722 0
-693 -723 0
-693 -724 0
-693 -725 0
-693 -726 0
-693 -727 0
-693 -728 0
-693 -729 0
-693 -730 0
-693 -731 0
-693 -732 0
-693 -733 0
-693 -734 0
-693 -735 0
-693 -736 0
-693 -737 0
-693 -738 0
-693 -739 0
-693 -740 0
-693 -741 0
-693 -742 0
-693 -743 0
-693 -744 0
-693 -745 0
-693 -746 0
-693 -747 0
-693 -748 0
-693 -749 0
-693 -750 0
-693 -751 0
-693 -752 0
-693 -753 0
-693 -754 0
-693 -755 0
-693 -756 0
-693 -757 0
-693 -758 0
-693 -759 0
-693 -760 0
-693 -761 0
-693 -762 0
-693 -763 0
-693 -764 0
-693 -765 0
-693 -766 0
-693 -767 0
-693 -768 0
-693 -769 0
-694 -695 0
-694 -696 0
-694 -697 0
-694 -698 0
-694 -699 0
-694 -700 0
-694 -701 0
-694 -702 0
-694 -703 0
-694 -704 0
-694 -705 0
-694 -706 0
-694 -707 0
-694 -708 0
-694 -709 0
-694 -710 0
-694 -711 0
-694 -712 0
-694 -713 0
-694 -714 0
-694 -715 0
-694 -716 0
-694 -717 0
-694 -718 0
-694 -719 0
-694 -720 0
-694 -721 0
-694 -722 0
-694 -723 0
-694 -724 0
-694 -725 0
-694 -726 0
-694 -727 0
-694 -728 0
-694 -729 0
-694 -730 0
-694 -731 0
-694 -732 0
-694 -733 0
-694 -734 0
-694 -735 0
-694 -736 0
-694 -737 0
-694 -738 0
-694 -739 0
-694 -740 0
-694 -741 0
-694 -742 0
-694 -743 0
-694 -744 0
-694 -745 0
-694 -746 0
-694 -747 0
-694 -748 0
-694 -749 0
-694 -750 0
-694 -751 0
-694 -752 0
-694 -753 0
-694 -754 0
-694 -755 0
-694 -756 0
-694 -757 0
-694 -758 0
-694 -759 0
-694 -760 0
-694 -761 0
-694 -762 0
-694 -763 0
-694 -764 0
-694 -765 0
-694 -766 0
-694 -767 0
-694 -768 0
-694 -769 0
-695 -696 0
-695 -697 0
-695 -698 0
-695 -699 0
-695 -700 0
-695 -701 0
-695 -702 0
-695 -703 0
-695 -704 0
-695 -705 0
-695 -706 0
-695 -707 0
-695 -708 0
-695 -709 0
-695 -710 0
-695 -711 0
-695 -712 0
-695 -713 0
-695 -714 0
-695 -715 0
-695 -716 0
-695 -717 0
-695 -718 0
-695 -719 0
-695 -720 0
-695 -721 0
-695 -722 0
-695 -723 0
-695 -724 0
-695 -725 0
-695 -726 0
-695 -727 0
-695 -728 0
-695 -729 0
-695 -730 0
-695 -731 0
-695 -732 0
-695 -733 0
-695 -734 0
-695 -735 0
-695 -736 0
-695 -737 0
-695 -738 0
-695 -739 0
-695 -740 0
-695 -741 0
-695 -742 0
-695 -743 0
-695 -744 0
-695 -745 0
-695 -746 0
-695 -747 0
-695 -748 0
-695 -749 0
-695 -750 0
-695 -751 0
-695 -752 0
-695 -753 0
-695 -754 0
-695 -755 0
-695 -756 0
-695 -757 0
-695 -758 0
-695 -759 0
-695 -760 0
-695 -761 0
-695 -762 0
-695 -763 0
-695 -764 0
-695 -765 0
-695 -766 0
-695 -767 0
-695 -768 0
-695 -769 0
-696 -697 0
-696 -698 0
-696 -699 0
-696 -700 0
-696 -701 0
-696 -702 0
-696 -703 0
-696 -704 0
-696 -705 0
-696 -706 0
-696 -707 0
-696 -708 0
-696 -709 0
-696 -710 0
-696 -711 0
-696 -712 0
-696 -713 0
-696 -714 0
-696 -715 0
-696 -716 0
-696 -717 0
-696 -718 0
-696 -719 0
-696 -720 0
-696 -721 0
-696 -722 0
-696 -723 0
-696 -724 0
-696 -725 0
-696 -726 0
-696 -727 0
-696 -728 0
-696 -729 0
-696 -730 0
-696 -731 0
-696 -732 0
-696 -733 0
-696 -734 0
-696 -735 0
-696 -736 0
-696 -737 0
-696 -738 0
-696 -739 0
-696 -740 0
-696 -741 0
-696 -742 0
-696 -743 0
-696 -744 0
-696 -745 0
-696 -746 0
-696 -747 0
-696 -748 0
-696 -749 0
-696 -750 0
-696 -751 0
-696 -752 0
-696 -753 0
-696 -754 0
-696 -755 0
-696 -756 0
-696 -757 0
-696 -758 0
-696 -759 0
-696 -760 0
-696 -761 0
-696 -762 0
-696 -763 0
-696 -764 0
-696 -765 0
-696 -766 0
-696 -767 0
-696 -768 0
-696 -769 0
-697 -698 0
-697 -699 0
-697 -700 0
-697 -701 0
-697 -702 0
-697 -703 0
-697 -704 0
-697 -705 0
-697 -706 0
-697 -707 0
-697 -708 0
-697 -709 0
-697 -710 0
-697 -711 0
-697 -712 0
-697 -713 0
-697 -714 0
-697 -715 0
-697 -716 0
-697 -717 0
-697 -718 0
-697 -719 0
-697 -720 0
-697 -721 0
-697 -722 0
-697 -723 0
-697 -724 0
-697 -725 0
-697 -726 0
-697 -727 0
-697 -728 0
-697 -729 0
-697 -730 0
-697 -731 0
-697 -732 0
-697 -733 0
-697 -734 0
-697 -735 0
-697 -736 0
-697 -737 0
-697 -738 0
-697 -739 0
-697 -740 0
-697 -741 0
-697 -742 0
-697 -743 0
-697 -744 0
-697 -745 0
-697 -746 0
-697 -747 0
-697 -748 0
-697 -749 0
-697 -750 0
-697 -751 0
-697 -752 0
-697 -753 0
-697 -754 0
-697 -755 0
-697 -756 0
-697 -757 0
-697 -758 0
-697 -759 0
-697 -760 0
-697 -761 0
-697 -762 0
-697 -763 0
-697 -764 0
-697 -765 0
-697 -766 0
-697 -767 0
-697 -768 0
-697 -769 0
-698 -699 0
-698 -700 0
-698 -701 0
-698 -702 0
-698 -703 0
-698 -704 0
-698 -705 0
-698 -706 0
-698 -707 0
-698 -708 0
-698 -709 0
-698 -710 0
-698 -711 0
-698 -712 0
-698 -713 0
-698 -714 0
-698 -715 0
-698 -716 0
-698 -717 0
-698 -718 0
-698 -719 0
-698 -720 0
-698 -721 0
-698 -722 0
-698 -723 0
-698 -724 0
-698 -725 0
-698 -726 0
-698 -727 0
-698 -728 0
-698 -729 0
-698 -730 0
-698 -731 0
-698 -732 0
-698 -733 0
-698 -734 0
-698 -735 0
-698 -736 0
-698 -737 0
-698 -738 0
-698 -739 0
-698 -740 0
-698 -741 0
-698 -742 0
-698 -743 0
-698 -744 0
-698 -745 0
-698 -746 0
-698 -747 0
-698 -748 0
-698 -749 0
-698 -750 0
-698 -751 0
-698 -752 0
-698 -753 0
-698 -754 0
-698 -755 0
-698 -756 0
-698 -757 0
-698 -758 0
-698 -759 0
-698 -760 0
-698 -761 0
-698 -762 0
-698 -763 0
-698 -764 0
-698 -765 0
-698 -766 0
-698 -767 0
-698 -768 0
-698 -769 0
-699 -700 0
-699 -701 0
-699 -702 0
-699 -703 0
-699 -704 0
-699 -705 0
-699 -706 0
-699 -707 0
-699 -708 0
-699 -709 0
-699 -710 0
-699 -711 0
-699 -712 0
-699 -713 0
-699 -714 0
-699 -715 0
-699 -716 0
-699 -717 0
-699 -718 0
-699 -719 0
-699 -720 0
-699 -721 0
-699 -722 0
-699 -723 0
-699 -724 0
-699 -725 0
-699 -726 0
-699 -727 0
-699 -728 0
-699 -729 0
-699 -730 0
-699 -731 0
-699 -732 0
-699 -733 0
-699 -734 0
-699 -735 0
-699 -736 0
-699 -737 0
-699 -738 0
-699 -739 0
-699 -740 0
-699 -741 0
-699 -742 0
-699 -743 0
-699 -744 0
-699 -745 0
-699 -746 0
-699 -747 0
-699 -748 0
-699 -749 0
-699 -750 0
-699 -751 0
-699 -752 0
-699 -753 0
-699 -754 0
-699 -755 0
-699 -756 0
-699 -757 0
-699 -758 0
-699 -759 0
-699 -760 0
-699 -761 0
-699 -762 0
-699 -763 0
-699 -764 0
-699 -765 0
-699 -766 0
-699 -767 0
-699 -768 0
-699 -769 0
-700 -701 0
-700 -702 0
-700 -703 0
-700 -704 0
-700 -705 0
-700 -706 0
-700 -707 0
-700 -708 0
-700 -709 0
-700 -710 0
-700 -711 0
-700 -712 0
-700 -713 0
-700 -714 0
-700 -715 0
-700 -716 0
-700 -717 0
-700 -718 0
-700 -719 0
-700 -720 0
-700 -721 0
-700 -722 0
-700 -723 0
-700 -724 0
-700 -725 0
-700 -726 0
-700 -727 0
-700 -728 0
-700 -729 0
-700 -730 0
-700 -731 0
-700 -732 0
-700 -733 0
-700 -734 0
-700 -735 0
-700 -736 0
-700 -737 0
-700 -738 0
-700 -739 0
-700 -740 0
-700 -741 0
-700 -742 0
-700 -743 0
-700 -744 0
-700 -745 0
-700 -746 0
-700 -747 0
-700 -748 0
-700 -749 0
-700 -750 0
-700 -751 0
-700 -752 0
-700 -753 0
-700 -754 0
-700 -755 0
-700 -756 0
-700 -757 0
-700 -758 0
-700 -759 0
-700 -760 0
-700 -761 0
-700 -762 0
-700 -763 0
-700 -764 0
-700 -765 0
-700 -766 0
-700 -767 0
-700 -768 0
-700 -769 0
-701 -702 0
-701 -703 0
-701 -704 0
-701 -705 0
-701 -706 0
-701 -707 0
-701 -708 0
-701 -709 0
-701 -710 0
-701 -711 0
-701 -712 0
-701 -713 0
-701 -714 0
-701 -715 0
-701 -716 0
-701 -717 0
-701 -718 0
-701 -719 0
-701 -720 0
-701 -721 0
-701 -722 0
-701 -723 0
-701 -724 0
-701 -725 0
-701 -726 0
-701 -727 0
-701 -728 0
-701 -729 0
-701 -730 0
-701 -731 0
-701 -732 0
-701 -733 0
-701 -734 0
-701 -735 0
-701 -736 0
-701 -737 0
-701 -738 0
-701 -739 0
-701 -740 0
-701 -741 0
-701 -742 0
-701 -743 0
-701 -744 0
-701 -745 0
-701 -746 0
-701 -747 0
-701 -748 0
-701 -749 0
-701 -750 0
-701 -751 0
-701 -752 0
-701 -753 0
-701 -754 0
-701 -755 0
-701 -756 0
-701 -757 0
-701 -758 0
-701 -759 0
-701 -760 0
-701 -761 0
-701 -762 0
-701 -763 0
-701 -764 0
-701 -765 0
-701 -766 0
-701 -767 0
-701 -768 0
-701 -769 0
-702 -703 0
-702 -704 0
-702 -705 0
-702 -706 0
-702 -707 0
-702 -708 0
-702 -709 0
-702 -710 0
-702 -711 0
-702 -712 0
-702 -713 0
-702 -714 0
-702 -715 0
-702 -716 0
-702 -717 0
-702 -718 0
-702 -719 0
-702 -720 0
-702 -721 0
-702 -722 0
-702 -723 0
-702 -724 0
-702 -725 0
-702 -726 0
-702 -727 0
-702 -728 0
-702 -729 0
-702 -730 0
-702 -731 0
-702 -732 0
-702 -733 0
-702 -734 0
-702 -735 0
-702 -736 0
-702 -737 0
-702 -738 0
-702 -739 0
-702 -740 0
-702 -741 0
-702 -742 0
-702 -743 0
-702 -744 0
-702 -745 0
-702 -746 0
-702 -747 0
-702 -748 0
-702 -749 0
-702 -750 0
-702 -751 0
-702 -752 0
-702 -753 0
-702 -754 0
-702 -755 0
-702 -756 0
-702 -757 0
-702 -758 0
-702 -759 0
-702 -760 0
-702 -761 0
-702 -762 0
-702 -763 0
-702 -764 0
-702 -765 0
-702 -766 0
-702 -767 0
-702 -768 0
-702 -769 0
-703 -704 0
-703 -705 0
-703 -706 0
-703 -707 0
-703 -708 0
-703 -709 0
-703 -710 0
-703 -711 0
-703 -712 0
-703 -713 0
-703 -714 0
-703 -715 0
-703 -716 0
-703 -717 0
-703 -718 0
-703 -719 0
-703 -720 0
-703 -721 0
-703 -722 0
-703 -723 0
-703 -724 0
-703 -725 0
-703 -726 0
-703 -727 0
-703 -728 0
-703 -729 0
-703 -730 0
-703 -731 0
-703 -732 0
-703 -733 0
-703 -734 0
-703 -735 0
-703 -736 0
-703 -737 0
-703 -738 0
-703 -739 0
-703 -740 0
-703 -741 0
-703 -742 0
-703 -743 0
-703 -744 0
-703 -745 0
-703 -746 0
-703 -747 0
-703 -748 0
-703 -749 0
-703 -750 0
-703 -751 0
-703 -752 0
-703 -753 0
-703 -754 0
-703 -755 0
-703 -756 0
-703 -757 0
-703 -758 0
-703 -759 0
-703 -760 0
-703 -761 0
-703 -762 0
-703 -763 0
-703 -764 0
-703 -765 0
-703 -766 0
-703 -767 0
-703 -768 0
-703 -769 0
-704 -705 0
-704 -706 0
-704 -707 0
-704 -708 0
-704 -709 0
-704 -710 0
-704 -711 0
-704 -712 0
-704 -713 0
-704 -714 0
-704 -715 0
-704 -716 0
-704 -717 0
-704 -718 0
-704 -719 0
-704 -720 0
-704 -721 0
-704 -722 0
-704 -723 0
-704 -724 0
-704 -725 0
-704 -726 0
-704 -727 0
-704 -728 0
-704 -729 0
-704 -730 0
-704 -731 0
-704 -732 0
-704 -733 0
-704 -734 0
-704 -735 0
-704 -736 0
-704 -737 0
-704 -738 0
-704 -739 0
-704 -740 0
-704 -741 0
-704 -742 0
-704 -743 0
-704 -744 0
-704 -745 0
-704 -746 0
-704 -747 0
-704 -748 0
-704 -749 0
-704 -750 0
-704 -751 0
-704 -752 0
-704 -753 0
-704 -754 0
-704 -755 0
-704 -756 0
-704 -757 0
-704 -758 0
-704 -759 0
-704 -760 0
-704 -761 0
-704 -762 0
-704 -763 0
-704 -764 0
-704 -765 0
-704 -766 0
-704 -767 0
-704 -768 0
-704 -769 0
-705 -706 0
-705 -707 0
-705 -708 0
-705 -709 0
-705 -710 0
-705 -711 0
-705 -712 0
-705 -713 0
-705 -714 0
-705 -715 0
-705 -716 0
-705 -717 0
-705 -718 0
-705 -719 0
-705 -720 0
-705 -721 0
-705 -722 0
-705 -723 0
-705 -724 0
-705 -725 0
-705 -726 0
-705 -727 0
-705 -728 0
-705 -729 0
-705 -730 0
-705 -731 0
-705 -732 0
-705 -733 0
-705 -734 0
-705 -735 0
-705 -736 0
-705 -737 0
-705 -738 0
-705 -739 0
-705 -740 0
-705 -741 0
-705 -742 0
-705 -743 0
-705 -744 0
-705 -745 0
-705 -746 0
-705 -747 0
-705 -748 0
-705 -749 0
-705 -750 0
-705 -751 0
-705 -752 0
-705 -753 0
-705 -754 0
-705 -755 0
-705 -756 0
-705 -757 0
-705 -758 0
-705 -759 0
-705 -760 0
-705 -761 0
-705 -762 0
-705 -763 0
-705 -764 0
-705 -765 0
-705 -766 0
-705 -767 0
-705 -768 0
-705 -769 0
-706 -707 0
-706 -708 0
-706 -709 0
-706 -710 0
-706 -711 0
-706 -712 0
-706 -713 0
-706 -714 0
-706 -715 0
-706 -716 0
-706 -717 0
-706 -718 0
-706 -719 0
-706 -720 0
-706 -721 0
-706 -722 0
-706 -723 0
-706 -724 0
-706 -725 0
-706 -726 0
-706 -727 0
-706 -728 0
-706 -729 0
-706 -730 0
-706 -731 0
-706 -732 0
-706 -733 0
-706 -734 0
-706 -735 0
-706 -736 0
-706 -737 0
-706 -738 0
-706 -739 0
-706 -740 0
-706 -741 0
-706 -742 0
-706 -743 0
-706 -744 0
-706 -745 0
-706 -746 0
-706 -747 0
-706 -748 0
-706 -749 0
-706 -750 0
-706 -751 0
-706 -752 0
-706 -753 0
-706 -754 0
-706 -755 0
-706 -756 0
-706 -757 0
-706 -758 0
-706 -759 0
-706 -760 0
-706 -761 0
-706 -762 0
-706 -763 0
-706 -764 0
-706 -765 0
-706 -766 0
-706 -767 0
-706 -768 0
-706 -769 0
-707 -708 0
-707 -709 0
-707 -710 0
-707 -711 0
-707 -712 0
-707 -713 0
-707 -714 0
-707 -715 0
-707 -716 0
-707 -717 0
-707 -718 0
-707 -719 0
-707 -720 0
-707 -721 0
-707 -722 0
-707 -723 0
-707 -724 0
-707 -725 0
-707 -726 0
-707 -727 0
-707 -728 0
-707 -729 0
-707 -730 0
-707 -731 0
-707 -732 0
-707 -733 0
-707 -734 0
-707 -735 0
-707 -736 0
-707 -737 0
-707 -738 0
-707 -739 0
-707 -740 0
-707 -741 0
-707 -742 0
-707 -743 0
-707 -744 0
-707 -745 0
-707 -746 0
-707 -747 0
-707 -748 0
-707 -749 0
-707 -750 0
-707 -751 0
-707 -752 0
-707 -753 0
-707 -754 0
-707 -755 0
-707 -756 0
-707 -757 0
-707 -758 0
-707 -759 0
-707 -760 0
-707 -761 0
-707 -762 0
-707 -763 0
-707 -764 0
-707 -765 0
-707 -766 0
-707 -767 0
-707 -768 0
-707 -769 0
-708 -709 0
-708 -710 0
-708 -711 0
-708 -712 0
-708 -713 0
-708 -714 0
-708 -715 0
-708 -716 0
-708 -717 0
-708 -718 0
-708 -719 0
-708 -720 0
-708 -721 0
-708 -722 0
-708 -723 0
-708 -724 0
-708 -725 0
-708 -726 0
-708 -727 0
-708 -728 0
-708 -729 0
-708 -730 0
-708 -731 0
-708 -732 0
-708 -733 0
-708 -734 0
-708 -735 0
-708 -736 0
-708 -737 0
-708 -738 0
-708 -739 0
-708 -740 0
-708 -741 0
-708 -742 0
-708 -743 0
-708 -744 0
-708 -745 0
-708 -746 0
-708 -747 0
-708 -748 0
-708 -749 0
-708 -750 0
-708 -751 0
-708 -752 0
-708 -753 0
-708 -754 0
-708 -755 0
-708 -756 0
-708 -757 0
-708 -758 0
-708 -759 0
-708 -760 0
-708 -761 0
-708 -762 0
-708 -763 0
-708 -764 0
-708 -765 0
-708 -766 0
-708 -767 0
-708 -768 0
-708 -769 0
-709 -710 0
-709 -711 0
-709 -712 0
-709 -713 0
-709 -714 0
-709 -715 0
-709 -716 0
-709 -717 0
-709 -718 0
-709 -719 0
-709 -720 0
-709 -721 0
-709 -722 0
-709 -723 0
-709 -724 0
-709 -725 0
-709 -726 0
-709 -727 0
-709 -728 0
-709 -729 0
-709 -730 0
-709 -731 0
-709 -732 0
-709 -733 0
-709 -734 0
-709 -735 0
-709 -736 0
-709 -737 0
-709 -738 0
-709 -739 0
-709 -740 0
-709 -741 0
-709 -742 0
-709 -743 0
-709 -744 0
-709 -745 0
-709 -746 0
-709 -747 0
-709 -748 0
-709 -749 0
-709 -750 0
-709 -751 0
-709 -752 0
-709 -753 0
-709 -754 0
-709 -755 0
-709 -756 0
-709 -757 0
-709 -758 0
-709 -759 0
-709 -760 0
-709 -761 0
-709 -762 0
-709 -763 0
-709 -764 0
-709 -765 0
-709 -766 0
-709 -767 0
-709 -768 0
-709 -769 0
-710 -711 0
-710 -712 0
-710 -713 0
-710 -714 0
-710 -715 0
-710 -716 0
-710 -717 0
-710 -718 0
-710 -719 0
-710 -720 0
-710 -721 0
-710 -722 0
-710 -723 0
-710 -724 0
-710 -725 0
-710 -726 0
-710 -727 0
-710 -728 0
-710 -729 0
-710 -730 0
-710 -731 0
-710 -732 0
-710 -733 0
-710 -734 0
-710 -735 0
-710 -736 0
-710 -737 0
-710 -738 0
-710 -739 0
-710 -740 0
-710 -741 0
-710 -742 0
-710 -743 0
-710 -744 0
-710 -745 0
-710 -746 0
-710 -747 0
-710 -748 0
-710 -749 0
-710 -750 0
-710 -751 0
-710 -752 0
-710 -753 0
-710 -754 0
-710 -755 0
-710 -756 0
-710 -757 0
-710 -758 0
-710 -759 0
-710 -760 0
-710 -761 0
-710 -762 0
-710 -763 0
-710 -764 0
-710 -765 0
-710 -766 0
-710 -767 0
-710 -768 0
-710 -769 0
-711 -712 0
-711 -713 0
-711 -714 0
-711 -715 0
-711 -716 0
-711 -717 0
-711 -718 0
-711 -719 0
-711 -720 0
-711 -721 0
-711 -722 0
-711 -723 0
-711 -724 0
-711 -725 0
-711 -726 0
-711 -727 0
-711 -728 0
-711 -729 0
-711 -730 0
-711 -731 0
-711 -732 0
-711 -733 0
-711 -734 0
-711 -735 0
-711 -736 0
-711 -737 0
-711 -738 0
-711 -739 0
-711 -740 0
-711 -741 0
-711 -742 0
-711 -743 0
-711 -744 0
-711 -745 0
-711 -746 0
-711 -747 0
-711 -748 0
-711 -749 0
-711 -750 0
-711 -751 0
-711 -752 0
-711 -753 0
-711 -754 0
-711 -755 0
-711 -756 0
-711 -757 0
-711 -758 0
-711 -759 0
-711 -760 0
-711 -761 0
-711 -762 0
-711 -763 0
-711 -764 0
-711 -765 0
-711 -766 0
-711 -767 0
-711 -768 0
-711 -769 0
-712 -713 0
-712 -714 0
-712 -715 0
-712 -716 0
-712 -717 0
-712 -718 0
-712 -719 0
-712 -720 0
-712 -721 0
-712 -722 0
-712 -723 0
-712 -724 0
-712 -725 0
-712 -726 0
-712 -727 0
-712 -728 0
-712 -729 0
-712 -730 0
-712 -731 0
-712 -732 0
-712 -733 0
-712 -734 0
-712 -735 0
-712 -736 0
-712 -737 0
-712 -738 0
-712 -739 0
-712 -740 0
-712 -741 0
-712 -742 0
-712 -743 0
-712 -744 0
-712 -745 0
-712 -746 0
-712 -747 0
-712 -748 0
-712 -749 0
-712 -750 0
-712 -751 0
-712 -752 0
-712 -753 0
-712 -754 0
-712 -755 0
-712 -756 0
-712 -757 0
-712 -758 0
-712 -759 0
-712 -760 0
-712 -761 0
-712 -762 0
-712 -763 0
-712 -764 0
-712 -765 0
-712 -766 0
-712 -767 0
-712 -768 0
-712 -769 0
-713 -714 0
-713 -715 0
-713 -716 0
-713 -717 0
-713 -718 0
-713 -719 0
-713 -720 0
-713 -721 0
-713 -722 0
-713 -723 0
-713 -724 0
-713 -725 0
-713 -726 0
-713 -727 0
-713 -728 0
-713 -729 0
-713 -730 0
-713 -731 0
-713 -732 0
-713 -733 0
-713 -734 0
-713 -735 0
-713 -736 0
-713 -737 0
-713 -738 0
-713 -739 0
-713 -740 0
-713 -741 0
-713 -742 0
-713 -743 0
-713 -744 0
-713 -745 0
-713 -746 0
-713 -747 0
-713 -748 0
-713 -749 0
-713 -750 0
-713 -751 0
-713 -752 0
-713 -753 0
-713 -754 0
-713 -755 0
-713 -756 0
-713 -757 0
-713 -758 0
-713 -759 0
-713 -760 0
-713 -761 0
-713 -762 0
-713 -763 0
-713 -764 0
-713 -765 0
-713 -766 0
-713 -767 0
-713 -768 0
-713 -769 0
-714 -715 0
-714 -716 0
-714 -717 0
-714 -718 0
-714 -719 0
-714 -720 0
-714 -721 0
-714 -722 0
-714 -723 0
-714 -724 0
-714 -725 0
-714 -726 0
-714 -727 0
-714 -728 0
-714 -729 0
-714 -730 0
-714 -731 0
-714 -732 0
-714 -733 0
-714 -734 0
-714 -735 0
-714 -736 0
-714 -737 0
-714 -738 0
-714 -739 0
-714 -740 0
-714 -741 0
-714 -742 0
-714 -743 0
-714 -744 0
-714 -745 0
-714 -746 0
-714 -747 0
-714 -748 0
-714 -749 0
-714 -750 0
-714 -751 0
-714 -752 0
-714 -753 0
-714 -754 0
-714 -755 0
-714 -756 0
-714 -757 0
-714 -758 0
-714 -759 0
-714 -760 0
-714 -761 0
-714 -762 0
-714 -763 0
-714 -764 0
-714 -765 0
-714 -766 0
-714 -767 0
-714 -768 0
-714 -769 0
-715 -716 0
-715 -717 0
-715 -718 0
-715 -719 0
-715 -720 0
-715 -721 0
-715 -722 0
-715 -723 0
-715 -724 0
-715 -725 0
-715 -726 0
-715 -727 0
-715 -728 0
-715 -729 0
-715 -730 0
-715 -731 0
-715 -732 0
-715 -733 0
-715 -734 0
-715 -735 0
-715 -736 0
-715 -737 0
-715 -738 0
-715 -739 0
-715 -740 0
-715 -741 0
-715 -742 0
-715 -743 0
-715 -744 0
-715 -745 0
-715 -746 0
-715 -747 0
-715 -748 0
-715 -749 0
-715 -750 0
-715 -751 0
-715 -752 0
-715 -753 0
-715 -754 0
-715 -755 0
-715 -756 0
-715 -757 0
-715 -758 0
-715 -759 0
-715 -760 0
-715 -761 0
-715 -762 0
-715 -763 0
-715 -764 0
-715 -765 0
-715 -766 0
-715 -767 0
-715 -768 0
-715 -769 0
-716 -717 0
-716 -718 0
-716 -719 0
-716 -720 0
-716 -721 0
-716 -722 0
-716 -723 0
-716 -724 0
-716 -725 0
-716 -726 0
-716 -727 0
-716 -728 0
-716 -729 0
-716 -730 0
-716 -731 0
-716 -732 0
-716 -733 0
-716 -734 0
-716 -735 0
-716 -736 0
-716 -737 0
-716 -738 0
-716 -739 0
-716 -740 0
-716 -741 0
-716 -742 0
-716 -743 0
-716 -744 0
-716 -745 0
-716 -746 0
-716 -747 0
-716 -748 0
-716 -749 0
-716 -750 0
-716 -751 0
-716 -752 0
-716 -753 0
-716 -754 0
-716 -755 0
-716 -756 0
-716 -757 0
-716 -758 0
-716 -759 0
-716 -760 0
-716 -761 0
-716 -762 0
-716 -763 0
-716 -764 0
-716 -765 0
-716 -766 0
-716 -767 0
-716 -768 0
-716 -769 0
-717 -718 0
-717 -719 0
-717 -720 0
-717 -721 0
-717 -722 0
-717 -723 0
-717 -724 0
-717 -725 0
-717 -726 0
-717 -727 0
-717 -728 0
-717 -729 0
-717 -730 0
-717 -731 0
-717 -732 0
-717 -733 0
-717 -734 0
-717 -735 0
-717 -736 0
-717 -737 0
-717 -738 0
-717 -739 0
-717 -740 0
-717 -741 0
-717 -742 0
-717 -743 0
-717 -744 0
-717 -745 0
-717 -746 0
-717 -747 0
-717 -748 0
-717 -749 0
-717 -750 0
-717 -751 0
-717 -752 0
-717 -753 0
-717 -754 0
-717 -755 0
-717 -756 0
-717 -757 0
-717 -758 0
-717 -759 0
-717 -760 0
-717 -761 0
-717 -762 0
-717 -763 0
-717 -764 0
-717 -765 0
-717 -766 0
-717 -767 0
-717 -768 0
-717 -769 0
-718 -719 0
-718 -720 0
-718 -721 0
-718 -722 0
-718 -723 0
-718 -724 0
-718 -725 0
-718 -726 0
-718 -727 0
-718 -728 0
-718 -729 0
-718 -730 0
-718 -731 0
-718 -732 0
-718 -733 0
-718 -734 0
-718 -735 0
-718 -736 0
-718 -737 0
-718 -738 0
-718 -739 0
-718 -740 0
-718 -741 0
-718 -742 0
-718 -743 0
-718 -744 0
-718 -745 0
-718 -746 0
-718 -747 0
-718 -748 0
-718 -749 0
-718 -750 0
-718 -751 0
-718 -752 0
-718 -753 0
-718 -754 0
-718 -755 0
-718 -756 0
-718 -757 0
-718 -758 0
-718 -759 0
-718 -760 0
-718 -761 0
-718 -762 0
-718 -763 0
-718 -764 0
-718 -765 0
-718 -766 0
-718 -767 0
-718 -768 0
-718 -769 0
-719 -720 0
-719 -721 0
-719 -722 0
-719 -723 0
-719 -724 0
-719 -725 0
-719 -726 0
-719 -727 0
-719 -728 0
-719 -729 0
-719 -730 0
-719 -731 0
-719 -732 0
-719 -733 0
-719 -734 0
-719 -735 0
-719 -736 0
-719 -737 0
-719 -738 0
-719 -739 0
-719 -740 0
-719 -741 0
-719 -742 0
-719 -743 0
-719 -744 0
-719 -745 0
-719 -746 0
-719 -747 0
-719 -748 0
-719 -749 0
-719 -750 0
-719 -751 0
-719 -752 0
-719 -753 0
-719 -754 0
-719 -755 0
-719 -756 0
-719 -757 0
-719 -758 0
-719 -759 0
-719 -760 0
-719 -761 0
-719 -762 0
-719 -763 0
-719 -764 0
-719 -765 0
-719 -766 0
-719 -767 0
-719 -768 0
-719 -769 0
-720 -721 0
-720 -722 0
-720 -723 0
-720 -724 0
-720 -725 0
-720 -726 0
-720 -727 0
-720 -728 0
-720 -729 0
-720 -730 0
-720 -731 0
-720 -732 0
-720 -733 0
-720 -734 0
-720 -735 0
-720 -736 0
-720 -737 0
-720 -738 0
-720 -739 0
-720 -740 0
-720 -741 0
-720 -742 0
-720 -743 0
-720 -744 0
-720 -745 0
-720 -746 0
-720 -747 0
-720 -748 0
-720 -749 0
-720 -750 0
-720 -751 0
-720 -752 0
-720 -753 0
-720 -754 0
-720 -755 0
-720 -756 0
-720 -757 0
-720 -758 0
-720 -759 0
-720 -760 0
-720 -761 0
-720 -762 0
-720 -763 0
-720 -764 0
-720 -765 0
-720 -766 0
-720 -767 0
-720 -768 0
-720 -769 0
-721 -722 0
-721 -723 0
-721 -724 0
-721 -725 0
-721 -726 0
-721 -727 0
-721 -728 0
-721 -729 0
-721 -730 0
-721 -731 0
-721 -732 0
-721 -733 0
-721 -734 0
-721 -735 0
-721 -736 0
-721 -737 0
-721 -738 0
-721 -739 0
-721 -740 0
-721 -741 0
-721 -742 0
-721 -743 0
-721 -744 0
-721 -745 0
-721 -746 0
-721 -747 0
-721 -748 0
-721 -749 0
-721 -750 0
-721 -751 0
-721 -752 0
-721 -753 0
-721 -754 0
-721 -755 0
-721 -756 0
-721 -757 0
-721 -758 0
-721 -759 0
-721 -760 0
-721 -761 0
-721 -762 0
-721 -763 0
-721 -764 0
-721 -765 0
-721 -766 0
-721 -767 0
-721 -768 0
-721 -769 0
-722 -723 0
-722 -724 0
-722 -725 0
-722 -726 0
-722 -727 0
-722 -728 0
-722 -729 0
-722 -730 0
-722 -731 0
-722 -732 0
-722 -733 0
-722 -734 0
-722 -735 0
-722 -736 0
-722 -737 0
-722 -738 0
-722 -739 0
-722 -740 0
-722 -741 0
-722 -742 0
-722 -743 0
-722 -744 0
-722 -745 0
-722 -746 0
-722 -747 0
-722 -748 0
-722 -749 0
-722 -750 0
-722 -751 0
-722 -752 0
-722 -753 0
-722 -754 0
-722 -755 0
-722 -756 0
-722 -757 0
-722 -758 0
-722 -759 0
-722 -760 0
-722 -761 0
-722 -762 0
-722 -763 0
-722 -764 0
-722 -765 0
-722 -766 0
-722 -767 0
-722 -768 0
-722 -769 0
-723 -724 0
-723 -725 0
-723 -726 0
-723 -727 0
-723 -728 0
-723 -729 0
-723 -730 0
-723 -731 0
-723 -732 0
-723 -733 0
-723 -734 0
-723 -735 0
-723 -736 0
-723 -737 0
-723 -738 0
-723 -739 0
-723 -740 0
-723 -741 0
-723 -742 0
-723 -743 0
-723 -744 0
-723 -745 0
-723 -746 0
-723 -747 0
-723 -748 0
-723 -749 0
-723 -750 0
-723 -751 0
-723 -752 0
-723 -753 0
-723 -754 0
-723 -755 0
-723 -756 0
-723 -757 0
-723 -758 0
-723 -759 0
-723 -760 0
-723 -761 0
-723 -762 0
-723 -763 0
-723 -764 0
-723 -765 0
-723 -766 0
-723 -767 0
-723 -768 0
-723 -769 0
-724 -725 0
-724 -726 0
-724 -727 0
-724 -728 0
-724 -729 0
-724 -730 0
-724 -731 0
-724 -732 0
-724 -733 0
-724 -734 0
-724 -735 0
-724 -736 0
-724 -737 0
-724 -738 0
-724 -739 0
-724 -740 0
-724 -741 0
-724 -742 0
-724 -743 0
-724 -744 0
-724 -745 0
-724 -746 0
-724 -747 0
-724 -748 0
-724 -749 0
-724 -750 0
-724 -751 0
-724 -752 0
-724 -753 0
-724 -754 0
-724 -755 0
-724 -756 0
-724 -757 0
-724 -758 0
-724 -759 0
-724 -760 0
-724 -761 0
-724 -762 0
-724 -763 0
-724 -764 0
-724 -765 0
-724 -766 0
-724 -767 0
-724 -768 0
-724 -769 0
-725 -726 0
-725 -727 0
-725 -728 0
-725 -729 0
-725 -730 0
-725 -731 0
-725 -732 0
-725 -733 0
-725 -734 0
-725 -735 0
-725 -736 0
-725 -737 0
-725 -738 0
-725 -739 0
-725 -740 0
-725 -741 0
-725 -742 0
-725 -743 0
-725 -744 0
-725 -745 0
-725 -746 0
-725 -747 0
-725 -748 0
-725 -749 0
-725 -750 0
-725 -751 0
-725 -752 0
-725 -753 0
-725 -754 0
-725 -755 0
-725 -756 0
-725 -757 0
-725 -758 0
-725 -759 0
-725 -760 0
-725 -761 0
-725 -762 0
-725 -763 0
-725 -764 0
-725 -765 0
-725 -766 0
-725 -767 0
-725 -768 0
-725 -769 0
-726 -727 0
-726 -728 0
-726 -729 0
-726 -730 0
-726 -731 0
-726 -732 0
-726 -733 0
-726 -734 0
-726 -735 0
-726 -736 0
-726 -737 0
-726 -738 0
-726 -739 0
-726 -740 0
-726 -741 0
-726 -742 0
-726 -743 0
-726 -744 0
-726 -745 0
-726 -746 0
-726 -747 0
-726 -748 0
-726 -749 0
-726 -750 0
-726 -751 0
-726 -752 0
-726 -753 0
-726 -754 0
-726 -755 0
-726 -756 0
-726 -757 0
-726 -758 0
-726 -759 0
-726 -760 0
-726 -761 0
-726 -762 0
-726 -763 0
-726 -764 0
-726 -765 0
-726 -766 0
-726 -767 0
-726 -768 0
-726 -769 0
-727 -728 0
-727 -729 0
-727 -730 0
-727 -731 0
-727 -732 0
-727 -733 0
-727 -734 0
-727 -735 0
-727 -736 0
-727 -737 0
-727 -738 0
-727 -739 0
-727 -740 0
-727 -741 0
-727 -742 0
-727 -743 0
-727 -744 0
-727 -745 0
-727 -746 0
-727 -747 0
-727 -748 0
-727 -749 0
-727 -750 0
-727 -751 0
-727 -752 0
-727 -753 0
-727 -754 0
-727 -755 0
-727 -756 0
-727 -757 0
-727 -758 0
-727 -759 0
-727 -760 0
-727 -761 0
-727 -762 0
-727 -763 0
-727 -764 0
-727 -765 0
-727 -766 0
-727 -767 0
-727 -768 0
-727 -769 0
-728 -729 0
-728 -730 0
-728 -731 0
-728 -732 0
-728 -733 0
-728 -734 0
-728 -735 0
-728 -736 0
-728 -737 0
-728 -738 0
-728 -739 0
-728 -740 0
-728 -741 0
-728 -742 0
-728 -743 0
-728 -744 0
-728 -745 0
-728 -746 0
-728 -747 0
-728 -748 0
-728 -749 0
-728 -750 0
-728 -751 0
-728 -752 0
-728 -753 0
-728 -754 0
-728 -755 0
-728 -756 0
-728 -757 0
-728 -758 0
-728 -759 0
-728 -760 0
-728 -761 0
-728 -762 0
-728 -763 0
-728 -764 0
-728 -765 0
-728 -766 0
-728 -767 0
-728 -768 0
-728 -769 0
-729 -730 0
-729 -731 0
-729 -732 0
-729 -733 0
-729 -734 0
-729 -735 0
-729 -736 0
-729 -737 0
-729 -738 0
-729 -739 0
-729 -740 0
-729 -741 0
-729 -742 0
-729 -743 0
-729 -744 0
-729 -745 0
-729 -746 0
-729 -747 0
-729 -748 0
-729 -749 0
-729 -750 0
-729 -751 0
-729 -752 0
-729 -753 0
-729 -754 0
-729 -755 0
-729 -756 0
-729 -757 0
-729 -758 0
-729 -759 0
-729 -760 0
-729 -761 0
-729 -762 0
-729 -763 0
-729 -764 0
-729 -765 0
-729 -766 0
-729 -767 0
-729 -768 0
-729 -769 0
-730 -731 0
-730 -732 0
-730 -733 0
-730 -734 0
-730 -735 0
-730 -736 0
-730 -737 0
-730 -738 0
-730 -739 0
-730 -740 0
-730 -741 0
-730 -742 0
-730 -743 0
-730 -744 0
-730 -745 0
-730 -746 0
-730 -747 0
-730 -748 0
-730 -749 0
-730 -750 0
-730 -751 0
-730 -752 0
-730 -753 0
-730 -754 0
-730 -755 0
-730 -756 0
-730 -757 0
-730 -758 0
-730 -759 0
-730 -760 0
-730 -761 0
-730 -762 0
-730 -763 0
-730 -764 0
-730 -765 0
-730 -766 0
-730 -767 0
-730 -768 0
-730 -769 0
-731 -732 0
-731 -733 0
-731 -734 0
-731 -735 0
-731 -736 0
-731 -737 0
-731 -738 0
-731 -739 0
-731 -740 0
-731 -741 0
-731 -742 0
-731 -743 0
-731 -744 0
-731 -745 0
-731 -746 0
-731 -747 0
-731 -748 0
-731 -749 0
-731 -750 0
-731 -751 0
-731 -752 0
-731 -753 0
-731 -754 0
-731 -755 0
-731 -756 0
-731 -757 0
-731 -758 0
-731 -759 0
-731 -760 0
-731 -761 0
-731 -762 0
-731 -763 0
-731 -764 0
-731 -765 0
-731 -766 0
-731 -767 0
-731 -768 0
-731 -769 0
-732 -733 0
-732 -734 0
-732 -735 0
-732 -736 0
-732 -737 0
-732 -738 0
-732 -739 0
-732 -740 0
-732 -741 0
-732 -742 0
-732 -743 0
-732 -744 0
-732 -745 0
-732 -746 0
-732 -747 0
-732 -748 0
-732 -749 0
-732 -750 0
-732 -751 0
-732 -752 0
-732 -753 0
-732 -754 0
-732 -755 0
-732 -756 0
-732 -757 0
-732 -758 0
-732 -759 0
-732 -760 0
-732 -761 0
-732 -762 0
-732 -763 0
-732 -764 0
-732 -765 0
-732 -766 0
-732 -767 0
-732 -768 0
-732 -769 0
-733 -734 0
-733 -735 0
-733 -736 0
-733 -737 0
-733 -738 0
-733 -739 0
-733 -740 0
-733 -741 0
-733 -742 0
-733 -743 0
-733 -744 0
-733 -745 0
-733 -746 0
-733 -747 0
-733 -748 0
-733 -749 0
-733 -750 0
-733 -751 0
-733 -752 0
-733 -753 0
-733 -754 0
-733 -755 0
-733 -756 0
-733 -757 0
-733 -758 0
-733 -759 0
-733 -760 0
-733 -761 0
-733 -762 0
-733 -763 0
-733 -764 0
-733 -765 0
-733 -766 0
-733 -767 0
-733 -768 0
-733 -769 0
-734 -735 0
-734 -736 0
-734 -737 0
-734 -738 0
-734 -739 0
-734 -740 0
-734 -741 0
-734 -742 0
-734 -743 0
-734 -744 0
-734 -745 0
-734 -746 0
-734 -747 0
-734 -748 0
-734 -749 0
-734 -750 0
-734 -751 0
-734 -752 0
-734 -753 0
-734 -754 0
-734 -755 0
-734 -756 0
-734 -757 0
-734 -758 0
-734 -759 0
-734 -760 0
-734 -761 0
-734 -762 0
-734 -763 0
-734 -764 0
-734 -765 0
-734 -766 0
-734 -767 0
-734 -768 0
-734 -769 0
-735 -736 0
-735 -737 0
-735 -738 0
-735 -739 0
-735 -740 0
-735 -741 0
-735 -742 0
-735 -743 0
-735 -744 0
-735 -745 0
-735 -746 0
-735 -747 0
-735 -748 0
-735 -749 0
-735 -750 0
-735 -751 0
-735 -752 0
-735 -753 0
-735 -754 0
-735 -755 0
-735 -756 0
-735 -757 0
-735 -758 0
-735 -759 0
-735 -760 0
-735 -761 0
-735 -762 0
-735 -763 0
-735 -764 0
-735 -765 0
-735 -766 0
-735 -767 0
-735 -768 0
-735 -769 0
-736 -737 0
-736 -738 0
-736 -739 0
-736 -740 0
-736 -741 0
-736 -742 0
-736 -743 0
-736 -744 0
-736 -745 0
-736 -746 0
-736 -747 0
-736 -748 0
-736 -749 0
-736 -750 0
-736 -751 0
-736 -752 0
-736 -753 0
-736 -754 0
-736 -755 0
-736 -756 0
-736 -757 0
-736 -758 0
-736 -759 0
-736 -760 0
-736 -761 0
-736 -762 0
-736 -763 0
-736 -764 0
-736 -765 0
-736 -766 0
-736 -767 0
-736 -768 0
-736 -769 0
-737 -738 0
-737 -739 0
-737 -740 0
-737 -741 0
-737 -742 0
-737 -743 0
-737 -744 0
-737 -745 0
-737 -746 0
-737 -747 0
-737 -748 0
-737 -749 0
-737 -750 0
-737 -751 0
-737 -752 0
-737 -753 0
-737 -754 0
-737 -755 0
-737 -756 0
-737 -757 0
-737 -758 0
-737 -759 0
-737 -760 0
-737 -761 0
-737 -762 0
-737 -763 0
-737 -764 0
-737 -765 0
-737 -766 0
-737 -767 0
-737 -768 0
-737 -769 0
-738 -739 0
-738 -740 0
-738 -741 0
-738 -742 0
-738 -743 0
-738 -744 0
-738 -745 0
-738 -746 0
-738 -747 0
-738 -748 0
-738 -749 0
-738 -750 0
-738 -751 0
-738 -752 0
-738 -753 0
-738 -754 0
-738 -755 0
-738 -756 0
-738 -757 0
-738 -758 0
-738 -759 0
-738 -760 0
-738 -761 0
-738 -762 0
-738 -763 0
-738 -764 0
-738 -765 0
-738 -766 0
-738 -767 0
-738 -768 0
-738 -769 0
-739 -740 0
-739 -741 0
-739 -742 0
-739 -743 0
-739 -744 0
-739 -745 0
-739 -746 0
-739 -747 0
-739 -748 0
-739 -749 0
-739 -750 0
-739 -751 0
-739 -752 0
-739 -753 0
-739 -754 0
-739 -755 0
-739 -756 0
-739 -757 0
-739 -758 0
-739 -759 0
-739 -760 0
-739 -761 0
-739 -762 0
-739 -763 0
-739 -764 0
-739 -765 0
-739 -766 0
-739 -767 0
-739 -768 0
-739 -769 0
-740 -741 0
-740 -742 0
-740 -743 0
-740 -744 0
-740 -745 0
-740 -746 0
-740 -747 0
-740 -748 0
-740 -749 0
-740 -750 0
-740 -751 0
-740 -752 0
-740 -753 0
-740 -754 0
-740 -755 0
-740 -756 0
-740 -757 0
-740 -758 0
-740 -759 0
-740 -760 0
-740 -761 0
-740 -762 0
-740 -763 0
-740 -764 0
-740 -765 0
-740 -766 0
-740 -767 0
-740 -768 0
-740 -769 0
-741 -742 0
-741 -743 0
-741 -744 0
-741 -745 0
-741 -746 0
-741 -747 0
-741 -748 0
-741 -749 0
-741 -750 0
-741 -751 0
-741 -752 0
-741 -753 0
-741 -754 0
-741 -755 0
-741 -756 0
-741 -757 0
-741 -758 0
-741 -759 0
-741 -760 0
-741 -761 0
-741 -762 0
-741 -763 0
-741 -764 0
-741 -765 0
-741 -766 0
-741 -767 0
-741 -768 0
-741 -769 0
-742 -743 0
-742 -744 0
-742 -745 0
-742 -746 0
-742 -747 0
-742 -748 0
-742 -749 0
-742 -750 0
-742 -751 0
-742 -752 0
-742 -753 0
-742 -754 0
-742 -755 0
-742 -756 0
-742 -757 0
-742 -758 0
-742 -759 0
-742 -760 0
-742 -761 0
-742 -762 0
-742 -763 0
-742 -764 0
-742 -765 0
-742 -766 0
-742 -767 0
-742 -768 0
-742 -769 0
-743 -744 0
-743 -745 0
-743 -746 0
-743 -747 0
-743 -748 0
-743 -749 0
-743 -750 0
-743 -751 0
-743 -752 0
-743 -753 0
-743 -754 0
-743 -755 0
-743 -756 0
-743 -757 0
-743 -758 0
-743 -759 0
-743 -760 0
-743 -761 0
-743 -762 0
-743 -763 0
-743 -764 0
-743 -765 0
-743 -766 0
-743 -767 0
-743 -768 0
-743 -769 0
-744 -745 0
-744 -746 0
-744 -747 0
-744 -748 0
-744 -749 0
-744 -750 0
-744 -751 0
-744 -752 0
-744 -753 0
-744 -754 0
-744 -755 0
-744 -756 0
-744 -757 0
-744 -758 0
-744 -759 0
-744 -760 0
-744 -761 0
-744 -762 0
-744 -763 0
-744 -764 0
-744 -765 0
-744 -766 0
-744 -767 0
-744 -768 0
-744 -769 0
-745 -746 0
-745 -747 0
-745 -748 0
-745 -749 0
-745 -750 0
-745 -751 0
-745 -752 0
-745 -753 0
-745 -754 0
-745 -755 0
-745 -756 0
-745 -757 0
-745 -758 0
-745 -759 0
-745 -760 0
-745 -761 0
-745 -762 0
-745 -763 0
-745 -764 0
-745 -765 0
-745 -766 0
-745 -767 0
-745 -768 0
-745 -769 0
-746 -747 0
-746 -748 0
-746 -749 0
-746 -750 0
-746 -751 0
-746 -752 0
-746 -753 0
-746 -754 0
-746 -755 0
-746 -756 0
-746 -757 0
-746 -758 0
-746 -759 0
-746 -760 0
-746 -761 0
-746 -762 0
-746 -763 0
-746 -764 0
-746 -765 0
-746 -766 0
-746 -767 0
-746 -768 0
-746 -769 0
-747 -748 0
-747 -749 0
-747 -750 0
-747 -751 0
-747 -752 0
-747 -753 0
-747 -754 0
-747 -755 0
-747 -756 0
-747 -757 0
-747 -758 0
-747 -759 0
-747 -760 0
-747 -761 0
-747 -762 0
-747 -763 0
-747 -764 0
-747 -765 0
-747 -766 0
-747 -767 0
-747 -768 0
-747 -769 0
-748 -749 0
-748 -750 0
-748 -751 0
-748 -752 0
-748 -753 0
-748 -754 0
-748 -755 0
-748 -756 0
-748 -757 0
-748 -758 0
-748 -759 0
-748 -760 0
-748 -761 0
-748 -762 0
-748 -763 0
-748 -764 0
-748 -765 0
-748 -766 0
-748 -767 0
-748 -768 0
-748 -769 0
-749 -750 0
-749 -751 0
-749 -752 0
-749 -753 0
-749 -754 0
-749 -755 0
-749 -756 0
-749 -757 0
-749 -758 0
-749 -759 0
-749 -760 0
-749 -761 0
-749 -762 0
-749 -763 0
-749 -764 0
-749 -765 0
-749 -766 0
-749 -767 0
-749 -768 0
-749 -769 0
-750 -751 0
-750 -752 0
-750 -753 0
-750 -754 0
-750 -755 0
-750 -756 0
-750 -757 0
-750 -758 0
-750 -759 0
-750 -760 0
-750 -761 0
-750 -762 0
-750 -763 0
-750 -764 0
-750 -765 0
-750 -766 0
-750 -767 0
-750 -768 0
-750 -769 0
-751 -752 0
-751 -753 0
-751 -754 0
-751 -755 0
-751 -756 0
-751 -757 0
-751 -758 0
-751 -759 0
-751 -760 0
-751 -761 0
-751 -762 0
-751 -763 0
-751 -764 0
-751 -765 0
-751 -766 0
-751 -767 0
-751 -768 0
-751 -769 0
-752 -753 0
-752 -754 0
-752 -755 0
-752 -756 0
-752 -757 0
-752 -758 0
-752 -759 0
-752 -760 0
-752 -761 0
-752 -762 0
-752 -763 0
-752 -764 0
-752 -765 0
-752 -766 0
-752 -767 0
-752 -768 0
-752 -769 0
-753 -754 0
-753 -755 0
-753 -756 0
-753 -757 0
-753 -758 0
-753 -759 0
-753 -760 0
-753 -761 0
-753 -762 0
-753 -763 0
-753 -764 0
-753 -765 0
-753 -766 0
-753 -767 0
-753 -768 0
-753 -769 0
-754 -755 0
-754 -756 0
-754 -757 0
-754 -758 0
-754 -759 0
-754 -760 0
-754 -761 0
-754 -762 0
-754 -763 0
-754 -764 0
-754 -765 0
-754 -766 0
-754 -767 0
-754 -768 0
-754 -769 0
-755 -756 0
-755 -757 0
-755 -758 0
-755 -759 0
-755 -760 0
-755 -761 0
-755 -762 0
-755 -763 0
-755 -764 0
-755 -765 0
-755 -766 0
-755 -767 0
-755 -768 0
-755 -769 0
-756 -757 0
-756 -758 0
-756 -759 0
-756 -760 0
-756 -761 0
-756 -762 0
-756 -763 0
-756 -764 0
-756 -765 0
-756 -766 0
-756 -767 0
-756 -768 0
-756 -769 0
-757 -758 0
-757 -759 0
-757 -760 0
-757 -761 0
-757 -762 0
-757 -763 0
-757 -764 0
-757 -765 0
-757 -766 0
-757 -767 0
-757 -768 0
-757 -769 0
-758 -759 0
-758 -760 0
-758 -761 0
-758 -762 0
-758 -763 0
-758 -764 0
-758 -765 0
-758 -766 0
-758 -767 0
-758 -768 0
-758 -769 0
-759 -760 0
-759 -761 0
-759 -762 0
-759 -763 0
-759 -764 0
-759 -765 0
-759 -766 0
-759 -767 0
-759 -768 0
-759 -769 0
-760 -761 0
-760 -762 0
-760 -763 0
-760 -764 0
-760 -765 0
-760 -766 0
-760 -767 0
-760 -768 0
-760 -769 0
-761 -762 0
-761 -763 0
-761 -764 0
-761 -765 0
-761 -766 0
-761 -767 0
-761 -768 0
-761 -769 0
-762 -763 0
-762 -764 0
-762 -765 0
-762 -766 0
-762 -767 0
-762 -768 0
-762 -769 0
-763 -764 0
-763 -765 0
-763 -766 0
-763 -767 0
-763 -768 0
-763 -769 0
-764 -765 0
-764 -766 0
-764 -767 0
-764 -768 0
-764 -769 0
-765 -766 0
-765 -767 0
-765 -768 0
-765 -769 0
-766 -767 0
-766 -768 0
-766 -769 0
-767 -768 0
-767 -769 0
-768 -769 0
-770 190 0
-770 -22 -126 -123 0
-770 -22 -127 -124 0
-770 -22 -128 -125 0
-770 28 0
-770 -28 -126 1057 308 0
-770 -28 -127 1057 314 0
-770 -28 -128 1057 320 0
-770 -126 -332 0
-770 -126 -356 0
-770 -126 -380 0
-770 -126 -338 0
-770 -126 -362 0
-770 -126 -386 0
-770 -126 -344 0
-770 -126 -368 0
-770 -126 -392 0
-770 -127 -338 0
-770 -127 -362 0
-770 -127 -386 0
-770 -127 -344 0
-770 -127 -368 0
-770 -127 -392 0
-770 -128 -344 0
-770 -128 -368 0
-770 -128 -392 0
-770 -129 0
-770 43 0
-770 -126 139 0
-770 -127 140 0
-770 -128 141 0
-770 -195 0
-771 190 0
-771 -23 -126 -123 0
-771 -23 -127 -124 0
-771 -23 -128 -125 0
-771 29 0
-771 -29 -126 1058 309 0
-771 -29 -127 1058 315 0
-771 -29 -128 1058 321 0
-771 -126 -333 0
-771 -126 -357 0
-771 -126 -381 0
-771 -126 -339 0
-771 -126 -363 0
-771 -126 -387 0
-771 -126 -345 0
-771 -126 -369 0
-771 -126 -393 0
-771 -127 -339 0
-771 -127 -363 0
-771 -127 -387 0
-771 -127 -345 0
-771 -127 -369 0
-771 -127 -393 0
-771 -128 -345 0
-771 -128 -369 0
-771 -128 -393 0
-771 -129 0
-771 44 0
-771 -126 139 0
-771 -127 140 0
-771 -128 141 0
-771 -195 0
-772 190 0
-772 -24 -126 -123 0
-772 -24 -127 -124 0
-772 -24 -128 -125 0
-772 30 0
-772 -30 -126 1059 310 0
-772 -30 -127 1059 316 0
-772 -30 -128 1059 322 0
-772 -126 -334 0
-772 -126 -358 0
-772 -126 -382 0
-772 -126 -340 0
-772 -126 -364 0
-772 -126 -388 0
-772 -126 -346 0
-772 -126 -370 0
-772 -126 -394 0
-772 -127 -340 0
-772 -127 -364 0
-772 -127 -388 0
-772 -127 -346 0
-772 -127 -370 0
-772 -127 -394 0
-772 -128 -346 0
-772 -128 -370 0
-772 -128 -394 0
-772 -129 0
-772 45 0
-772 -126 139 0
-772 -127 140 0
-772 -128 141 0
-772 -195 0
-773 190 0
-773 -25 -126 -123 0
-773 -25 -127 -124 0
-773 -25 -128 -125 0
-773 31 0
-773 -31 -126 1060 311 0
-773 -31 -127 1060 317 0
-773 -31 -128 1060 323 0
-773 -126 -335 0
-773 -126 -359 0
-773 -126 -383 0
-773 -126 -341 0
-773 -126 -365 0
-773 -126 -389 0
-773 -126 -347 0
-773 -126 -371 0
-773 -126 -395 0
-773 -127 -341 0
-773 -127 -365 0
-773 -127 -389 0
-773 -127 -347 0
-773 -127 -371 0
-773 -127 -395 0
-773 -128 -347 0
-773 -128 -371 0
-773 -128 -395 0
-773 -129 0
-773 46 0
-773 -126 139 0
-773 -127 140 0
-773 -128 141 0
-773 -195 0
-774 190 0
-774 -26 -126 -123 0
-774 -26 -127 -124 0
-774 -26 -128 -125 0
-774 32 0
-774 -32 -126 1061 312 0
-774 -32 -127 1061 318 0
-774 -32 -128 1061 324 0
-774 -126 -336 0
-774 -126 -360 0
-774 -126 -384 0
-774 -126 -342 0
-774 -126 -366 0
-774 -126 -390 0
-774 -126 -348 0
-774 -126 -372 0
-774 -126 -396 0
-774 -127 -342 0
-774 -127 -366 0
-774 -127 -390 0
-774 -127 -348 0
-774 -127 -372 0
-774 -127 -396 0
-774 -128 -348 0
-774 -128 -372 0
-774 -128 -396 0
-774 -129 0
-774 47 0
-774 -126 139 0
-774 -127 140 0
-774 -128 141 0
-774 -195 0
-775 190 0
-775 -27 -126 -123 0
-775 -27 -127 -124 0
-775 -27 -128 -125 0
-775 33 0
-775 -33 -126 1062 313 0
-775 -33 -127 1062 319 0
-775 -33 -128 1062 325 0
-775 -126 -337 0
-775 -126 -361 0
-775 -126 -385 0
-775 -126 -343 0
-775 -126 -367 0
-775 -126 -391 0
-775 -126 -349 0
-775 -126 -373 0
-775 -126 -397 0
-775 -127 -343 0
-775 -127 -367 0
-775 -127 -391 0
-775 -127 -349 0
-775 -127 -373 0
-775 -127 -397 0
-775 -128 -349 0
-775 -128 -373 0
-775 -128 -397 0
-775 -129 0
-775 48 0
-775 -126 139 0
-775 -127 140 0
-775 -128 141 0
-775 -195 0
-776 190 0
-776 -22 -130 -123 0
-776 -22 -131 -124 0
-776 -22 -132 -125 0
-776 34 0
-776 -34 -130 1063 308 0
-776 -34 -131 1063 314 0
-776 -34 -132 1063 320 0
-776 -130 -332 0
-776 -130 -356 0
-776 -130 -380 0
-776 -130 -338 0
-776 -130 -362 0
-776 -130 -386 0
-776 -130 -344 0
-776 -130 -368 0
-776 -130 -392 0
-776 -131 -338 0
-776 -131 -362 0
-776 -131 -386 0
-776 -131 -344 0
-776 -131 -368 0
-776 -131 -392 0
-776 -132 -344 0
-776 -132 -368 0
-776 -132 -392 0
-776 -133 0
-776 43 0
-776 -130 139 0
-776 -131 140 0
-776 -132 141 0
-776 -196 0
-777 190 0
-777 -23 -130 -123 0
-777 -23 -131 -124 0
-777 -23 -132 -125 0
-777 34 35 0
-777 -34 -130 1064 309 0
-777 -34 -131 1064 315 0
-777 -34 -132 1064 321 0
-777 -35 -130 1064 309 0
-777 -35 -131 1064 315 0
-777 -35 -132 1064 321 0
-777 -130 -333 0
-777 -130 -357 0
-777 -130 -381 0
-777 -130 -339 0
-777 -130 -363 0
-777 -130 -387 0
-777 -130 -345 0
-777 -130 -369 0
-777 -130 -393 0
-777 -131 -339 0
-777 -131 -363 0
-777 -131 -387 0
-777 -131 -345 0
-777 -131 -369 0
-777 -131 -393 0
-777 -132 -345 0
-777 -132 -369 0
-777 -132 -393 0
-777 -133 0
-777 44 0
-777 -130 139 0
-777 -131 140 0
-777 -132 141 0
-777 -196 0
-778 190 0
-778 -24 -130 -123 0
-778 -24 -131 -124 0
-778 -24 -132 -125 0
-778 35 36 0
-778 -35 -130 1065 310 0
-778 -35 -131 1065 316 0
-778 -35 -132 1065 322 0
-778 -36 -130 1065 310 0
-778 -36 -131 1065 316 0
-778 -36 -132 1065 322 0
-778 -130 -334 0
-778 -130 -358 0
-778 -130 -382 0
-778 -130 -340 0
-778 -130 -364 0
-778 -130 -388 0
-778 -130 -346 0
-778 -130 -370 0
-778 -130 -394 0
-778 -131 -340 0
-778 -131 -364 0
-778 -131 -388 0
-778 -131 -346 0
-778 -131 -370 0
-778 -131 -394 0
-778 -132 -346 0
-778 -132 -370 0
-778 -132 -394 0
-778 -133 0
-778 45 0
-778 -130 139 0
-778 -131 140 0
-778 -132 141 0
-778 -196 0
-779 190 0
-779 -25 -130 -123 0
-779 -25 -131 -124 0
-779 -25 -132 -125 0
-779 36 37 0
-779 -36 -130 1066 311 0
-779 -36 -131 1066 317 0
-779 -36 -132 1066 323 0
-779 -37 -130 1066 311 0
-779 -37 -131 1066 317 0
-779 -37 -132 1066 323 0
-779 -130 -335 0
-779 -130 -359 0
-779 -130 -383 0
-779 -130 -341 0
-779 -130 -365 0
-779 -130 -389 0
-779 -130 -347 0
-779 -130 -371 0
-779 -130 -395 0
-779 -131 -341 0
-779 -131 -365 0
-779 -131 -389 0
-779 -131 -347 0
-779 -131 -371 0
-779 -131 -395 0
-779 -132 -347 0
-779 -132 -371 0
-779 -132 -395 0
-779 -133 0
-779 46 0
-779 -130 139 0
-779 -131 140 0
-779 -132 141 0
-779 -196 0
-780 190 0
-780 -26 -130 -123 0
-780 -26 -131 -124 0
-780 -26 -132 -125 0
-780 37 38 0
-780 -37 -130 1067 312 0
-780 -37 -131 1067 318 0
-780 -37 -132 1067 324 0
-780 -38 -130 1067 312 0
-780 -38 -131 1067 318 0
-780 -38 -132 1067 324 0
-780 -130 -336 0
-780 -130 -360 0
-780 -130 -384 0
-780 -130 -342 0
-780 -130 -366 0
-780 -130 -390 0
-780 -130 -348 0
-780 -130 -372 0
-780 -130 -396 0
-780 -131 -342 0
-780 -131 -366 0
-780 -131 -390 0
-780 -131 -348 0
-780 -131 -372 0
-780 -131 -396 0
-780 -132 -348 0
-780 -132 -372 0
-780 -132 -396 0
-780 -133 0
-780 47 0
-780 -130 139 0
-780 -131 140 0
-780 -132 141 0
-780 -196 0
-781 190 0
-781 -27 -130 -123 0
-781 -27 -131 -124 0
-781 -27 -132 -125 0
-781 38 0
-781 -38 -130 1068 313 0
-781 -38 -131 1068 319 0
-781 -38 -132 1068 325 0
-781 -130 -337 0
-781 -130 -361 0
-781 -130 -385 0
-781 -130 -343 0
-781 -130 -367 0
-781 -130 -391 0
-781 -130 -349 0
-781 -130 -373 0
-781 -130 -397 0
-781 -131 -343 0
-781 -131 -367 0
-781 -131 -391 0
-781 -131 -349 0
-781 -131 -373 0
-781 -131 -397 0
-781 -132 -349 0
-781 -132 -373 0
-781 -132 -397 0
-781 -133 0
-781 48 0
-781 -130 139 0
-781 -131 140 0
-781 -132 141 0
-781 -196 0
-782 190 0
-782 -22 -134 -123 0
-782 -22 -135 -124 0
-782 -22 -136 -125 0
-782 39 0
-782 -39 -134 1069 308 0
-782 -39 -135 1069 314 0
-782 -39 -136 1069 320 0
-782 -134 -332 0
-782 -134 -356 0
-782 -134 -380 0
-782 -134 -338 0
-782 -134 -362 0
-782 -134 -386 0
-782 -134 -344 0
-782 -134 -368 0
-782 -134 -392 0
-782 -135 -338 0
-782 -135 -362 0
-782 -135 -386 0
-782 -135 -344 0
-782 -135 -368 0
-782 -135 -392 0
-782 -136 -344 0
-782 -136 -368 0
-782 -136 -392 0
-782 -137 0
-782 43 0
-782 -134 139 0
-782 -135 140 0
-782 -136 141 0
-782 -197 0
-783 190 0
-783 -23 -134 -123 0
-783 -23 -135 -124 0
-783 -23 -136 -125 0
-783 39 40 0
-783 -39 -134 1070 309 0
-783 -39 -135 1070 315 0
-783 -39 -136 1070 321 0
-783 -40 -134 1070 309 0
-783 -40 -135 1070 315 0
-783 -40 -136 1070 321 0
-783 -134 -333 0
-783 -134 -357 0
-783 -134 -381 0
-783 -134 -339 0
-783 -134 -363 0
-783 -134 -387 0
-783 -134 -345 0
-783 -134 -369 0
-783 -134 -393 0
-783 -135 -339 0
-783 -135 -363 0
-783 -135 -387 0
-783 -135 -345 0
-783 -135 -369 0
-783 -135 -393 0
-783 -136 -345 0
-783 -136 -369 0
-783 -136 -393 0
-783 -137 0
-783 44 0
-783 -134 139 0
-783 -135 140 0
-783 -136 141 0
-783 -197 0
-784 190 0
-784 -24 -134 -123 0
-784 -24 -135 -124 0
-784 -24 -136 -125 0
-784 39 40 41 0
-784 -39 -134 1071 310 0
-784 -39 -135 1071 316 0
-784 -39 -136 1071 322 0
-784 -40 -134 1071 310 0
-784 -40 -135 1071 316 0
-784 -40 -136 1071 322 0
-784 -41 -134 1071 310 0
-784 -41 -135 1071 316 0
-784 -41 -136 1071 322 0
-784 -134 -334 0
-784 -134 -358 0
-784 -134 -382 0
-784 -134 -340 0
-784 -134 -364 0
-784 -134 -388 0
-784 -134 -346 0
-784 -134 -370 0
-784 -134 -394 0
-784 -135 -340 0
-784 -135 -364 0
-784 -135 -388 0
-784 -135 -346 0
-784 -135 -370 0
-784 -135 -394 0
-784 -136 -346 0
-784 -136 -370 0
-784 -136 -394 0
-784 -137 0
-784 45 0
-784 -134 139 0
-784 -135 140 0
-784 -136 141 0
-784 -197 0
-785 190 0
-785 -25 -134 -123 0
-785 -25 -135 -124 0
-785 -25 -136 -125 0
-785 40 41 42 0
-785 -40 -134 1072 311 0
-785 -40 -135 1072 317 0
-785 -40 -136 1072 323 0
-785 -41 -134 1072 311 0
-785 -41 -135 1072 317 0
-785 -41 -136 1072 323 0
-785 -42 -134 1072 311 0
-785 -42 -135 1072 317 0
-785 -42 -136 1072 323 0
-785 -134 -335 0
-785 -134 -359 0
-785 -134 -383 0
-785 -134 -341 0
-785 -134 -365 0
-785 -134 -389 0
-785 -134 -347 0
-785 -134 -371 0
-785 -134 -395 0
-785 -135 -341 0
-785 -135 -365 0
-785 -135 -389 0
-785 -135 -347 0
-785 -135 -371 0
-785 -135 -395 0
-785 -136 -347 0
-785 -136 -371 0
-785 -136 -395 0
-785 -137 0
-785 46 0
-785 -134 139 0
-785 -135 140 0
-785 -136 141 0
-785 -197 0
-786 190 0
-786 -26 -134 -123 0
-786 -26 -135 -124 0
-786 -26 -136 -125 0
-786 41 42 0
-786 -41 -134 1073 312 0
-786 -41 -135 1073 318 0
-786 -41 -136 1073 324 0
-786 -42 -134 1073 312 0
-786 -42 -135 1073 318 0
-786 -42 -136 1073 324 0
-786 -134 -336 0
-786 -134 -360 0
-786 -134 -384 0
-786 -134 -342 0
-786 -134 -366 0
-786 -134 -390 0
-786 -134 -348 0
-786 -134 -372 0
-786 -134 -396 0
-786 -135 -342 0
-786 -135 -366 0
-786 -135 -390 0
-786 -135 -348 0
-786 -135 -372 0
-786 -135 -396 0
-786 -136 -348 0
-786 -136 -372 0
-786 -136 -396 0
-786 -137 0
-786 47 0
-786 -134 139 0
-786 -135 140 0
-786 -136 141 0
-786 -197 0
-787 190 0
-787 -27 -134 -123 0
-787 -27 -135 -124 0
-787 -27 -136 -125 0
-787 42 0
-787 -42 -134 1074 313 0
-787 -42 -135 1074 319 0
-787 -42 -136 1074 325 0
-787 -134 -337 0
-787 -134 -361 0
-787 -134 -385 0
-787 -134 -343 0
-787 -134 -367 0
-787 -134 -391 0
-787 -134 -349 0
-787 -134 -373 0
-787 -134 -397 0
-787 -135 -343 0
-787 -135 -367 0
-787 -135 -391 0
-787 -135 -349 0
-787 -135 -373 0
-787 -135 -397 0
-787 -136 -349 0
-787 -136 -373 0
-787 -136 -397 0
-787 -137 0
-787 48 0
-787 -134 139 0
-787 -135 140 0
-787 -136 141 0
-787 -197 0
-788 190 0
-788 -22 -122 0
-788 -326 0
-788 -350 0
-788 -374 0
-788 -332 0
-788 -356 0
-788 -380 0
-788 -338 0
-788 -362 0
-788 -386 0
-788 -344 0
-788 -368 0
-788 -392 0
-788 43 0
-788 138 0
-789 190 0
-789 -23 -122 0
-789 -327 0
-789 -351 0
-789 -375 0
-789 -333 0
-789 -357 0
-789 -381 0
-789 -339 0
-789 -363 0
-789 -387 0
-789 -345 0
-789 -369 0
-789 -393 0
-789 44 0
-789 138 0
-790 190 0
-790 -24 -122 0
-790 -328 0
-790 -352 0
-790 -376 0
-790 -334 0
-790 -358 0
-790 -382 0
-790 -340 0
-790 -364 0
-790 -388 0
-790 -346 0
-790 -370 0
-790 -394 0
-790 45 0
-790 138 0
-791 190 0
-791 -25 -122 0
-791 -329 0
-791 -353 0
-791 -377 0
-791 -335 0
-791 -359 0
-791 -383 0
-791 -341 0
-791 -365 0
-791 -389 0
-791 -347 0
-791 -371 0
-791 -395 0
-791 46 0
-791 138 0
-792 190 0
-792 -26 -122 0
-792 -330 0
-792 -354 0
-792 -378 0
-792 -336 0
-792 -360 0
-792 -384 0
-792 -342 0
-792 -366 0
-792 -390 0
-792 -348 0
-792 -372 0
-792 -396 0
-792 47 0
-792 138 0
-793 190 0
-793 -27 -122 0
-793 -331 0
-793 -355 0
-793 -379 0
-793 -337 0
-793 -361 0
-793 -385 0
-793 -343 0
-793 -367 0
-793 -391 0
-793 -349 0
-793 -373 0
-793 -397 0
-793 48 0
-793 138 0
-794 191 0
-794 -28 -122 -127 0
-794 -28 -123 -128 0
-794 -28 -124 -129 0
-794 22 0
-794 -22 -122 1051 332 0
-794 -22 -123 1051 338 0
-794 -22 -124 1051 344 0
-794 -122 -308 0
-794 -122 -356 0
-794 -122 -380 0
-794 -122 -314 0
-794 -122 -362 0
-794 -122 -386 0
-794 -122 -320 0
-794 -122 -368 0
-794 -122 -392 0
-794 -123 -314 0
-794 -123 -362 0
-794 -123 -386 0
-794 -123 -320 0
-794 -123 -368 0
-794 -123 -392 0
-794 -124 -320 0
-794 -124 -368 0
-794 -124 -392 0
-794 -125 0
-794 49 0
-794 -122 143 0
-794 -123 144 0
-794 -124 145 0
-794 -194 0
-795 191 0
-795 -29 -122 -127 0
-795 -29 -123 -128 0
-795 -29 -124 -129 0
-795 23 0
-795 -23 -122 1052 333 0
-795 -23 -123 1052 339 0
-795 -23 -124 1052 345 0
-795 -122 -309 0
-795 -122 -357 0
-795 -122 -381 0
-795 -122 -315 0
-795 -122 -363 0
-795 -122 -387 0
-795 -122 -321 0
-795 -122 -369 0
-795 -122 -393 0
-795 -123 -315 0
-795 -123 -363 0
-795 -123 -387 0
-795 -123 -321 0
-795 -123 -369 0
-795 -123 -393 0
-795 -124 -321 0
-795 -124 -369 0
-795 -124 -393 0
-795 -125 0
-795 50 0
-795 -122 143 0
-795 -123 144 0
-795 -124 145 0
-795 -194 0
-796 191 0
-796 -30 -122 -127 0
-796 -30 -123 -128 0
-796 -30 -124 -129 0
-796 24 0
-796 -24 -122 1053 334 0
-796 -24 -123 1053 340 0
-796 -24 -124 1053 346 0
-796 -122 -310 0
-796 -122 -358 0
-796 -122 -382 0
-796 -122 -316 0
-796 -122 -364 0
-796 -122 -388 0
-796 -122 -322 0
-796 -122 -370 0
-796 -122 -394 0
-796 -123 -316 0
-796 -123 -364 0
-796 -123 -388 0
-796 -123 -322 0
-796 -123 -370 0
-796 -123 -394 0
-796 -124 -322 0
-796 -124 -370 0
-796 -124 -394 0
-796 -125 0
-796 51 0
-796 -122 143 0
-796 -123 144 0
-796 -124 145 0
-796 -194 0
-797 191 0
-797 -31 -122 -127 0
-797 -31 -123 -128 0
-797 -31 -124 -129 0
-797 25 0
-797 -25 -122 1054 335 0
-797 -25 -123 1054 341 0
-797 -25 -124 1054 347 0
-797 -122 -311 0
-797 -122 -359 0
-797 -122 -383 0
-797 -122 -317 0
-797 -122 -365 0
-797 -122 -389 0
-797 -122 -323 0
-797 -122 -371 0
-797 -122 -395 0
-797 -123 -317 0
-797 -123 -365 0
-797 -123 -389 0
-797 -123 -323 0
-797 -123 -371 0
-797 -123 -395 0
-797 -124 -323 0
-797 -124 -371 0
-797 -124 -395 0
-797 -125 0
-797 52 0
-797 -122 143 0
-797 -123 144 0
-797 -124 145 0
-797 -194 0
-798 191 0
-798 -32 -122 -127 0
-798 -32 -123 -128 0
-798 -32 -124 -129 0
-798 26 0
-798 -26 -122 1055 336 0
-798 -26 -123 1055 342 0
-798 -26 -124 1055 348 0
-798 -122 -312 0
-798 -122 -360 0
-798 -122 -384 0
-798 -122 -318 0
-798 -122 -366 0
-798 -122 -390 0
-798 -122 -324 0
-798 -122 -372 0
-798 -122 -396 0
-798 -123 -318 0
-798 -123 -366 0
-798 -123 -390 0
-798 -123 -324 0
-798 -123 -372 0
-798 -123 -396 0
-798 -124 -324 0
-798 -124 -372 0
-798 -124 -396 0
-798 -125 0
-798 53 0
-798 -122 143 0
-798 -123 144 0
-798 -124 145 0
-798 -194 0
-799 191 0
-799 -33 -122 -127 0
-799 -33 -123 -128 0
-799 -33 -124 -129 0
-799 27 0
-799 -27 -122 1056 337 0
-799 -27 -123 1056 343 0
-799 -27 -124 1056 349 0
-799 -122 -313 0
-799 -122 -361 0
-799 -122 -385 0
-799 -122 -319 0
-799 -122 -367 0
-799 -122 -391 0
-799 -122 -325 0
-799 -122 -373 0
-799 -122 -397 0
-799 -123 -319 0
-799 -123 -367 0
-799 -123 -391 0
-799 -123 -325 0
-799 -123 -373 0
-799 -123 -397 0
-799 -124 -325 0
-799 -124 -373 0
-799 -124 -397 0
-799 -125 0
-799 54 0
-799 -122 143 0
-799 -123 144 0
-799 -124 145 0
-799 -194 0
-800 191 0
-800 -28 -130 -127 0
-800 -28 -131 -128 0
-800 -28 -132 -129 0
-800 34 0
-800 -34 -130 1063 332 0
-800 -34 -131 1063 338 0
-800 -34 -132 1063 344 0
-800 -130 -308 0
-800 -130 -356 0
-800 -130 -380 0
-800 -130 -314 0
-800 -130 -362 0
-800 -130 -386 0
-800 -130 -320 0
-800 -130 -368 0
-800 -130 -392 0
-800 -131 -314 0
-800 -131 -362 0
-800 -131 -386 0
-800 -131 -320 0
-800 -131 -368 0
-800 -131 -392 0
-800 -132 -320 0
-800 -132 -368 0
-800 -132 -392 0
-800 -133 0
-800 49 0
-800 -130 143 0
-800 -131 144 0
-800 -132 145 0
-800 -196 0
-801 191 0
-801 -29 -130 -127 0
-801 -29 -131 -128 0
-801 -29 -132 -129 0
-801 34 35 0
-801 -34 -130 1064 333 0
-801 -34 -131 1064 339 0
-801 -34 -132 1064 345 0
-801 -35 -130 1064 333 0
-801 -35 -131 1064 339 0
-801 -35 -132 1064 345 0
-801 -130 -309 0
-801 -130 -357 0
-801 -130 -381 0
-801 -130 -315 0
-801 -130 -363 0
-801 -130 -387 0
-801 -130 -321 0
-801 -130 -369 0
-801 -130 -393 0
-801 -131 -315 0
-801 -131 -363 0
-801 -131 -387 0
-801 -131 -321 0
-801 -131 -369 0
-801 -131 -393 0
-801 -132 -321 0
-801 -132 -369 0
-801 -132 -393 0
-801 -133 0
-801 50 0
-801 -130 143 0
-801 -131 144 0
-801 -132 145 0
-801 -196 0
-802 191 0
-802 -30 -130 -127 0
-802 -30 -131 -128 0
-802 -30 -132 -129 0
-802 35 36 0
-802 -35 -130 1065 334 0
-802 -35 -131 1065 340 0
-802 -35 -132 1065 346 0
-802 -36 -130 1065 334 0
-802 -36 -131 1065 340 0
-802 -36 -132 1065 346 0
-802 -130 -310 0
-802 -130 -358 0
-802 -130 -382 0
-802 -130 -316 0
-802 -130 -364 0
-802 -130 -388 0
-802 -130 -322 0
-802 -130 -370 0
-802 -130 -394 0
-802 -131 -316 0
-802 -131 -364 0
-802 -131 -388 0
-802 -131 -322 0
-802 -131 -370 0
-802 -131 -394 0
-802 -132 -322 0
-802 -132 -370 0
-802 -132 -394 0
-802 -133 0
-802 51 0
-802 -130 143 0
-802 -131 144 0
-802 -132 145 0
-802 -196 0
-803 191 0
-803 -31 -130 -127 0
-803 -31 -131 -128 0
-803 -31 -132 -129 0
-803 36 37 0
-803 -36 -130 1066 335 0
-803 -36 -131 1066 341 0
-803 -36 -132 1066 347 0
-803 -37 -130 1066 335 0
-803 -37 -131 1066 341 0
-803 -37 -132 1066 347 0
-803 -130 -311 0
-803 -130 -359 0
-803 -130 -383 0
-803 -130 -317 0
-803 -130 -365 0
-803 -130 -389 0
-803 -130 -323 0
-803 -130 -371 0
-803 -130 -395 0
-803 -131 -317 0
-803 -131 -365 0
-803 -131 -389 0
-803 -131 -323 0
-803 -131 -371 0
-803 -131 -395 0
-803 -132 -323 0
-803 -132 -371 0
-803 -132 -395 0
-803 -133 0
-803 52 0
-803 -130 143 0
-803 -131 144 0
-803 -132 145 0
-803 -196 0
-804 191 0
-804 -32 -130 -127 0
-804 -32 -131 -128 0
-804 -32 -132 -129 0
-804 37 38 0
-804 -37 -130 1067 336 0
-804 -37 -131 1067 342 0
-804 -37 -132 1067 348 0
-804 -38 -130 1067 336 0
-804 -38 -131 1067 342 0
-804 -38 -132 1067 348 0
-804 -130 -312 0
-804 -130 -360 0
-804 -130 -384 0
-804 -130 -318 0
-804 -130 -366 0
-804 -130 -390 0
-804 -130 -324 0
-804 -130 -372 0
-804 -130 -396 0
-804 -131 -318 0
-804 -131 -366 0
-804 -131 -390 0
-804 -131 -324 0
-804 -131 -372 0
-804 -131 -396 0
-804 -132 -324 0
-804 -132 -372 0
-804 -132 -396 0
-804 -133 0
-804 53 0
-804 -130 143 0
-804 -131 144 0
-804 -132 145 0
-804 -196 0
-805 191 0
-805 -33 -130 -127 0
-805 -33 -131 -128 0
-805 -33 -132 -129 0
-805 38 0
-805 -38 -130 1068 337 0
-805 -38 -131 1068 343 0
-805 -38 -132 1068 349 0
-805 -130 -313 0
-805 -130 -361 0
-805 -130 -385 0
-805 -130 -319 0
-805 -130 -367 0
-805 -130 -391 0
-805 -130 -325 0
-805 -130 -373 0
-805 -130 -397 0
-805 -131 -319 0
-805 -131 -367 0
-805 -131 -391 0
-805 -131 -325 0
-805 -131 -373 0
-805 -131 -397 0
-805 -132 -325 0
-805 -132 -373 0
-805 -132 -397 0
-805 -133 0
-805 54 0
-805 -130 143 0
-805 -131 144 0
-805 -132 145 0
-805 -196 0
-806 191 0
-806 -28 -134 -127 0
-806 -28 -135 -128 0
-806 -28 -136 -129 0
-806 39 0
-806 -39 -134 1069 332 0
-806 -39 -135 1069 338 0
-806 -39 -136 1069 344 0
-806 -134 -308 0
-806 -134 -356 0
-806 -134 -380 0
-806 -134 -314 0
-806 -134 -362 0
-806 -134 -386 0
-806 -134 -320 0
-806 -134 -368 0
-806 -134 -392 0
-806 -135 -314 0
-806 -135 -362 0
-806 -135 -386 0
-806 -135 -320 0
-806 -135 -368 0
-806 -135 -392 0
-806 -136 -320 0
-806 -136 -368 0
-806 -136 -392 0
-806 -137 0
-806 49 0
-806 -134 143 0
-806 -135 144 0
-806 -136 145 0
-806 -197 0
-807 191 0
-807 -29 -134 -127 0
-807 -29 -135 -128 0
-807 -29 -136 -129 0
-807 39 40 0
-807 -39 -134 1070 333 0
-807 -39 -135 1070 339 0
-807 -39 -136 1070 345 0
-807 -40 -134 1070 333 0
-807 -40 -135 1070 339 0
-807 -40 -136 1070 345 0
-807 -134 -309 0
-807 -134 -357 0
-807 -134 -381 0
-807 -134 -315 0
-807 -134 -363 0
-807 -134 -387 0
-807 -134 -321 0
-807 -134 -369 0
-807 -134 -393 0
-807 -135 -315 0
-807 -135 -363 0
-807 -135 -387 0
-807 -135 -321 0
-807 -135 -369 0
-807 -135 -393 0
-807 -136 -321 0
-807 -136 -369 0
-807 -136 -393 0
-807 -137 0
-807 50 0
-807 -134 143 0
-807 -135 144 0
-807 -136 145 0
-807 -197 0
-808 191 0
-808 -30 -134 -127 0
-808 -30 -135 -128 0
-808 -30 -136 -129 0
-808 39 40 41 0
-808 -39 -134 1071 334 0
-808 -39 -135 1071 340 0
-808 -39 -136 1071 346 0
-808 -40 -134 1071 334 0
-808 -40 -135 1071 340 0
-808 -40 -136 1071 346 0
-808 -41 -134 1071 334 0
-808 -41 -135 1071 340 0
-808 -41 -136 1071 346 0
-808 -134 -310 0
-808 -134 -358 0
-808 -134 -382 0
-808 -134 -316 0
-808 -134 -364 0
-808 -134 -388 0
-808 -134 -322 0
-808 -134 -370 0
-808 -134 -394 0
-808 -135 -316 0
-808 -135 -364 0
-808 -135 -388 0
-808 -135 -322 0
-808 -135 -370 0
-808 -135 -394 0
-808 -136 -322 0
-808 -136 -370 0
-808 -136 -394 0
-808 -137 0
-808 51 0
-808 -134 143 0
-808 -135 144 0
-808 -136 145 0
-808 -197 0
-809 191 0
-809 -31 -134 -127 0
-809 -31 -135 -128 0
-809 -31 -136 -129 0
-809 40 41 42 0
-809 -40 -134 1072 335 0
-809 -40 -135 1072 341 0
-809 -40 -136 1072 347 0
-809 -41 -134 1072 335 0
-809 -41 -135 1072 341 0
-809 -41 -136 1072 347 0
-809 -42 -134 1072 335 0
-809 -42 -135 1072 341 0
-809 -42 -136 1072 347 0
-809 -134 -311 0
-809 -134 -359 0
-809 -134 -383 0
-809 -134 -317 0
-809 -134 -365 0
-809 -134 -389 0
-809 -134 -323 0
-809 -134 -371 0
-809 -134 -395 0
-809 -135 -317 0
-809 -135 -365 0
-809 -135 -389 0
-809 -135 -323 0
-809 -135 -371 0
-809 -135 -395 0
-809 -136 -323 0
-809 -136 -371 0
-809 -136 -395 0
-809 -137 0
-809 52 0
-809 -134 143 0
-809 -135 144 0
-809 -136 145 0
-809 -197 0
-810 191 0
-810 -32 -134 -127 0
-810 -32 -135 -128 0
-810 -32 -136 -129 0
-810 41 42 0
-810 -41 -134 1073 336 0
-810 -41 -135 1073 342 0
-810 -41 -136 1073 348 0
-810 -42 -134 1073 336 0
-810 -42 -135 1073 342 0
-810 -42 -136 1073 348 0
-810 -134 -312 0
-810 -134 -360 0
-810 -134 -384 0
-810 -134 -318 0
-810 -134 -366 0
-810 -134 -390 0
-810 -134 -324 0
-810 -134 -372 0
-810 -134 -396 0
-810 -135 -318 0
-810 -135 -366 0
-810 -135 -390 0
-810 -135 -324 0
-810 -135 -372 0
-810 -135 -396 0
-810 -136 -324 0
-810 -136 -372 0
-810 -136 -396 0
-810 -137 0
-810 53 0
-810 -134 143 0
-810 -135 144 0
-810 -136 145 0
-810 -197 0
-811 191 0
-811 -33 -134 -127 0
-811 -33 -135 -128 0
-811 -33 -136 -129 0
-811 42 0
-811 -42 -134 1074 337 0
-811 -42 -135 1074 343 0
-811 -42 -136 1074 349 0
-811 -134 -313 0
-811 -134 -361 0
-811 -134 -385 0
-811 -134 -319 0
-811 -134 -367 0
-811 -134 -391 0
-811 -134 -325 0
-811 -134 -373 0
-811 -134 -397 0
-811 -135 -319 0
-811 -135 -367 0
-811 -135 -391 0
-811 -135 -325 0
-811 -135 -373 0
-811 -135 -397 0
-811 -136 -325 0
-811 -136 -373 0
-811 -136 -397 0
-811 -137 0
-811 54 0
-811 -134 143 0
-811 -135 144 0
-811 -136 145 0
-811 -197 0
-812 191 0
-812 -28 -126 0
-812 -302 0
-812 -350 0
-812 -374 0
-812 -308 0
-812 -356 0
-812 -380 0
-812 -314 0
-812 -362 0
-812 -386 0
-812 -320 0
-812 -368 0
-812 -392 0
-812 49 0
-812 142 0
-813 191 0
-813 -29 -126 0
-813 -303 0
-813 -351 0
-813 -375 0
-813 -309 0
-813 -357 0
-813 -381 0
-813 -315 0
-813 -363 0
-813 -387 0
-813 -321 0
-813 -369 0
-813 -393 0
-813 50 0
-813 142 0
-814 191 0
-814 -30 -126 0
-814 -304 0
-814 -352 0
-814 -376 0
-814 -310 0
-814 -358 0
-814 -382 0
-814 -316 0
-814 -364 0
-814 -388 0
-814 -322 0
-814 -370 0
-814 -394 0
-814 51 0
-814 142 0
-815 191 0
-815 -31 -126 0
-815 -305 0
-815 -353 0
-815 -377 0
-815 -311 0
-815 -359 0
-815 -383 0
-815 -317 0
-815 -365 0
-815 -389 0
-815 -323 0
-815 -371 0
-815 -395 0
-815 52 0
-815 142 0
-816 191 0
-816 -32 -126 0
-816 -306 0
-816 -354 0
-816 -378 0
-816 -312 0
-816 -360 0
-816 -384 0
-816 -318 0
-816 -366 0
-816 -390 0
-816 -324 0
-816 -372 0
-816 -396 0
-816 53 0
-816 142 0
-817 191 0
-817 -33 -126 0
-817 -307 0
-817 -355 0
-817 -379 0
-817 -313 0
-817 -361 0
-817 -385 0
-817 -319 0
-817 -367 0
-817 -391 0
-817 -325 0
-817 -373 0
-817 -397 0
-817 54 0
-817 142 0
-818 192 0
-818 -34 -122 -131 0
-818 -34 -123 -132 0
-818 -34 -124 -133 0
-818 22 23 0
-818 -22 -122 1051 356 0
-818 -22 -123 1051 362 0
-818 -22 -124 1051 368 0
-818 -23 -122 1052 357 0
-818 -23 -123 1052 363 0
-818 -23 -124 1052 369 0
-818 -122 -308 0
-818 -122 -332 0
-818 -122 -380 0
-818 -122 -314 0
-818 -122 -338 0
-818 -122 -386 0
-818 -122 -320 0
-818 -122 -344 0
-818 -122 -392 0
-818 -122 -309 0
-818 -122 -333 0
-818 -122 -381 0
-818 -122 -315 0
-818 -122 -339 0
-818 -122 -387 0
-818 -122 -321 0
-818 -122 -345 0
-818 -122 -393 0
-818 -123 -314 0
-818 -123 -338 0
-818 -123 -386 0
-818 -123 -320 0
-818 -123 -344 0
-818 -123 -392 0
-818 -123 -315 0
-818 -123 -339 0
-818 -123 -387 0
-818 -123 -321 0
-818 -123 -345 0
-818 -123 -393 0
-818 -124 -320 0
-818 -124 -344 0
-818 -124 -392 0
-818 -124 -321 0
-818 -124 -345 0
-818 -124 -393 0
-818 -125 0
-818 55 0
-818 -122 147 0
-818 -123 148 0
-818 -124 149 0
-818 -194 0
-819 192 0
-819 -35 -122 -131 0
-819 -35 -123 -132 0
-819 -35 -124 -133 0
-819 23 24 0
-819 -23 -122 1052 357 0
-819 -23 -123 1052 363 0
-819 -23 -124 1052 369 0
-819 -24 -122 1053 358 0
-819 -24 -123 1053 364 0
-819 -24 -124 1053 370 0
-819 -122 -309 0
-819 -122 -333 0
-819 -122 -381 0
-819 -122 -315 0
-819 -122 -339 0
-819 -122 -387 0
-819 -122 -321 0
-819 -122 -345 0
-819 -122 -393 0
-819 -122 -310 0
-819 -122 -334 0
-819 -122 -382 0
-819 -122 -316 0
-819 -122 -340 0
-819 -122 -388 0
-819 -122 -322 0
-819 -122 -346 0
-819 -122 -394 0
-819 -123 -315 0
-819 -123 -339 0
-819 -123 -387 0
-819 -123 -321 0
-819 -123 -345 0
-819 -123 -393 0
-819 -123 -316 0
-819 -123 -340 0
-819 -123 -388 0
-819 -123 -322 0
-819 -123 -346 0
-819 -123 -394 0
-819 -124 -321 0
-819 -124 -345 0
-819 -124 -393 0
-819 -124 -322 0
-819 -124 -346 0
-819 -124 -394 0
-819 -125 0
-819 56 0
-819 -122 147 0
-819 -123 148 0
-819 -124 149 0
-819 -194 0
-820 192 0
-820 -36 -122 -131 0
-820 -36 -123 -132 0
-820 -36 -124 -133 0
-820 24 25 0
-820 -24 -122 1053 358 0
-820 -24 -123 1053 364 0
-820 -24 -124 1053 370 0
-820 -25 -122 1054 359 0
-820 -25 -123 1054 365 0
-820 -25 -124 1054 371 0
-820 -122 -310 0
-820 -122 -334 0
-820 -122 -382 0
-820 -122 -316 0
-820 -122 -340 0
-820 -122 -388 0
-820 -122 -322 0
-820 -122 -346 0
-820 -122 -394 0
-820 -122 -311 0
-820 -122 -335 0
-820 -122 -383 0
-820 -122 -317 0
-820 -122 -341 0
-820 -122 -389 0
-820 -122 -323 0
-820 -122 -347 0
-820 -122 -395 0
-820 -123 -316 0
-820 -123 -340 0
-820 -123 -388 0
-820 -123 -322 0
-820 -123 -346 0
-820 -123 -394 0
-820 -123 -317 0
-820 -123 -341 0
-820 -123 -389 0
-820 -123 -323 0
-820 -123 -347 0
-820 -123 -395 0
-820 -124 -322 0
-820 -124 -346 0
-820 -124 -394 0
-820 -124 -323 0
-820 -124 -347 0
-820 -124 -395 0
-820 -125 0
-820 57 0
-820 -122 147 0
-820 -123 148 0
-820 -124 149 0
-820 -194 0
-821 192 0
-821 -37 -122 -131 0
-821 -37 -123 -132 0
-821 -37 -124 -133 0
-821 25 26 0
-821 -25 -122 1054 359 0
-821 -25 -123 1054 365 0
-821 -25 -124 1054 371 0
-821 -26 -122 1055 360 0
-821 -26 -123 1055 366 0
-821 -26 -124 1055 372 0
-821 -122 -311 0
-821 -122 -335 0
-821 -122 -383 0
-821 -122 -317 0
-821 -122 -341 0
-821 -122 -389 0
-821 -122 -323 0
-821 -122 -347 0
-821 -122 -395 0
-821 -122 -312 0
-821 -122 -336 0
-821 -122 -384 0
-821 -122 -318 0
-821 -122 -342 0
-821 -122 -390 0
-821 -122 -324 0
-821 -122 -348 0
-821 -122 -396 0
-821 -123 -317 0
-821 -123 -341 0
-821 -123 -389 0
-821 -123 -323 0
-821 -123 -347 0
-821 -123 -395 0
-821 -123 -318 0
-821 -123 -342 0
-821 -123 -390 0
-821 -123 -324 0
-821 -123 -348 0
-821 -123 -396 0
-821 -124 -323 0
-821 -124 -347 0
-821 -124 -395 0
-821 -124 -324 0
-821 -124 -348 0
-821 -124 -396 0
-821 -125 0
-821 58 0
-821 -122 147 0
-821 -123 148 0
-821 -124 149 0
-821 -194 0
-822 192 0
-822 -38 -122 -131 0
-822 -38 -123 -132 0
-822 -38 -124 -133 0
-822 26 27 0
-822 -26 -122 1055 360 0
-822 -26 -123 1055 366 0
-822 -26 -124 1055 372 0
-822 -27 -122 1056 361 0
-822 -27 -123 1056 367 0
-822 -27 -124 1056 373 0
-822 -122 -312 0
-822 -122 -336 0
-822 -122 -384 0
-822 -122 -318 0
-822 -122 -342 0
-822 -122 -390 0
-822 -122 -324 0
-822 -122 -348 0
-822 -122 -396 0
-822 -122 -313 0
-822 -122 -337 0
-822 -122 -385 0
-822 -122 -319 0
-822 -122 -343 0
-822 -122 -391 0
-822 -122 -325 0
-822 -122 -349 0
-822 -122 -397 0
-822 -123 -318 0
-822 -123 -342 0
-822 -123 -390 0
-822 -123 -324 0
-822 -123 -348 0
-822 -123 -396 0
-822 -123 -319 0
-822 -123 -343 0
-822 -123 -391 0
-822 -123 -325 0
-822 -123 -349 0
-822 -123 -397 0
-822 -124 -324 0
-822 -124 -348 0
-822 -124 -396 0
-822 -124 -325 0
-822 -124 -349 0
-822 -124 -397 0
-822 -125 0
-822 59 0
-822 -122 147 0
-822 -123 148 0
-822 -124 149 0
-822 -194 0
-823 192 0
-823 -34 -126 -131 0
-823 -34 -127 -132 0
-823 -34 -128 -133 0
-823 28 29 0
-823 -28 -126 1057 356 0
-823 -28 -127 1057 362 0
-823 -28 -128 1057 368 0
-823 -29 -126 1058 357 0
-823 -29 -127 1058 363 0
-823 -29 -128 1058 369 0
-823 -126 -308 0
-823 -126 -332 0
-823 -126 -380 0
-823 -126 -314 0
-823 -126 -338 0
-823 -126 -386 0
-823 -126 -320 0
-823 -126 -344 0
-823 -126 -392 0
-823 -126 -309 0
-823 -126 -333 0
-823 -126 -381 0
-823 -126 -315 0
-823 -126 -339 0
-823 -126 -387 0
-823 -126 -321 0
-823 -126 -345 0
-823 -126 -393 0
-823 -127 -314 0
-823 -127 -338 0
-823 -127 -386 0
-823 -127 -320 0
-823 -127 -344 0
-823 -127 -392 0
-823 -127 -315 0
-823 -127 -339 0
-823 -127 -387 0
-823 -127 -321 0
-823 -127 -345 0
-823 -127 -393 0
-823 -128 -320 0
-823 -128 -344 0
-823 -128 -392 0
-823 -128 -321 0
-823 -128 -345 0
-823 -128 -393 0
-823 -129 0
-823 55 0
-823 -126 147 0
-823 -127 148 0
-823 -128 149 0
-823 -195 0
-824 192 0
-824 -35 -126 -131 0
-824 -35 -127 -132 0
-824 -35 -128 -133 0
-824 29 30 0
-824 -29 -126 1058 357 0
-824 -29 -127 1058 363 0
-824 -29 -128 1058 369 0
-824 -30 -126 1059 358 0
-824 -30 -127 1059 364 0
-824 -30 -128 1059 370 0
-824 -126 -309 0
-824 -126 -333 0
-824 -126 -381 0
-824 -126 -315 0
-824 -126 -339 0
-824 -126 -387 0
-824 -126 -321 0
-824 -126 -345 0
-824 -126 -393 0
-824 -126 -310 0
-824 -126 -334 0
-824 -126 -382 0
-824 -126 -316 0
-824 -126 -340 0
-824 -126 -388 0
-824 -126 -322 0
-824 -126 -346 0
-824 -126 -394 0
-824 -127 -315 0
-824 -127 -339 0
-824 -127 -387 0
-824 -127 -321 0
-824 -127 -345 0
-824 -127 -393 0
-824 -127 -316 0
-824 -127 -340 0
-824 -127 -388 0
-824 -127 -322 0
-824 -127 -346 0
-824 -127 -394 0
-824 -128 -321 0
-824 -128 -345 0
-824 -128 -393 0
-824 -128 -322 0
-824 -128 -346 0
-824 -128 -394 0
-824 -129 0
-824 56 0
-824 -126 147 0
-824 -127 148 0
-824 -128 149 0
-824 -195 0
-825 192 0
-825 -36 -126 -131 0
-825 -36 -127 -132 0
-825 -36 -128 -133 0
-825 30 31 0
-825 -30 -126 1059 358 0
-825 -30 -127 1059 364 0
-825 -30 -128 1059 370 0
-825 -31 -126 1060 359 0
-825 -31 -127 1060 365 0
-825 -31 -128 1060 371 0
-825 -126 -310 0
-825 -126 -334 0
-825 -126 -382 0
-825 -126 -316 0
-825 -126 -340 0
-825 -126 -388 0
-825 -126 -322 0
-825 -126 -346 0
-825 -126 -394 0
-825 -126 -311 0
-825 -126 -335 0
-825 -126 -383 0
-825 -126 -317 0
-825 -126 -341 0
-825 -126 -389 0
-825 -126 -323 0
-825 -126 -347 0
-825 -126 -395 0
-825 -127 -316 0
-825 -127 -340 0
-825 -127 -388 0
-825 -127 -322 0
-825 -127 -346 0
-825 -127 -394 0
-825 -127 -317 0
-825 -127 -341 0
-825 -127 -389 0
-825 -127 -323 0
-825 -127 -347 0
-825 -127 -395 0
-825 -128 -322 0
-825 -128 -346 0
-825 -128 -394 0
-825 -128 -323 0
-825 -128 -347 0
-825 -128 -395 0
-825 -129 0
-825 57 0
-825 -126 147 0
-825 -127 148 0
-825 -128 149 0
-825 -195 0
-826 192 0
-826 -37 -126 -131 0
-826 -37 -127 -132 0
-826 -37 -128 -133 0
-826 31 32 0
-826 -31 -126 1060 359 0
-826 -31 -127 1060 365 0
-826 -31 -128 1060 371 0
-826 -32 -126 1061 360 0
-826 -32 -127 1061 366 0
-826 -32 -128 1061 372 0
-826 -126 -311 0
-826 -126 -335 0
-826 -126 -383 0
-826 -126 -317 0
-826 -126 -341 0
-826 -126 -389 0
-826 -126 -323 0
-826 -126 -347 0
-826 -126 -395 0
-826 -126 -312 0
-826 -126 -336 0
-826 -126 -384 0
-826 -126 -318 0
-826 -126 -342 0
-826 -126 -390 0
-826 -126 -324 0
-826 -126 -348 0
-826 -126 -396 0
-826 -127 -317 0
-826 -127 -341 0
-826 -127 -389 0
-826 -127 -323 0
-826 -127 -347 0
-826 -127 -395 0
-826 -127 -318 0
-826 -127 -342 0
-826 -127 -390 0
-826 -127 -324 0
-826 -127 -348 0
-826 -127 -396 0
-826 -128 -323 0
-826 -128 -347 0
-826 -128 -395 0
-826 -128 -324 0
-826 -128 -348 0
-826 -128 -396 0
-826 -129 0
-826 58 0
-826 -126 147 0
-826 -127 148 0
-826 -128 149 0
-826 -195 0
-827 192 0
-827 -38 -126 -131 0
-827 -38 -127 -132 0
-827 -38 -128 -133 0
-827 32 33 0
-827 -32 -126 1061 360 0
-827 -32 -127 1061 366 0
-827 -32 -128 1061 372 0
-827 -33 -126 1062 361 0
-827 -33 -127 1062 367 0
-827 -33 -128 1062 373 0
-827 -126 -312 0
-827 -126 -336 0
-827 -126 -384 0
-827 -126 -318 0
-827 -126 -342 0
-827 -126 -390 0
-827 -126 -324 0
-827 -126 -348 0
-827 -126 -396 0
-827 -126 -313 0
-827 -126 -337 0
-827 -126 -385 0
-827 -126 -319 0
-827 -126 -343 0
-827 -126 -391 0
-827 -126 -325 0
-827 -126 -349 0
-827 -126 -397 0
-827 -127 -318 0
-827 -127 -342 0
-827 -127 -390 0
-827 -127 -324 0
-827 -127 -348 0
-827 -127 -396 0
-827 -127 -319 0
-827 -127 -343 0
-827 -127 -391 0
-827 -127 -325 0
-827 -127 -349 0
-827 -127 -397 0
-827 -128 -324 0
-827 -128 -348 0
-827 -128 -396 0
-827 -128 -325 0
-827 -128 -349 0
-827 -128 -397 0
-827 -129 0
-827 59 0
-827 -126 147 0
-827 -127 148 0
-827 -128 149 0
-827 -195 0
-828 192 0
-828 -34 -134 -131 0
-828 -34 -135 -132 0
-828 -34 -136 -133 0
-828 39 40 0
-828 -39 -134 1069 356 0
-828 -39 -135 1069 362 0
-828 -39 -136 1069 368 0
-828 -39 -134 1070 357 0
-828 -39 -135 1070 363 0
-828 -39 -136 1070 369 0
-828 -40 -134 1070 357 0
-828 -40 -135 1070 363 0
-828 -40 -136 1070 369 0
-828 -134 -308 0
-828 -134 -332 0
-828 -134 -380 0
-828 -134 -314 0
-828 -134 -338 0
-828 -134 -386 0
-828 -134 -320 0
-828 -134 -344 0
-828 -134 -392 0
-828 -134 -309 0
-828 -134 -333 0
-828 -134 -381 0
-828 -134 -315 0
-828 -134 -339 0
-828 -134 -387 0
-828 -134 -321 0
-828 -134 -345 0
-828 -134 -393 0
-828 -135 -314 0
-828 -135 -338 0
-828 -135 -386 0
-828 -135 -320 0
-828 -135 -344 0
-828 -135 -392 0
-828 -135 -315 0
-828 -135 -339 0
-828 -135 -387 0
-828 -135 -321 0
-828 -135 -345 0
-828 -135 -393 0
-828 -136 -320 0
-828 -136 -344 0
-828 -136 -392 0
-828 -136 -321 0
-828 -136 -345 0
-828 -136 -393 0
-828 -137 0
-828 55 0
-828 -134 147 0
-828 -135 148 0
-828 -136 149 0
-828 -197 0
-829 192 0
-829 -35 -134 -131 0
-829 -35 -135 -132 0
-829 -35 -136 -133 0
-829 39 40 41 0
-829 -39 -134 1070 357 0
-829 -39 -135 1070 363 0
-829 -39 -136 1070 369 0
-829 -39 -134 1071 358 0
-829 -39 -135 1071 364 0
-829 -39 -136 1071 370 0
-829 -40 -134 1070 357 0
-829 -40 -135 1070 363 0
-829 -40 -136 1070 369 0
-829 -40 -134 1071 358 0
-829 -40 -135 1071 364 0
-829 -40 -136 1071 370 0
-829 -41 -134 1071 358 0
-829 -41 -135 1071 364 0
-829 -41 -136 1071 370 0
-829 -134 -309 0
-829 -134 -333 0
-829 -134 -381 0
-829 -134 -315 0
-829 -134 -339 0
-829 -134 -387 0
-829 -134 -321 0
-829 -134 -345 0
-829 -134 -393 0
-829 -134 -310 0
-829 -134 -334 0
-829 -134 -382 0
-829 -134 -316 0
-829 -134 -340 0
-829 -134 -388 0
-829 -134 -322 0
-829 -134 -346 0
-829 -134 -394 0
-829 -135 -315 0
-829 -135 -339 0
-829 -135 -387 0
-829 -135 -321 0
-829 -135 -345 0
-829 -135 -393 0
-829 -135 -316 0
-829 -135 -340 0
-829 -135 -388 0
-829 -135 -322 0
-829 -135 -346 0
-829 -135 -394 0
-829 -136 -321 0
-829 -136 -345 0
-829 -136 -393 0
-829 -136 -322 0
-829 -136 -346 0
-829 -136 -394 0
-829 -137 0
-829 56 0
-829 -134 147 0
-829 -135 148 0
-829 -136 149 0
-829 -197 0
-830 192 0
-830 -36 -134 -131 0
-830 -36 -135 -132 0
-830 -36 -136 -133 0
-830 39 40 41 42 0
-830 -39 -134 1071 358 0
-830 -39 -135 1071 364 0
-830 -39 -136 1071 370 0
-830 -40 -134 1071 358 0
-830 -40 -135 1071 364 0
-830 -40 -136 1071 370 0
-830 -40 -134 1072 359 0
-830 -40 -135 1072 365 0
-830 -40 -136 1072 371 0
-830 -41 -134 1071 358 0
-830 -41 -135 1071 364 0
-830 -41 -136 1071 370 0
-830 -41 -134 1072 359 0
-830 -41 -135 1072 365 0
-830 -41 -136 1072 371 0
-830 -42 -134 1072 359 0
-830 -42 -135 1072 365 0
-830 -42 -136 1072 371 0
-830 -134 -310 0
-830 -134 -334 0
-830 -134 -382 0
-830 -134 -316 0
-830 -134 -340 0
-830 -134 -388 0
-830 -134 -322 0
-830 -134 -346 0
-830 -134 -394 0
-830 -134 -311 0
-830 -134 -335 0
-830 -134 -383 0
-830 -134 -317 0
-830 -134 -341 0
-830 -134 -389 0
-830 -134 -323 0
-830 -134 -347 0
-830 -134 -395 0
-830 -135 -316 0
-830 -135 -340 0
-830 -135 -388 0
-830 -135 -322 0
-830 -135 -346 0
-830 -135 -394 0
-830 -135 -317 0
-830 -135 -341 0
-830 -135 -389 0
-830 -135 -323 0
-830 -135 -347 0
-830 -135 -395 0
-830 -136 -322 0
-830 -136 -346 0
-830 -136 -394 0
-830 -136 -323 0
-830 -136 -347 0
-830 -136 -395 0
-830 -137 0
-830 57 0
-830 -134 147 0
-830 -135 148 0
-830 -136 149 0
-830 -197 0
-831 192 0
-831 -37 -134 -131 0
-831 -37 -135 -132 0
-831 -37 -136 -133 0
-831 40 41 42 0
-831 -40 -134 1072 359 0
-831 -40 -135 1072 365 0
-831 -40 -136 1072 371 0
-831 -41 -134 1072 359 0
-831 -41 -135 1072 365 0
-831 -41 -136 1072 371 0
-831 -41 -134 1073 360 0
-831 -41 -135 1073 366 0
-831 -41 -136 1073 372 0
-831 -42 -134 1072 359 0
-831 -42 -135 1072 365 0
-831 -42 -136 1072 371 0
-831 -42 -134 1073 360 0
-831 -42 -135 1073 366 0
-831 -42 -136 1073 372 0
-831 -134 -311 0
-831 -134 -335 0
-831 -134 -383 0
-831 -134 -317 0
-831 -134 -341 0
-831 -134 -389 0
-831 -134 -323 0
-831 -134 -347 0
-831 -134 -395 0
-831 -134 -312 0
-831 -134 -336 0
-831 -134 -384 0
-831 -134 -318 0
-831 -134 -342 0
-831 -134 -390 0
-831 -134 -324 0
-831 -134 -348 0
-831 -134 -396 0
-831 -135 -317 0
-831 -135 -341 0
-831 -135 -389 0
-831 -135 -323 0
-831 -135 -347 0
-831 -135 -395 0
-831 -135 -318 0
-831 -135 -342 0
-831 -135 -390 0
-831 -135 -324 0
-831 -135 -348 0
-831 -135 -396 0
-831 -136 -323 0
-831 -136 -347 0
-831 -136 -395 0
-831 -136 -324 0
-831 -136 -348 0
-831 -136 -396 0
-831 -137 0
-831 58 0
-831 -134 147 0
-831 -135 148 0
-831 -136 149 0
-831 -197 0
-832 192 0
-832 -38 -134 -131 0
-832 -38 -135 -132 0
-832 -38 -136 -133 0
-832 41 42 0
-832 -41 -134 1073 360 0
-832 -41 -135 1073 366 0
-832 -41 -136 1073 372 0
-832 -42 -134 1073 360 0
-832 -42 -135 1073 366 0
-832 -42 -136 1073 372 0
-832 -42 -134 1074 361 0
-832 -42 -135 1074 367 0
-832 -42 -136 1074 373 0
-832 -134 -312 0
-832 -134 -336 0
-832 -134 -384 0
-832 -134 -318 0
-832 -134 -342 0
-832 -134 -390 0
-832 -134 -324 0
-832 -134 -348 0
-832 -134 -396 0
-832 -134 -313 0
-832 -134 -337 0
-832 -134 -385 0
-832 -134 -319 0
-832 -134 -343 0
-832 -134 -391 0
-832 -134 -325 0
-832 -134 -349 0
-832 -134 -397 0
-832 -135 -318 0
-832 -135 -342 0
-832 -135 -390 0
-832 -135 -324 0
-832 -135 -348 0
-832 -135 -396 0
-832 -135 -319 0
-832 -135 -343 0
-832 -135 -391 0
-832 -135 -325 0
-832 -135 -349 0
-832 -135 -397 0
-832 -136 -324 0
-832 -136 -348 0
-832 -136 -396 0
-832 -136 -325 0
-832 -136 -349 0
-832 -136 -397 0
-832 -137 0
-832 59 0
-832 -134 147 0
-832 -135 148 0
-832 -136 149 0
-832 -197 0
-833 192 0
-833 -34 -130 0
-833 -302 0
-833 -326 0
-833 -374 0
-833 -308 0
-833 -332 0
-833 -380 0
-833 -314 0
-833 -338 0
-833 -386 0
-833 -320 0
-833 -344 0
-833 -392 0
-833 -303 0
-833 -327 0
-833 -375 0
-833 -309 0
-833 -333 0
-833 -381 0
-833 -315 0
-833 -339 0
-833 -387 0
-833 -321 0
-833 -345 0
-833 -393 0
-833 55 0
-833 146 0
-834 192 0
-834 -35 -130 0
-834 -303 0
-834 -327 0
-834 -375 0
-834 -309 0
-834 -333 0
-834 -381 0
-834 -315 0
-834 -339 0
-834 -387 0
-834 -321 0
-834 -345 0
-834 -393 0
-834 -304 0
-834 -328 0
-834 -376 0
-834 -310 0
-834 -334 0
-834 -382 0
-834 -316 0
-834 -340 0
-834 -388 0
-834 -322 0
-834 -346 0
-834 -394 0
-834 56 0
-834 146 0
-835 192 0
-835 -36 -130 0
-835 -304 0
-835 -328 0
-835 -376 0
-835 -310 0
-835 -334 0
-835 -382 0
-835 -316 0
-835 -340 0
-835 -388 0
-835 -322 0
-835 -346 0
-835 -394 0
-835 -305 0
-835 -329 0
-835 -377 0
-835 -311 0
-835 -335 0
-835 -383 0
-835 -317 0
-835 -341 0
-835 -389 0
-835 -323 0
-835 -347 0
-835 -395 0
-835 57 0
-835 146 0
-836 192 0
-836 -37 -130 0
-836 -305 0
-836 -329 0
-836 -377 0
-836 -311 0
-836 -335 0
-836 -383 0
-836 -317 0
-836 -341 0
-836 -389 0
-836 -323 0
-836 -347 0
-836 -395 0
-836 -306 0
-836 -330 0
-836 -378 0
-836 -312 0
-836 -336 0
-836 -384 0
-836 -318 0
-836 -342 0
-836 -390 0
-836 -324 0
-836 -348 0
-836 -396 0
-836 58 0
-836 146 0
-837 192 0
-837 -38 -130 0
-837 -306 0
-837 -330 0
-837 -378 0
-837 -312 0
-837 -336 0
-837 -384 0
-837 -318 0
-837 -342 0
-837 -390 0
-837 -324 0
-837 -348 0
-837 -396 0
-837 -307 0
-837 -331 0
-837 -379 0
-837 -313 0
-837 -337 0
-837 -385 0
-837 -319 0
-837 -343 0
-837 -391 0
-837 -325 0
-837 -349 0
-837 -397 0
-837 59 0
-837 146 0
-838 193 0
-838 -39 -122 -135 0
-838 -39 -123 -136 0
-838 -39 -124 -137 0
-838 22 23 24 0
-838 -22 -122 1051 380 0
-838 -22 -123 1051 386 0
-838 -22 -124 1051 392 0
-838 -23 -122 1052 381 0
-838 -23 -123 1052 387 0
-838 -23 -124 1052 393 0
-838 -24 -122 1053 382 0
-838 -24 -123 1053 388 0
-838 -24 -124 1053 394 0
-838 -122 -308 0
-838 -122 -332 0
-838 -122 -356 0
-838 -122 -314 0
-838 -122 -338 0
-838 -122 -362 0
-838 -122 -320 0
-838 -122 -344 0
-838 -122 -368 0
-838 -122 -309 0
-838 -122 -333 0
-838 -122 -357 0
-838 -122 -315 0
-838 -122 -339 0
-838 -122 -363 0
-838 -122 -321 0
-838 -122 -345 0
-838 -122 -369 0
-838 -122 -310 0
-838 -122 -334 0
-838 -122 -358 0
-838 -122 -316 0
-838 -122 -340 0
-838 -122 -364 0
-838 -122 -322 0
-838 -122 -346 0
-838 -122 -370 0
-838 -123 -314 0
-838 -123 -338 0
-838 -123 -362 0
-838 -123 -320 0
-838 -123 -344 0
-838 -123 -368 0
-838 -123 -315 0
-838 -123 -339 0
-838 -123 -363 0
-838 -123 -321 0
-838 -123 -345 0
-838 -123 -369 0
-838 -123 -316 0
-838 -123 -340 0
-838 -123 -364 0
-838 -123 -322 0
-838 -123 -346 0
-838 -123 -370 0
-838 -124 -320 0
-838 -124 -344 0
-838 -124 -368 0
-838 -124 -321 0
-838 -124 -345 0
-838 -124 -369 0
-838 -124 -322 0
-838 -124 -346 0
-838 -124 -370 0
-838 -125 0
-838 60 0
-838 -122 151 0
-838 -123 152 0
-838 -124 153 0
-838 -194 0
-839 193 0
-839 -40 -122 -135 0
-839 -40 -123 -136 0
-839 -40 -124 -137 0
-839 23 24 25 0
-839 -23 -122 1052 381 0
-839 -23 -123 1052 387 0
-839 -23 -124 1052 393 0
-839 -24 -122 1053 382 0
-839 -24 -123 1053 388 0
-839 -24 -124 1053 394 0
-839 -25 -122 1054 383 0
-839 -25 -123 1054 389 0
-839 -25 -124 1054 395 0
-839 -122 -309 0
-839 -122 -333 0
-839 -122 -357 0
-839 -122 -315 0
-839 -122 -339 0
-839 -122 -363 0
-839 -122 -321 0
-839 -122 -345 0
-839 -122 -369 0
-839 -122 -310 0
-839 -122 -334 0
-839 -122 -358 0
-839 -122 -316 0
-839 -122 -340 0
-839 -122 -364 0
-839 -122 -322 0
-839 -122 -346 0
-839 -122 -370 0
-839 -122 -311 0
-839 -122 -335 0
-839 -122 -359 0
-839 -122 -317 0
-839 -122 -341 0
-839 -122 -365 0
-839 -122 -323 0
-839 -122 -347 0
-839 -122 -371 0
-839 -123 -315 0
-839 -123 -339 0
-839 -123 -363 0
-839 -123 -321 0
-839 -123 -345 0
-839 -123 -369 0
-839 -123 -316 0
-839 -123 -340 0
-839 -123 -364 0
-839 -123 -322 0
-839 -123 -346 0
-839 -123 -370 0
-839 -123 -317 0
-839 -123 -341 0
-839 -123 -365 0
-839 -123 -323 0
-839 -123 -347 0
-839 -123 -371 0
-839 -124 -321 0
-839 -124 -345 0
-839 -124 -369 0
-839 -124 -322 0
-839 -124 -346 0
-839 -124 -370 0
-839 -124 -323 0
-839 -124 -347 0
-839 -124 -371 0
-839 -125 0
-839 61 0
-839 -122 151 0
-839 -123 152 0
-839 -124 153 0
-839 -194 0
-840 193 0
-840 -41 -122 -135 0
-840 -41 -123 -136 0
-840 -41 -124 -137 0
-840 24 25 26 0
-840 -24 -122 1053 382 0
-840 -24 -123 1053 388 0
-840 -24 -124 1053 394 0
-840 -25 -122 1054 383 0
-840 -25 -123 1054 389 0
-840 -25 -124 1054 395 0
-840 -26 -122 1055 384 0
-840 -26 -123 1055 390 0
-840 -26 -124 1055 396 0
-840 -122 -310 0
-840 -122 -334 0
-840 -122 -358 0
-840 -122 -316 0
-840 -122 -340 0
-840 -122 -364 0
-840 -122 -322 0
-840 -122 -346 0
-840 -122 -370 0
-840 -122 -311 0
-840 -122 -335 0
-840 -122 -359 0
-840 -122 -317 0
-840 -122 -341 0
-840 -122 -365 0
-840 -122 -323 0
-840 -122 -347 0
-840 -122 -371 0
-840 -122 -312 0
-840 -122 -336 0
-840 -122 -360 0
-840 -122 -318 0
-840 -122 -342 0
-840 -122 -366 0
-840 -122 -324 0
-840 -122 -348 0
-840 -122 -372 0
-840 -123 -316 0
-840 -123 -340 0
-840 -123 -364 0
-840 -123 -322 0
-840 -123 -346 0
-840 -123 -370 0
-840 -123 -317 0
-840 -123 -341 0
-840 -123 -365 0
-840 -123 -323 0
-840 -123 -347 0
-840 -123 -371 0
-840 -123 -318 0
-840 -123 -342 0
-840 -123 -366 0
-840 -123 -324 0
-840 -123 -348 0
-840 -123 -372 0
-840 -124 -322 0
-840 -124 -346 0
-840 -124 -370 0
-840 -124 -323 0
-840 -124 -347 0
-840 -124 -371 0
-840 -124 -324 0
-840 -124 -348 0
-840 -124 -372 0
-840 -125 0
-840 62 0
-840 -122 151 0
-840 -123 152 0
-840 -124 153 0
-840 -194 0
-841 193 0
-841 -42 -122 -135 0
-841 -42 -123 -136 0
-841 -42 -124 -137 0
-841 25 26 27 0
-841 -25 -122 1054 383 0
-841 -25 -123 1054 389 0
-841 -25 -124 1054 395 0
-841 -26 -122 1055 384 0
-841 -26 -123 1055 390 0
-841 -26 -124 1055 396 0
-841 -27 -122 1056 385 0
-841 -27 -123 1056 391 0
-841 -27 -124 1056 397 0
-841 -122 -311 0
-841 -122 -335 0
-841 -122 -359 0
-841 -122 -317 0
-841 -122 -341 0
-841 -122 -365 0
-841 -122 -323 0
-841 -122 -347 0
-841 -122 -371 0
-841 -122 -312 0
-841 -122 -336 0
-841 -122 -360 0
-841 -122 -318 0
-841 -122 -342 0
-841 -122 -366 0
-841 -122 -324 0
-841 -122 -348 0
-841 -122 -372 0
-841 -122 -313 0
-841 -122 -337 0
-841 -122 -361 0
-841 -122 -319 0
-841 -122 -343 0
-841 -122 -367 0
-841 -122 -325 0
-841 -122 -349 0
-841 -122 -373 0
-841 -123 -317 0
-841 -123 -341 0
-841 -123 -365 0
-841 -123 -323 0
-841 -123 -347 0
-841 -123 -371 0
-841 -123 -318 0
-841 -123 -342 0
-841 -123 -366 0
-841 -123 -324 0
-841 -123 -348 0
-841 -123 -372 0
-841 -123 -319 0
-841 -123 -343 0
-841 -123 -367 0
-841 -123 -325 0
-841 -123 -349 0
-841 -123 -373 0
-841 -124 -323 0
-841 -124 -347 0
-841 -124 -371 0
-841 -124 -324 0
-841 -124 -348 0
-841 -124 -372 0
-841 -124 -325 0
-841 -124 -349 0
-841 -124 -373 0
-841 -125 0
-841 63 0
-841 -122 151 0
-841 -123 152 0
-841 -124 153 0
-841 -194 0
-842 193 0
-842 -39 -126 -135 0
-842 -39 -127 -136 0
-842 -39 -128 -137 0
-842 28 29 30 0
-842 -28 -126 1057 380 0
-842 -28 -127 1057 386 0
-842 -28 -128 1057 392 0
-842 -29 -126 1058 381 0
-842 -29 -127 1058 387 0
-842 -29 -128 1058 393 0
-842 -30 -126 1059 382 0
-842 -30 -127 1059 388 0
-842 -30 -128 1059 394 0
-842 -126 -308 0
-842 -126 -332 0
-842 -126 -356 0
-842 -126 -314 0
-842 -126 -338 0
-842 -126 -362 0
-842 -126 -320 0
-842 -126 -344 0
-842 -126 -368 0
-842 -126 -309 0
-842 -126 -333 0
-842 -126 -357 0
-842 -126 -315 0
-842 -126 -339 0
-842 -126 -363 0
-842 -126 -321 0
-842 -126 -345 0
-842 -126 -369 0
-842 -126 -310 0
-842 -126 -334 0
-842 -126 -358 0
-842 -126 -316 0
-842 -126 -340 0
-842 -126 -364 0
-842 -126 -322 0
-842 -126 -346 0
-842 -126 -370 0
-842 -127 -314 0
-842 -127 -338 0
-842 -127 -362 0
-842 -127 -320 0
-842 -127 -344 0
-842 -127 -368 0
-842 -127 -315 0
-842 -127 -339 0
-842 -127 -363 0
-842 -127 -321 0
-842 -127 -345 0
-842 -127 -369 0
-842 -127 -316 0
-842 -127 -340 0
-842 -127 -364 0
-842 -127 -322 0
-842 -127 -346 0
-842 -127 -370 0
-842 -128 -320 0
-842 -128 -344 0
-842 -128 -368 0
-842 -128 -321 0
-842 -128 -345 0
-842 -128 -369 0
-842 -128 -322 0
-842 -128 -346 0
-842 -128 -370 0
-842 -129 0
-842 60 0
-842 -126 151 0
-842 -127 152 0
-842 -128 153 0
-842 -195 0
-843 193 0
-843 -40 -126 -135 0
-843 -40 -127 -136 0
-843 -40 -128 -137 0
-843 29 30 31 0
-843 -29 -126 1058 381 0
-843 -29 -127 1058 387 0
-843 -29 -128 1058 393 0
-843 -30 -126 1059 382 0
-843 -30 -127 1059 388 0
-843 -30 -128 1059 394 0
-843 -31 -126 1060 383 0
-843 -31 -127 1060 389 0
-843 -31 -128 1060 395 0
-843 -126 -309 0
-843 -126 -333 0
-843 -126 -357 0
-843 -126 -315 0
-843 -126 -339 0
-843 -126 -363 0
-843 -126 -321 0
-843 -126 -345 0
-843 -126 -369 0
-843 -126 -310 0
-843 -126 -334 0
-843 -126 -358 0
-843 -126 -316 0
-843 -126 -340 0
-843 -126 -364 0
-843 -126 -322 0
-843 -126 -346 0
-843 -126 -370 0
-843 -126 -311 0
-843 -126 -335 0
-843 -126 -359 0
-843 -126 -317 0
-843 -126 -341 0
-843 -126 -365 0
-843 -126 -323 0
-843 -126 -347 0
-843 -126 -371 0
-843 -127 -315 0
-843 -127 -339 0
-843 -127 -363 0
-843 -127 -321 0
-843 -127 -345 0
-843 -127 -369 0
-843 -127 -316 0
-843 -127 -340 0
-843 -127 -364 0
-843 -127 -322 0
-843 -127 -346 0
-843 -127 -370 0
-843 -127 -317 0
-843 -127 -341 0
-843 -127 -365 0
-843 -127 -323 0
-843 -127 -347 0
-843 -127 -371 0
-843 -128 -321 0
-843 -128 -345 0
-843 -128 -369 0
-843 -128 -322 0
-843 -128 -346 0
-843 -128 -370 0
-843 -128 -323 0
-843 -128 -347 0
-843 -128 -371 0
-843 -129 0
-843 61 0
-843 -126 151 0
-843 -127 152 0
-843 -128 153 0
-843 -195 0
-844 193 0
-844 -41 -126 -135 0
-844 -41 -127 -136 0
-844 -41 -128 -137 0
-844 30 31 32 0
-844 -30 -126 1059 382 0
-844 -30 -127 1059 388 0
-844 -30 -128 1059 394 0
-844 -31 -126 1060 383 0
-844 -31 -127 1060 389 0
-844 -31 -128 1060 395 0
-844 -32 -126 1061 384 0
-844 -32 -127 1061 390 0
-844 -32 -128 1061 396 0
-844 -126 -310 0
-844 -126 -334 0
-844 -126 -358 0
-844 -126 -316 0
-844 -126 -340 0
-844 -126 -364 0
-844 -126 -322 0
-844 -126 -346 0
-844 -126 -370 0
-844 -126 -311 0
-844 -126 -335 0
-844 -126 -359 0
-844 -126 -317 0
-844 -126 -341 0
-844 -126 -365 0
-844 -126 -323 0
-844 -126 -347 0
-844 -126 -371 0
-844 -126 -312 0
-844 -126 -336 0
-844 -126 -360 0
-844 -126 -318 0
-844 -126 -342 0
-844 -126 -366 0
-844 -126 -324 0
-844 -126 -348 0
-844 -126 -372 0
-844 -127 -316 0
-844 -127 -340 0
-844 -127 -364 0
-844 -127 -322 0
-844 -127 -346 0
-844 -127 -370 0
-844 -127 -317 0
-844 -127 -341 0
-844 -127 -365 0
-844 -127 -323 0
-844 -127 -347 0
-844 -127 -371 0
-844 -127 -318 0
-844 -127 -342 0
-844 -127 -366 0
-844 -127 -324 0
-844 -127 -348 0
-844 -127 -372 0
-844 -128 -322 0
-844 -128 -346 0
-844 -128 -370 0
-844 -128 -323 0
-844 -128 -347 0
-844 -128 -371 0
-844 -128 -324 0
-844 -128 -348 0
-844 -128 -372 0
-844 -129 0
-844 62 0
-844 -126 151 0
-844 -127 152 0
-844 -128 153 0
-844 -195 0
-845 193 0
-845 -42 -126 -135 0
-845 -42 -127 -136 0
-845 -42 -128 -137 0
-845 31 32 33 0
-845 -31 -126 1060 383 0
-845 -31 -127 1060 389 0
-845 -31 -128 1060 395 0
-845 -32 -126 1061 384 0
-845 -32 -127 1061 390 0
-845 -32 -128 1061 396 0
-845 -33 -126 1062 385 0
-845 -33 -127 1062 391 0
-845 -33 -128 1062 397 0
-845 -126 -311 0
-845 -126 -335 0
-845 -126 -359 0
-845 -126 -317 0
-845 -126 -341 0
-845 -126 -365 0
-845 -126 -323 0
-845 -126 -347 0
-845 -126 -371 0
-845 -126 -312 0
-845 -126 -336 0
-845 -126 -360 0
-845 -126 -318 0
-845 -126 -342 0
-845 -126 -366 0
-845 -126 -324 0
-845 -126 -348 0
-845 -126 -372 0
-845 -126 -313 0
-845 -126 -337 0
-845 -126 -361 0
-845 -126 -319 0
-845 -126 -343 0
-845 -126 -367 0
-845 -126 -325 0
-845 -126 -349 0
-845 -126 -373 0
-845 -127 -317 0
-845 -127 -341 0
-845 -127 -365 0
-845 -127 -323 0
-845 -127 -347 0
-845 -127 -371 0
-845 -127 -318 0
-845 -127 -342 0
-845 -127 -366 0
-845 -127 -324 0
-845 -127 -348 0
-845 -127 -372 0
-845 -127 -319 0
-845 -127 -343 0
-845 -127 -367 0
-845 -127 -325 0
-845 -127 -349 0
-845 -127 -373 0
-845 -128 -323 0
-845 -128 -347 0
-845 -128 -371 0
-845 -128 -324 0
-845 -128 -348 0
-845 -128 -372 0
-845 -128 -325 0
-845 -128 -349 0
-845 -128 -373 0
-845 -129 0
-845 63 0
-845 -126 151 0
-845 -127 152 0
-845 -128 153 0
-845 -195 0
-846 193 0
-846 -39 -130 -135 0
-846 -39 -131 -136 0
-846 -39 -132 -137 0
-846 34 35 36 0
-846 -34 -130 1063 380 0
-846 -34 -131 1063 386 0
-846 -34 -132 1063 392 0
-846 -34 -130 1064 381 0
-846 -34 -131 1064 387 0
-846 -34 -132 1064 393 0
-846 -35 -130 1064 381 0
-846 -35 -131 1064 387 0
-846 -35 -132 1064 393 0
-846 -35 -130 1065 382 0
-846 -35 -131 1065 388 0
-846 -35 -132 1065 394 0
-846 -36 -130 1065 382 0
-846 -36 -131 1065 388 0
-846 -36 -132 1065 394 0
-846 -130 -308 0
-846 -130 -332 0
-846 -130 -356 0
-846 -130 -314 0
-846 -130 -338 0
-846 -130 -362 0
-846 -130 -320 0
-846 -130 -344 0
-846 -130 -368 0
-846 -130 -309 0
-846 -130 -333 0
-846 -130 -357 0
-846 -130 -315 0
-846 -130 -339 0
-846 -130 -363 0
-846 -130 -321 0
-846 -130 -345 0
-846 -130 -369 0
-846 -130 -310 0
-846 -130 -334 0
-846 -130 -358 0
-846 -130 -316 0
-846 -130 -340 0
-846 -130 -364 0
-846 -130 -322 0
-846 -130 -346 0
-846 -130 -370 0
-846 -131 -314 0
-846 -131 -338 0
-846 -131 -362 0
-846 -131 -320 0
-846 -131 -344 0
-846 -131 -368 0
-846 -131 -315 0
-846 -131 -339 0
-846 -131 -363 0
-846 -131 -321 0
-846 -131 -345 0
-846 -131 -369 0
-846 -131 -316 0
-846 -131 -340 0
-846 -131 -364 0
-846 -131 -322 0
-846 -131 -346 0
-846 -131 -370 0
-846 -132 -320 0
-846 -132 -344 0
-846 -132 -368 0
-846 -132 -321 0
-846 -132 -345 0
-846 -132 -369 0
-846 -132 -322 0
-846 -132 -346 0
-846 -132 -370 0
-846 -133 0
-846 60 0
-846 -130 151 0
-846 -131 152 0
-846 -132 153 0
-846 -196 0
-847 193 0
-847 -40 -130 -135 0
-847 -40 -131 -136 0
-847 -40 -132 -137 0
-847 34 35 36 37 0
-847 -34 -130 1064 381 0
-847 -34 -131 1064 387 0
-847 -34 -132 1064 393 0
-847 -35 -130 1064 381 0
-847 -35 -131 1064 387 0
-847 -35 -132 1064 393 0
-847 -35 -130 1065 382 0
-847 -35 -131 1065 388 0
-847 -35 -132 1065 394 0
-847 -36 -130 1065 382 0
-847 -36 -131 1065 388 0
-847 -36 -132 1065 394 0
-847 -36 -130 1066 383 0
-847 -36 -131 1066 389 0
-847 -36 -132 1066 395 0
-847 -37 -130 1066 383 0
-847 -37 -131 1066 389 0
-847 -37 -132 1066 395 0
-847 -130 -309 0
-847 -130 -333 0
-847 -130 -357 0
-847 -130 -315 0
-847 -130 -339 0
-847 -130 -363 0
-847 -130 -321 0
-847 -130 -345 0
-847 -130 -369 0
-847 -130 -310 0
-847 -130 -334 0
-847 -130 -358 0
-847 -130 -316 0
-847 -130 -340 0
-847 -130 -364 0
-847 -130 -322 0
-847 -130 -346 0
-847 -130 -370 0
-847 -130 -311 0
-847 -130 -335 0
-847 -130 -359 0
-847 -130 -317 0
-847 -130 -341 0
-847 -130 -365 0
-847 -130 -323 0
-847 -130 -347 0
-847 -130 -371 0
-847 -131 -315 0
-847 -131 -339 0
-847 -131 -363 0
-847 -131 -321 0
-847 -131 -345 0
-847 -131 -369 0
-847 -131 -316 0
-847 -131 -340 0
-847 -131 -364 0
-847 -131 -322 0
-847 -131 -346 0
-847 -131 -370 0
-847 -131 -317 0
-847 -131 -341 0
-847 -131 -365 0
-847 -131 -323 0
-847 -131 -347 0
-847 -131 -371 0
-847 -132 -321 0
-847 -132 -345 0
-847 -132 -369 0
-847 -132 -322 0
-847 -132 -346 0
-847 -132 -370 0
-847 -132 -323 0
-847 -132 -347 0
-847 -132 -371 0
-847 -133 0
-847 61 0
-847 -130 151 0
-847 -131 152 0
-847 -132 153 0
-847 -196 0
-848 193 0
-848 -41 -130 -135 0
-848 -41 -131 -136 0
-848 -41 -132 -137 0
-848 35 36 37 38 0
-848 -35 -130 1065 382 0
-848 -35 -131 1065 388 0
-848 -35 -132 1065 394 0
-848 -36 -130 1065 382 0
-848 -36 -131 1065 388 0
-848 -36 -132 1065 394 0
-848 -36 -130 1066 383 0
-848 -36 -131 1066 389 0
-848 -36 -132 1066 395 0
-848 -37 -130 1066 383 0
-848 -37 -131 1066 389 0
-848 -37 -132 1066 395 0
-848 -37 -130 1067 384 0
-848 -37 -131 1067 390 0
-848 -37 -132 1067 396 0
-848 -38 -130 1067 384 0
-848 -38 -131 1067 390 0
-848 -38 -132 1067 396 0
-848 -130 -310 0
-848 -130 -334 0
-848 -130 -358 0
-848 -130 -316 0
-848 -130 -340 0
-848 -130 -364 0
-848 -130 -322 0
-848 -130 -346 0
-848 -130 -370 0
-848 -130 -311 0
-848 -130 -335 0
-848 -130 -359 0
-848 -130 -317 0
-848 -130 -341 0
-848 -130 -365 0
-848 -130 -323 0
-848 -130 -347 0
-848 -130 -371 0
-848 -130 -312 0
-848 -130 -336 0
-848 -130 -360 0
-848 -130 -318 0
-848 -130 -342 0
-848 -130 -366 0
-848 -130 -324 0
-848 -130 -348 0
-848 -130 -372 0
-848 -131 -316 0
-848 -131 -340 0
-848 -131 -364 0
-848 -131 -322 0
-848 -131 -346 0
-848 -131 -370 0
-848 -131 -317 0
-848 -131 -341 0
-848 -131 -365 0
-848 -131 -323 0
-848 -131 -347 0
-848 -131 -371 0
-848 -131 -318 0
-848 -131 -342 0
-848 -131 -366 0
-848 -131 -324 0
-848 -131 -348 0
-848 -131 -372 0
-848 -132 -322 0
-848 -132 -346 0
-848 -132 -370 0
-848 -132 -323 0
-848 -132 -347 0
-848 -132 -371 0
-848 -132 -324 0
-848 -132 -348 0
-848 -132 -372 0
-848 -133 0
-848 62 0
-848 -130 151 0
-848 -131 152 0
-848 -132 153 0
-848 -196 0
-849 193 0
-849 -42 -130 -135 0
-849 -42 -131 -136 0
-849 -42 -132 -137 0
-849 36 37 38 0
-849 -36 -130 1066 383 0
-849 -36 -131 1066 389 0
-849 -36 -132 1066 395 0
-849 -37 -130 1066 383 0
-849 -37 -131 1066 389 0
-849 -37 -132 1066 395 0
-849 -37 -130 1067 384 0
-849 -37 -131 1067 390 0
-849 -37 -132 1067 396 0
-849 -38 -130 1067 384 0
-849 -38 -131 1067 390 0
-849 -38 -132 1067 396 0
-849 -38 -130 1068 385 0
-849 -38 -131 1068 391 0
-849 -38 -132 1068 397 0
-849 -130 -311 0
-849 -130 -335 0
-849 -130 -359 0
-849 -130 -317 0
-849 -130 -341 0
-849 -130 -365 0
-849 -130 -323 0
-849 -130 -347 0
-849 -130 -371 0
-849 -130 -312 0
-849 -130 -336 0
-849 -130 -360 0
-849 -130 -318 0
-849 -130 -342 0
-849 -130 -366 0
-849 -130 -324 0
-849 -130 -348 0
-849 -130 -372 0
-849 -130 -313 0
-849 -130 -337 0
-849 -130 -361 0
-849 -130 -319 0
-849 -130 -343 0
-849 -130 -367 0
-849 -130 -325 0
-849 -130 -349 0
-849 -130 -373 0
-849 -131 -317 0
-849 -131 -341 0
-849 -131 -365 0
-849 -131 -323 0
-849 -131 -347 0
-849 -131 -371 0
-849 -131 -318 0
-849 -131 -342 0
-849 -131 -366 0
-849 -131 -324 0
-849 -131 -348 0
-849 -131 -372 0
-849 -131 -319 0
-849 -131 -343 0
-849 -131 -367 0
-849 -131 -325 0
-849 -131 -349 0
-849 -131 -373 0
-849 -132 -323 0
-849 -132 -347 0
-849 -132 -371 0
-849 -132 -324 0
-849 -132 -348 0
-849 -132 -372 0
-849 -132 -325 0
-849 -132 -349 0
-849 -132 -373 0
-849 -133 0
-849 63 0
-849 -130 151 0
-849 -131 152 0
-849 -132 153 0
-849 -196 0
-850 193 0
-850 -39 -134 0
-850 -302 0
-850 -326 0
-850 -350 0
-850 -308 0
-850 -332 0
-850 -356 0
-850 -314 0
-850 -338 0
-850 -362 0
-850 -320 0
-850 -344 0
-850 -368 0
-850 -303 0
-850 -327 0
-850 -351 0
-850 -309 0
-850 -333 0
-850 -357 0
-850 -315 0
-850 -339 0
-850 -363 0
-850 -321 0
-850 -345 0
-850 -369 0
-850 -304 0
-850 -328 0
-850 -352 0
-850 -310 0
-850 -334 0
-850 -358 0
-850 -316 0
-850 -340 0
-850 -364 0
-850 -322 0
-850 -346 0
-850 -370 0
-850 60 0
-850 150 0
-851 193 0
-851 -40 -134 0
-851 -303 0
-851 -327 0
-851 -351 0
-851 -309 0
-851 -333 0
-851 -357 0
-851 -315 0
-851 -339 0
-851 -363 0
-851 -321 0
-851 -345 0
-851 -369 0
-851 -304 0
-851 -328 0
-851 -352 0
-851 -310 0
-851 -334 0
-851 -358 0
-851 -316 0
-851 -340 0
-851 -364 0
-851 -322 0
-851 -346 0
-851 -370 0
-851 -305 0
-851 -329 0
-851 -353 0
-851 -311 0
-851 -335 0
-851 -359 0
-851 -317 0
-851 -341 0
-851 -365 0
-851 -323 0
-851 -347 0
-851 -371 0
-851 61 0
-851 150 0
-852 193 0
-852 -41 -134 0
-852 -304 0
-852 -328 0
-852 -352 0
-852 -310 0
-852 -334 0
-852 -358 0
-852 -316 0
-852 -340 0
-852 -364 0
-852 -322 0
-852 -346 0
-852 -370 0
-852 -305 0
-852 -329 0
-852 -353 0
-852 -311 0
-852 -335 0
-852 -359 0
-852 -317 0
-852 -341 0
-852 -365 0
-852 -323 0
-852 -347 0
-852 -371 0
-852 -306 0
-852 -330 0
-852 -354 0
-852 -312 0
-852 -336 0
-852 -360 0
-852 -318 0
-852 -342 0
-852 -366 0
-852 -324 0
-852 -348 0
-852 -372 0
-852 62 0
-852 150 0
-853 193 0
-853 -42 -134 0
-853 -305 0
-853 -329 0
-853 -353 0
-853 -311 0
-853 -335 0
-853 -359 0
-853 -317 0
-853 -341 0
-853 -365 0
-853 -323 0
-853 -347 0
-853 -371 0
-853 -306 0
-853 -330 0
-853 -354 0
-853 -312 0
-853 -336 0
-853 -360 0
-853 -318 0
-853 -342 0
-853 -366 0
-853 -324 0
-853 -348 0
-853 -372 0
-853 -307 0
-853 -331 0
-853 -355 0
-853 -313 0
-853 -337 0
-853 -361 0
-853 -319 0
-853 -343 0
-853 -367 0
-853 -325 0
-853 -349 0
-853 -373 0
-853 63 0
-853 150 0
22 -43 770 771 772 773 774 775 776 777 778 779 780 781 782 783 784 785 786 787 788 789 790 791 792 793 0
-22 43 770 771 772 773 774 775 776 777 778 779 780 781 782 783 784 785 786 787 788 789 790 791 792 793 0
23 -44 770 771 772 773 774 775 776 777 778 779 780 781 782 783 784 785 786 787 788 789 790 791 792 793 0
-23 44 770 771 772 773 774 775 776 777 778 779 780 781 782 783 784 785 786 787 788 789 790 791 792 793 0
24 -45 770 771 772 773 774 775 776 777 778 779 780 781 782 783 784 785 786 787 788 789 790 791 792 793 0
-24 45 770 771 772 773 774 775 776 777 778 779 780 781 782 783 784 785 786 787 788 789 790 791 792 793 0
25 -46 770 771 772 773 774 775 776 777 778 779 780 781 782 783 784 785 786 787 788 789 790 791 792 793 0
-25 46 770 771 772 773 774 775 776 777 778 779 780 781 782 783 784 785 786 787 788 789 790 791 792 793 0
26 -47 770 771 772 773 774 775 776 777 778 779 780 781 782 783 784 785 786 787 788 789 790 791 792 793 0
-26 47 770 771 772 773 774 775 776 777 778 779 780 781 782 783 784 785 786 787 788 789 790 791 792 793 0
27 -48 770 771 772 773 774 775 776 777 778 779 780 781 782 783 784 785 786 787 788 789 790 791 792 793 0
-27 48 770 771 772 773 774 775 776 777 778 779 780 781 782 783 784 785 786 787 788 789 790 791 792 793 0
122 -138 770 771 772 773 774 775 776 777 778 779 780 781 782 783 784 785 786 787 788 789 790 791 792 793 0
-122 138 770 771 772 773 774 775 776 777 778 779 780 781 782 783 784 785 786 787 788 789 790 791 792 793 0
123 -139 770 771 772 773 774 775 776 777 778 779 780 781 782 783 784 785 786 787 788 789 790 791 792 793 0
-123 139 770 771 772 773 774 775 776 777 778 779 780 781 782 783 784 785 786 787 788 789 790 791 792 793 0
124 -140 770 771 772 773 774 775 776 777 778 779 780 781 782 783 784 785 786 787 788 789 790 791 792 793 0
-124 140 770 771 772 773 774 775 776 777 778 779 780 781 782 783 784 785 786 787 788 789 790 791 792 793 0
125 -141 770 771 772 773 774 775 776 777 778 779 780 781 782 783 784 785 786 787 788 789 790 791 792 793 0
-125 141 770 771 772 773 774 775 776 777 778 779 780 781 782 783 784 785 786 787 788 789 790 791 792 793 0
28 -49 794 795 796 797 798 799 800 801 802 803 804 805 806 807 808 809 810 811 812 813 814 815 816 817 0
-28 49 794 795 796 797 798 799 800 801 802 803 804 805 806 807 808 809 810 811 812 813 814 815 816 817 0
29 -50 794 795 796 797 798 799 800 801 802 803 804 805 806 807 808 809 810 811 812 813 814 815 816 817 0
-29 50 794 795 796 797 798 799 800 801 802 803 804 805 806 807 808 809 810 811 812 813 814 815 816 817 0
30 -51 794 795 796 797 798 799 800 801 802 803 804 805 806 807 808 809 810 811 812 813 814 815 816 817 0
-30 51 794 795 796 797 798 799 800 801 802 803 804 805 806 807 808 809 810 811 812 813 814 815 816 817 0
31 -52 794 795 796 797 798 799 800 801 802 803 804 805 806 807 808 809 810 811 812 813 814 815 816 817 0
-31 52 794 795 796 797 798 799 800 801 802 803 804 805 806 807 808 809 810 811 812 813 814 815 816 817 0
32 -53 794 795 796 797 798 799 800 801 802 803 804 805 806 807 808 809 810 811 812 813 814 815 816 817 0
-32 53 794 795 796 797 798 799 800 801 802 803 804 805 806 807 808 809 810 811 812 813 814 815 816 817 0
33 -54 794 795 796 797 798 799 800 801 802 803 804 805 806 807 808 809 810 811 812 813 814 815 816 817 0
-33 54 794 795 796 797 798 799 800 801 802 803 804 805 806 807 808 809 810 811 812 813 814 815 816 817 0
126 -142 794 795 796 797 798 799 800 801 802 803 804 805 806 807 808 809 810 811 812 813 814 815 816 817 0
-126 142 794 795 796 797 798 799 800 801 802 803 804 805 806 807 808 809 810 811 812 813 814 815 816 817 0
127 -143 794 795 796 797 798 799 800 801 802 803 804 805 806 807 808 809 810 811 812 813 814 815 816 817 0
-127 143 794 795 796 797 798 799 800 801 802 803 804 805 806 807 808 809 810 811 812 813 814 815 816 817 0
128 -144 794 795 796 797 798 799 800 801 802 803 804 805 806 807 808 809 810 811 812 813 814 815 816 817 0
-128 144 794 795 796 797 798 799 800 801 802 803 804 805 806 807 808 809 810 811 812 813 814 815 816 817 0
129 -145 794 795 796 797 798 799 800 801 802 803 804 805 806 807 808 809 810 811 812 813 814 815 816 817 0
-129 145 794 795 796 797 798 799 800 801 802 803 804 805 806 807 808 809 810 811 812 813 814 815 816 817 0
34 -55 818 819 820 821 822 823 824 825 826 827 828 829 830 831 832 833 834 835 836 837 0
-34 55 818 819 820 821 822 823 824 825 826 827 828 829 830 831 832 833 834 835 836 837 0
35 -56 818 819 820 821 822 823 824 825 826 827 828 829 830 831 832 833 834 835 836 837 0
-35 56 818 819 820 821 822 823 824 825 826 827 828 829 830 831 832 833 834 835 836 837 0
36 -57 818 819 820 821 822 823 824 825 826 827 828 829 830 831 832 833 834 835 836 837 0
-36 57 818 819 820 821 822 823 824 825 826 827 828 829 830 831 832 833 834 835 836 837 0
37 -58 818 819 820 821 822 823 824 825 826 827 828 829 830 831 832 833 834 835 836 837 0
-37 58 818 819 820 821 822 823 824 825 826 827 828 829 830 831 832 833 834 835 836 837 0
38 -59 818 819 820 821 822 823 824 825 826 827 828 829 830 831 832 833 834 835 836 837 0
-38 59 818 819 820 821 822 823 824 825 826 827 828 829 830 831 832 833 834 835 836 837 0
130 -146 818 819 820 821 822 823 824 825 826 827 828 829 830 831 832 833 834 835 836 837 0
-130 146 818 819 820 821 822 823 824 825 826 827 828 829 830 831 832 833 834 835 836 837 0
131 -147 818 819 820 821 822 823 824 825 826 827 828 829 830 831 832 833 834 835 836 837 0
-131 147 818 819 820 821 822 823 824 825 826 827 828 829 830 831 832 833 834 835 836 837 0
132 -148 818 819 820 821 822 823 824 825 826 827 828 829 830 831 832 833 834 835 836 837 0
-132 148 818 819 820 821 822 823 824 825 826 827 828 829 830 831 832 833 834 835 836 837 0
133 -149 818 819 820 821 822 823 824 825 826 827 828 829 830 831 832 833 834 835 836 837 0
-133 149 818 819 820 821 822 823 824 825 826 827 828 829 830 831 832 833 834 835 836 837 0
39 -60 838 839 840 841 842 843 844 845 846 847 848 849 850 851 852 853 0
-39 60 838 839 840 841 842 843 844 845 846 847 848 849 850 851 852 853 0
40 -61 838 839 840 841 842 843 844 845 846 847 848 849 850 851 852 853 0
-40 61 838 839 840 841 842 843 844 845 846 847 848 849 850 851 852 853 0
41 -62 838 839 840 841 842 843 844 845 846 847 848 849 850 851 852 853 0
-41 62 838 839 840 841 842 843 844 845 846 847 848 849 850 851 852 853 0
42 -63 838 839 840 841 842 843 844 845 846 847 848 849 850 851 852 853 0
-42 63 838 839 840 841 842 843 844 845 846 847 848 849 850 851 852 853 0
134 -150 838 839 840 841 842 843 844 845 846 847 848 849 850 851 852 853 0
-134 150 838 839 840 841 842 843 844 845 846 847 848 849 850 851 852 853 0
135 -151 838 839 840 841 842 843 844 845 846 847 848 849 850 851 852 853 0
-135 151 838 839 840 841 842 843 844 845 846 847 848 849 850 851 852 853 0
136 -152 838 839 840 841 842 843 844 845 846 847 848 849 850 851 852 853 0
-136 152 838 839 840 841 842 843 844 845 846 847 848 849 850 851 852 853 0
137 -153 838 839 840 841 842 843 844 845 846 847 848 849 850 851 852 853 0
-137 153 838 839 840 841 842 843 844 845 846 847 848 849 850 851 852 853 0
770 771 772 773 774 775 776 777 778 779 780 781 782 783 784 785 786 787 788 789 790 791 792 793 794 795 796 797 798 799 800 801 802 803 804 805 806 807 808 809 810 811 812 813 814 815 816 817 818 819 820 821 822 823 824 825 826 827 828 829 830 831 832 833 834 835 836 837 838 839 840 841 842 843 844 845 846 847 848 849 850 851 852 853 0
-770 -771 0
-770 -772 0
-770 -773 0
-770 -774 0
-770 -775 0
-770 -776 0
-770 -777 0
-770 -778 0
-770 -779 0
-770 -780 0
-770 -781 0
-770 -782 0
-770 -783 0
-770 -784 0
-770 -785 0
-770 -786 0
-770 -787 0
-770 -788 0
-770 -789 0
-770 -790 0
-770 -791 0
-770 -792 0
-770 -793 0
-770 -794 0
-770 -795 0
-770 -796 0
-770 -797 0
-770 -798 0
-770 -799 0
-770 -800 0
-770 -801 0
-770 -802 0
-770 -803 0
-770 -804 0
-770 -805 0
-770 -806 0
-770 -807 0
-770 -808 0
-770 -809 0
-770 -810 0
-770 -811 0
-770 -812 0
-770 -813 0
-770 -814 0
-770 -815 0
-770 -816 0
-770 -817 0
-770 -818 0
-770 -819 0
-770 -820 0
-770 -821 0
-770 -822 0
-770 -823 0
-770 -824 0
-770 -825 0
-770 -826 0
-770 -827 0
-770 -828 0
-770 -829 0
-770 -830 0
-770 -831 0
-770 -832 0
-770 -833 0
-770 -834 0
-770 -835 0
-770 -836 0
-770 -837 0
-770 -838 0
-770 -839 0
-770 -840 0
-770 -841 0
-770 -842 0
-770 -843 0
-770 -844 0
-770 -845 0
-770 -846 0
-770 -847 0
-770 -848 0
-770 -849 0
-770 -850 0
-770 -851 0
-770 -852 0
-770 -853 0
-771 -772 0
-771 -773 0
-771 -774 0
-771 -775 0
-771 -776 0
-771 -777 0
-771 -778 0
-771 -779 0
-771 -780 0
-771 -781 0
-771 -782 0
-771 -783 0
-771 -784 0
-771 -785 0
-771 -786 0
-771 -787 0
-771 -788 0
-771 -789 0
-771 -790 0
-771 -791 0
-771 -792 0
-771 -793 0
-771 -794 0
-771 -795 0
-771 -796 0
-771 -797 0
-771 -798 0
-771 -799 0
-771 -800 0
-771 -801 0
-771 -802 0
-771 -803 0
-771 -804 0
-771 -805 0
-771 -806 0
-771 -807 0
-771 -808 0
-771 -809 0
-771 -810 0
-771 -811 0
-771 -812 0
-771 -813 0
-771 -814 0
-771 -815 0
-771 -816 0
-771 -817 0
-771 -818 0
-771 -819 0
-771 -820 0
-771 -821 0
-771 -822 0
-771 -823 0
-771 -824 0
-771 -825 0
-771 -826 0
-771 -827 0
-771 -828 0
-771 -829 0
-771 -830 0
-771 -831 0
-771 -832 0
-771 -833 0
-771 -834 0
-771 -835 0
-771 -836 0
-771 -837 0
-771 -838 0
-771 -839 0
-771 -840 0
-771 -841 0
-771 -842 0
-771 -843 0
-771 -844 0
-771 -845 0
-771 -846 0
-771 -847 0
-771 -848 0
-771 -849 0
-771 -850 0
-771 -851 0
-771 -852 0
-771 -853 0
-772 -773 0
-772 -774 0
-772 -775 0
-772 -776 0
-772 -777 0
-772 -778 0
-772 -779 0
-772 -780 0
-772 -781 0
-772 -782 0
-772 -783 0
-772 -784 0
-772 -785 0
-772 -786 0
-772 -787 0
-772 -788 0
-772 -789 0
-772 -790 0
-772 -791 0
-772 -792 0
-772 -793 0
-772 -794 0
-772 -795 0
-772 -796 0
-772 -797 0
-772 -798 0
-772 -799 0
-772 -800 0
-772 -801 0
-772 -802 0
-772 -803 0
-772 -804 0
-772 -805 0
-772 -806 0
-772 -807 0
-772 -808 0
-772 -809 0
-772 -810 0
-772 -811 0
-772 -812 0
-772 -813 0
-772 -814 0
-772 -815 0
-772 -816 0
-772 -817 0
-772 -818 0
-772 -819 0
-772 -820 0
-772 -821 0
-772 -822 0
-772 -823 0
-772 -824 0
-772 -825 0
-772 -826 0
-772 -827 0
-772 -828 0
-772 -829 0
-772 -830 0
-772 -831 0
-772 -832 0
-772 -833 0
-772 -834 0
-772 -835 0
-772 -836 0
-772 -837 0
-772 -838 0
-772 -839 0
-772 -840 0
-772 -841 0
-772 -842 0
-772 -843 0
-772 -844 0
-772 -845 0
-772 -846 0
-772 -847 0
-772 -848 0
-772 -849 0
-772 -850 0
-772 -851 0
-772 -852 0
-772 -853 0
-773 -774 0
-773 -775 0
-773 -776 0
-773 -777 0
-773 -778 0
-773 -779 0
-773 -780 0
-773 -781 0
-773 -782 0
-773 -783 0
-773 -784 0
-773 -785 0
-773 -786 0
-773 -787 0
-773 -788 0
-773 -789 0
-773 -790 0
-773 -791 0
-773 -792 0
-773 -793 0
-773 -794 0
-773 -795 0
-773 -796 0
-773 -797 0
-773 -798 0
-773 -799 0
-773 -800 0
-773 -801 0
-773 -802 0
-773 -803 0
-773 -804 0
-773 -805 0
-773 -806 0
-773 -807 0
-773 -808 0
-773 -809 0
-773 -810 0
-773 -811 0
-773 -812 0
-773 -813 0
-773 -814 0
-773 -815 0
-773 -816 0
-773 -817 0
-773 -818 0
-773 -819 0
-773 -820 0
-773 -821 0
-773 -822 0
-773 -823 0
-773 -824 0
-773 -825 0
-773 -826 0
-773 -827 0
-773 -828 0
-773 -829 0
-773 -830 0
-773 -831 0
-773 -832 0
-773 -833 0
-773 -834 0
-773 -835 0
-773 -836 0
-773 -837 0
-773 -838 0
-773 -839 0
-773 -840 0
-773 -841 0
-773 -842 0
-773 -843 0
-773 -844 0
-773 -845 0
-773 -846 0
-773 -847 0
-773 -848 0
-773 -849 0
-773 -850 0
-773 -851 0
-773 -852 0
-773 -853 0
-774 -775 0
-774 -776 0
-774 -777 0
-774 -778 0
-774 -779 0
-774 -780 0
-774 -781 0
-774 -782 0
-774 -783 0
-774 -784 0
-774 -785 0
-774 -786 0
-774 -787 0
-774 -788 0
-774 -789 0
-774 -790 0
-774 -791 0
-774 -792 0
-774 -793 0
-774 -794 0
-774 -795 0
-774 -796 0
-774 -797 0
-774 -798 0
-774 -799 0
-774 -800 0
-774 -801 0
-774 -802 0
-774 -803 0
-774 -804 0
-774 -805 0
-774 -806 0
-774 -807 0
-774 -808 0
-774 -809 0
-774 -810 0
-774 -811 0
-774 -812 0
-774 -813 0
-774 -814 0
-774 -815 0
-774 -816 0
-774 -817 0
-774 -818 0
-774 -819 0
-774 -820 0
-774 -821 0
-774 -822 0
-774 -823 0
-774 -824 0
-774 -825 0
-774 -826 0
-774 -827 0
-774 -828 0
-774 -829 0
-774 -830 0
-774 -831 0
-774 -832 0
-774 -833 0
-774 -834 0
-774 -835 0
-774 -836 0
-774 -837 0
-774 -838 0
-774 -839 0
-774 -840 0
-774 -841 0
-774 -842 0
-774 -843 0
-774 -844 0
-774 -845 0
-774 -846 0
-774 -847 0
-774 -848 0
-774 -849 0
-774 -850 0
-774 -851 0
-774 -852 0
-774 -853 0
-775 -776 0
-775 -777 0
-775 -778 0
-775 -779 0
-775 -780 0
-775 -781 0
-775 -782 0
-775 -783 0
-775 -784 0
-775 -785 0
-775 -786 0
-775 -787 0
-775 -788 0
-775 -789 0
-775 -790 0
-775 -791 0
-775 -792 0
-775 -793 0
-775 -794 0
-775 -795 0
-775 -796 0
-775 -797 0
-775 -798 0
-775 -799 0
-775 -800 0
-775 -801 0
-775 -802 0
-775 -803 0
-775 -804 0
-775 -805 0
-775 -806 0
-775 -807 0
-775 -808 0
-775 -809 0
-775 -810 0
-775 -811 0
-775 -812 0
-775 -813 0
-775 -814 0
-775 -815 0
-775 -816 0
-775 -817 0
-775 -818 0
-775 -819 0
-775 -820 0
-775 -821 0
-775 -822 0
-775 -823 0
-775 -824 0
-775 -825 0
-775 -826 0
-775 -827 0
-775 -828 0
-775 -829 0
-775 -830 0
-775 -831 0
-775 -832 0
-775 -833 0
-775 -834 0
-775 -835 0
-775 -836 0
-775 -837 0
-775 -838 0
-775 -839 0
-775 -840 0
-775 -841 0
-775 -842 0
-775 -843 0
-775 -844 0
-775 -845 0
-775 -846 0
-775 -847 0
-775 -848 0
-775 -849 0
-775 -850 0
-775 -851 0
-775 -852 0
-775 -853 0
-776 -777 0
-776 -778 0
-776 -779 0
-776 -780 0
-776 -781 0
-776 -782 0
-776 -783 0
-776 -784 0
-776 -785 0
-776 -786 0
-776 -787 0
-776 -788 0
-776 -789 0
-776 -790 0
-776 -791 0
-776 -792 0
-776 -793 0
-776 -794 0
-776 -795 0
-776 -796 0
-776 -797 0
-776 -798 0
-776 -799 0
-776 -800 0
-776 -801 0
-776 -802 0
-776 -803 0
-776 -804 0
-776 -805 0
-776 -806 0
-776 -807 0
-776 -808 0
-776 -809 0
-776 -810 0
-776 -811 0
-776 -812 0
-776 -813 0
-776 -814 0
-776 -815 0
-776 -816 0
-776 -817 0
-776 -818 0
-776 -819 0
-776 -820 0
-776 -821 0
-776 -822 0
-776 -823 0
-776 -824 0
-776 -825 0
-776 -826 0
-776 -827 0
-776 -828 0
-776 -829 0
-776 -830 0
-776 -831 0
-776 -832 0
-776 -833 0
-776 -834 0
-776 -835 0
-776 -836 0
-776 -837 0
-776 -838 0
-776 -839 0
-776 -840 0
-776 -841 0
-776 -842 0
-776 -843 0
-776 -844 0
-776 -845 0
-776 -846 0
-776 -847 0
-776 -848 0
-776 -849 0
-776 -850 0
-776 -851 0
-776 -852 0
-776 -853 0
-777 -778 0
-777 -779 0
-777 -780 0
-777 -781 0
-777 -782 0
-777 -783 0
-777 -784 0
-777 -785 0
-777 -786 0
-777 -787 0
-777 -788 0
-777 -789 0
-777 -790 0
-777 -791 0
-777 -792 0
-777 -793 0
-777 -794 0
-777 -795 0
-777 -796 0
-777 -797 0
-777 -798 0
-777 -799 0
-777 -800 0
-777 -801 0
-777 -802 0
-777 -803 0
-777 -804 0
-777 -805 0
-777 -806 0
-777 -807 0
-777 -808 0
-777 -809 0
-777 -810 0
-777 -811 0
-777 -812 0
-777 -813 0
-777 -814 0
-777 -815 0
-777 -816 0
-777 -817 0
-777 -818 0
-777 -819 0
-777 -820 0
-777 -821 0
-777 -822 0
-777 -823 0
-777 -824 0
-777 -825 0
-777 -826 0
-777 -827 0
-777 -828 0
-777 -829 0
-777 -830 0
-777 -831 0
-777 -832 0
-777 -833 0
-777 -834 0
-777 -835 0
-777 -836 0
-777 -837 0
-777 -838 0
-777 -839 0
-777 -840 0
-777 -841 0
-777 -842 0
-777 -843 0
-777 -844 0
-777 -845 0
-777 -846 0
-777 -847 0
-777 -848 0
-777 -849 0
-777 -850 0
-777 -851 0
-777 -852 0
-777 -853 0
-778 -779 0
-778 -780 0
-778 -781 0
-778 -782 0
-778 -783 0
-778 -784 0
-778 -785 0
-778 -786 0
-778 -787 0
-778 -788 0
-778 -789 0
-778 -790 0
-778 -791 0
-778 -792 0
-778 -793 0
-778 -794 0
-778 -795 0
-778 -796 0
-778 -797 0
-778 -798 0
-778 -799 0
-778 -800 0
-778 -801 0
-778 -802 0
-778 -803 0
-778 -804 0
-778 -805 0
-778 -806 0
-778 -807 0
-778 -808 0
-778 -809 0
-778 -810 0
-778 -811 0
-778 -812 0
-778 -813 0
-778 -814 0
-778 -815 0
-778 -816 0
-778 -817 0
-778 -818 0
-778 -819 0
-778 -820 0
-778 -821 0
-778 -822 0
-778 -823 0
-778 -824 0
-778 -825 0
-778 -826 0
-778 -827 0
-778 -828 0
-778 -829 0
-778 -830 0
-778 -831 0
-778 -832 0
-778 -833 0
-778 -834 0
-778 -835 0
-778 -836 0
-778 -837 0
-778 -838 0
-778 -839 0
-778 -840 0
-778 -841 0
-778 -842 0
-778 -843 0
-778 -844 0
-778 -845 0
-778 -846 0
-778 -847 0
-778 -848 0
-778 -849 0
-778 -850 0
-778 -851 0
-778 -852 0
-778 -853 0
-779 -780 0
-779 -781 0
-779 -782 0
-779 -783 0
-779 -784 0
-779 -785 0
-779 -786 0
-779 -787 0
-779 -788 0
-779 -789 0
-779 -790 0
-779 -791 0
-779 -792 0
-779 -793 0
-779 -794 0
-779 -795 0
-779 -796 0
-779 -797 0
-779 -798 0
-779 -799 0
-779 -800 0
-779 -801 0
-779 -802 0
-779 -803 0
-779 -804 0
-779 -805 0
-779 -806 0
-779 -807 0
-779 -808 0
-779 -809 0
-779 -810 0
-779 -811 0
-779 -812 0
-779 -813 0
-779 -814 0
-779 -815 0
-779 -816 0
-779 -817 0
-779 -818 0
-779 -819 0
-779 -820 0
-779 -821 0
-779 -822 0
-779 -823 0
-779 -824 0
-779 -825 0
-779 -826 0
-779 -827 0
-779 -828 0
-779 -829 0
-779 -830 0
-779 -831 0
-779 -832 0
-779 -833 0
-779 -834 0
-779 -835 0
-779 -836 0
-779 -837 0
-779 -838 0
-779 -839 0
-779 -840 0
-779 -841 0
-779 -842 0
-779 -843 0
-779 -844 0
-779 -845 0
-779 -846 0
-779 -847 0
-779 -848 0
-779 -849 0
-779 -850 0
-779 -851 0
-779 -852 0
-779 -853 0
-780 -781 0
-780 -782 0
-780 -783 0
-780 -784 0
-780 -785 0
-780 -786 0
-780 -787 0
-780 -788 0
-780 -789 0
-780 -790 0
-780 -791 0
-780 -792 0
-780 -793 0
-780 -794 0
-780 -795 0
-780 -796 0
-780 -797 0
-780 -798 0
-780 -799 0
-780 -800 0
-780 -801 0
-780 -802 0
-780 -803 0
-780 -804 0
-780 -805 0
-780 -806 0
-780 -807 0
-780 -808 0
-780 -809 0
-780 -810 0
-780 -811 0
-780 -812 0
-780 -813 0
-780 -814 0
-780 -815 0
-780 -816 0
-780 -817 0
-780 -818 0
-780 -819 0
-780 -820 0
-780 -821 0
-780 -822 0
-780 -823 0
-780 -824 0
-780 -825 0
-780 -826 0
-780 -827 0
-780 -828 0
-780 -829 0
-780 -830 0
-780 -831 0
-780 -832 0
-780 -833 0
-780 -834 0
-780 -835 0
-780 -836 0
-780 -837 0
-780 -838 0
-780 -839 0
-780 -840 0
-780 -841 0
-780 -842 0
-780 -843 0
-780 -844 0
-780 -845 0
-780 -846 0
-780 -847 0
-780 -848 0
-780 -849 0
-780 -850 0
-780 -851 0
-780 -852 0
-780 -853 0
-781 -782 0
-781 -783 0
-781 -784 0
-781 -785 0
-781 -786 0
-781 -787 0
-781 -788 0
-781 -789 0
-781 -790 0
-781 -791 0
-781 -792 0
-781 -793 0
-781 -794 0
-781 -795 0
-781 -796 0
-781 -797 0
-781 -798 0
-781 -799 0
-781 -800 0
-781 -801 0
-781 -802 0
-781 -803 0
-781 -804 0
-781 -805 0
-781 -806 0
-781 -807 0
-781 -808 0
-781 -809 0
-781 -810 0
-781 -811 0
-781 -812 0
-781 -813 0
-781 -814 0
-781 -815 0
-781 -816 0
-781 -817 0
-781 -818 0
-781 -819 0
-781 -820 0
-781 -821 0
-781 -822 0
-781 -823 0
-781 -824 0
-781 -825 0
-781 -826 0
-781 -827 0
-781 -828 0
-781 -829 0
-781 -830 0
-781 -831 0
-781 -832 0
-781 -833 0
-781 -834 0
-781 -835 0
-781 -836 0
-781 -837 0
-781 -838 0
-781 -839 0
-781 -840 0
-781 -841 0
-781 -842 0
-781 -843 0
-781 -844 0
-781 -845 0
-781 -846 0
-781 -847 0
-781 -848 0
-781 -849 0
-781 -850 0
-781 -851 0
-781 -852 0
-781 -853 0
-782 -783 0
-782 -784 0
-782 -785 0
-782 -786 0
-782 -787 0
-782 -788 0
-782 -789 0
-782 -790 0
-782 -791 0
-782 -792 0
-782 -793 0
-782 -794 0
-782 -795 0
-782 -796 0
-782 -797 0
-782 -798 0
-782 -799 0
-782 -800 0
-782 -801 0
-782 -802 0
-782 -803 0
-782 -804 0
-782 -805 0
-782 -806 0
-782 -807 0
-782 -808 0
-782 -809 0
-782 -810 0
-782 -811 0
-782 -812 0
-782 -813 0
-782 -814 0
-782 -815 0
-782 -816 0
-782 -817 0
-782 -818 0
-782 -819 0
-782 -820 0
-782 -821 0
-782 -822 0
-782 -823 0
-782 -824 0
-782 -825 0
-782 -826 0
-782 -827 0
-782 -828 0
-782 -829 0
-782 -830 0
-782 -831 0
-782 -832 0
-782 -833 0
-782 -834 0
-782 -835 0
-782 -836 0
-782 -837 0
-782 -838 0
-782 -839 0
-782 -840 0
-782 -841 0
-782 -842 0
-782 -843 0
-782 -844 0
-782 -845 0
-782 -846 0
-782 -847 0
-782 -848 0
-782 -849 0
-782 -850 0
-782 -851 0
-782 -852 0
-782 -853 0
-783 -784 0
-783 -785 0
-783 -786 0
-783 -787 0
-783 -788 0
-783 -789 0
-783 -790 0
-783 -791 0
-783 -792 0
-783 -793 0
-783 -794 0
-783 -795 0
-783 -796 0
-783 -797 0
-783 -798 0
-783 -799 0
-783 -800 0
-783 -801 0
-783 -802 0
-783 -803 0
-783 -804 0
-783 -805 0
-783 -806 0
-783 -807 0
-783 -808 0
-783 -809 0
-783 -810 0
-783 -811 0
-783 -812 0
-783 -813 0
-783 -814 0
-783 -815 0
-783 -816 0
-783 -817 0
-783 -818 0
-783 -819 0
-783 -820 0
-783 -821 0
-783 -822 0
-783 -823 0
-783 -824 0
-783 -825 0
-783 -826 0
-783 -827 0
-783 -828 0
-783 -829 0
-783 -830 0
-783 -831 0
-783 -832 0
-783 -833 0
-783 -834 0
-783 -835 0
-783 -836 0
-783 -837 0
-783 -838 0
-783 -839 0
-783 -840 0
-783 -841 0
-783 -842 0
-783 -843 0
-783 -844 0
-783 -845 0
-783 -846 0
-783 -847 0
-783 -848 0
-783 -849 0
-783 -850 0
-783 -851 0
-783 -852 0
-783 -853 0
-784 -785 0
-784 -786 0
-784 -787 0
-784 -788 0
-784 -789 0
-784 -790 0
-784 -791 0
-784 -792 0
-784 -793 0
-784 -794 0
-784 -795 0
-784 -796 0
-784 -797 0
-784 -798 0
-784 -799 0
-784 -800 0
-784 -801 0
-784 -802 0
-784 -803 0
-784 -804 0
-784 -805 0
-784 -806 0
-784 -807 0
-784 -808 0
-784 -809 0
-784 -810 0
-784 -811 0
-784 -812 0
-784 -813 0
-784 -814 0
-784 -815 0
-784 -816 0
-784 -817 0
-784 -818 0
-784 -819 0
-784 -820 0
-784 -821 0
-784 -822 0
-784 -823 0
-784 -824 0
-784 -825 0
-784 -826 0
-784 -827 0
-784 -828 0
-784 -829 0
-784 -830 0
-784 -831 0
-784 -832 0
-784 -833 0
-784 -834 0
-784 -835 0
-784 -836 0
-784 -837 0
-784 -838 0
-784 -839 0
-784 -840 0
-784 -841 0
-784 -842 0
-784 -843 0
-784 -844 0
-784 -845 0
-784 -846 0
-784 -847 0
-784 -848 0
-784 -849 0
-784 -850 0
-784 -851 0
-784 -852 0
-784 -853 0
-785 -786 0
-785 -787 0
-785 -788 0
-785 -789 0
-785 -790 0
-785 -791 0
-785 -792 0
-785 -793 0
-785 -794 0
-785 -795 0
-785 -796 0
-785 -797 0
-785 -798 0
-785 -799 0
-785 -800 0
-785 -801 0
-785 -802 0
-785 -803 0
-785 -804 0
-785 -805 0
-785 -806 0
-785 -807 0
-785 -808 0
-785 -809 0
-785 -810 0
-785 -811 0
-785 -812 0
-785 -813 0
-785 -814 0
-785 -815 0
-785 -816 0
-785 -817 0
-785 -818 0
-785 -819 0
-785 -820 0
-785 -821 0
-785 -822 0
-785 -823 0
-785 -824 0
-785 -825 0
-785 -826 0
-785 -827 0
-785 -828 0
-785 -829 0
-785 -830 0
-785 -831 0
-785 -832 0
-785 -833 0
-785 -834 0
-785 -835 0
-785 -836 0
-785 -837 0
-785 -838 0
-785 -839 0
-785 -840 0
-785 -841 0
-785 -842 0
-785 -843 0
-785 -844 0
-785 -845 0
-785 -846 0
-785 -847 0
-785 -848 0
-785 -849 0
-785 -850 0
-785 -851 0
-785 -852 0
-785 -853 0
-786 -787 0
-786 -788 0
-786 -789 0
-786 -790 0
-786 -791 0
-786 -792 0
-786 -793 0
-786 -794 0
-786 -795 0
-786 -796 0
-786 -797 0
-786 -798 0
-786 -799 0
-786 -800 0
-786 -801 0
-786 -802 0
-786 -803 0
-786 -804 0
-786 -805 0
-786 -806 0
-786 -807 0
-786 -808 0
-786 -809 0
-786 -810 0
-786 -811 0
-786 -812 0
-786 -813 0
-786 -814 0
-786 -815 0
-786 -816 0
-786 -817 0
-786 -818 0
-786 -819 0
-786 -820 0
-786 -821 0
-786 -822 0
-786 -823 0
-786 -824 0
-786 -825 0
-786 -826 0
-786 -827 0
-786 -828 0
-786 -829 0
-786 -830 0
-786 -831 0
-786 -832 0
-786 -833 0
-786 -834 0
-786 -835 0
-786 -836 0
-786 -837 0
-786 -838 0
-786 -839 0
-786 -840 0
-786 -841 0
-786 -842 0
-786 -843 0
-786 -844 0
-786 -845 0
-786 -846 0
-786 -847 0
-786 -848 0
-786 -849 0
-786 -850 0
-786 -851 0
-786 -852 0
-786 -853 0
-787 -788 0
-787 -789 0
-787 -790 0
-787 -791 0
-787 -792 0
-787 -793 0
-787 -794 0
-787 -795 0
-787 -796 0
-787 -797 0
-787 -798 0
-787 -799 0
-787 -800 0
-787 -801 0
-787 -802 0
-787 -803 0
-787 -804 0
-787 -805 0
-787 -806 0
-787 -807 0
-787 -808 0
-787 -809 0
-787 -810 0
-787 -811 0
-787 -812 0
-787 -813 0
-787 -814 0
-787 -815 0
-787 -816 0
-787 -817 0
-787 -818 0
-787 -819 0
-787 -820 0
-787 -821 0
-787 -822 0
-787 -823 0
-787 -824 0
-787 -825 0
-787 -826 0
-787 -827 0
-787 -828 0
-787 -829 0
-787 -830 0
-787 -831 0
-787 -832 0
-787 -833 0
-787 -834 0
-787 -835 0
-787 -836 0
-787 -837 0
-787 -838 0
-787 -839 0
-787 -840 0
-787 -841 0
-787 -842 0
-787 -843 0
-787 -844 0
-787 -845 0
-787 -846 0
-787 -847 0
-787 -848 0
-787 -849 0
-787 -850 0
-787 -851 0
-787 -852 0
-787 -853 0
-788 -789 0
-788 -790 0
-788 -791 0
-788 -792 0
-788 -793 0
-788 -794 0
-788 -795 0
-788 -796 0
-788 -797 0
-788 -798 0
-788 -799 0
-788 -800 0
-788 -801 0
-788 -802 0
-788 -803 0
-788 -804 0
-788 -805 0
-788 -806 0
-788 -807 0
-788 -808 0
-788 -809 0
-788 -810 0
-788 -811 0
-788 -812 0
-788 -813 0
-788 -814 0
-788 -815 0
-788 -816 0
-788 -817 0
-788 -818 0
-788 -819 0
-788 -820 0
-788 -821 0
-788 -822 0
-788 -823 0
-788 -824 0
-788 -825 0
-788 -826 0
-788 -827 0
-788 -828 0
-788 -829 0
-788 -830 0
-788 -831 0
-788 -832 0
-788 -833 0
-788 -834 0
-788 -835 0
-788 -836 0
-788 -837 0
-788 -838 0
-788 -839 0
-788 -840 0
-788 -841 0
-788 -842 0
-788 -843 0
-788 -844 0
-788 -845 0
-788 -846 0
-788 -847 0
-788 -848 0
-788 -849 0
-788 -850 0
-788 -851 0
-788 -852 0
-788 -853 0
-789 -790 0
-789 -791 0
-789 -792 0
-789 -793 0
-789 -794 0
-789 -795 0
-789 -796 0
-789 -797 0
-789 -798 0
-789 -799 0
-789 -800 0
-789 -801 0
-789 -802 0
-789 -803 0
-789 -804 0
-789 -805 0
-789 -806 0
-789 -807 0
-789 -808 0
-789 -809 0
-789 -810 0
-789 -811 0
-789 -812 0
-789 -813 0
-789 -814 0
-789 -815 0
-789 -816 0
-789 -817 0
-789 -818 0
-789 -819 0
-789 -820 0
-789 -821 0
-789 -822 0
-789 -823 0
-789 -824 0
-789 -825 0
-789 -826 0
-789 -827 0
-789 -828 0
-789 -829 0
-789 -830 0
-789 -831 0
-789 -832 0
-789 -833 0
-789 -834 0
-789 -835 0
-789 -836 0
-789 -837 0
-789 -838 0
-789 -839 0
-789 -840 0
-789 -841 0
-789 -842 0
-789 -843 0
-789 -844 0
-789 -845 0
-789 -846 0
-789 -847 0
-789 -848 0
-789 -849 0
-789 -850 0
-789 -851 0
-789 -852 0
-789 -853 0
-790 -791 0
-790 -792 0
-790 -793 0
-790 -794 0
-790 -795 0
-790 -796 0
-790 -797 0
-790 -798 0
-790 -799 0
-790 -800 0
-790 -801 0
-790 -802 0
-790 -803 0
-790 -804 0
-790 -805 0
-790 -806 0
-790 -807 0
-790 -808 0
-790 -809 0
-790 -810 0
-790 -811 0
-790 -812 0
-790 -813 0
-790 -814 0
-790 -815 0
-790 -816 0
-790 -817 0
-790 -818 0
-790 -819 0
-790 -820 0
-790 -821 0
-790 -822 0
-790 -823 0
-790 -824 0
-790 -825 0
-790 -826 0
-790 -827 0
-790 -828 0
-790 -829 0
-790 -830 0
-790 -831 0
-790 -832 0
-790 -833 0
-790 -834 0
-790 -835 0
-790 -836 0
-790 -837 0
-790 -838 0
-790 -839 0
-790 -840 0
-790 -841 0
-790 -842 0
-790 -843 0
-790 -844 0
-790 -845 0
-790 -846 0
-790 -847 0
-790 -848 0
-790 -849 0
-790 -850 0
-790 -851 0
-790 -852 0
-790 -853 0
-791 -792 0
-791 -793 0
-791 -794 0
-791 -795 0
-791 -796 0
-791 -797 0
-791 -798 0
-791 -799 0
-791 -800 0
-791 -801 0
-791 -802 0
-791 -803 0
-791 -804 0
-791 -805 0
-791 -806 0
-791 -807 0
-791 -808 0
-791 -809 0
-791 -810 0
-791 -811 0
-791 -812 0
-791 -813 0
-791 -814 0
-791 -815 0
-791 -816 0
-791 -817 0
-791 -818 0
-791 -819 0
-791 -820 0
-791 -821 0
-791 -822 0
-791 -823 0
-791 -824 0
-791 -825 0
-791 -826 0
-791 -827 0
-791 -828 0
-791 -829 0
-791 -830 0
-791 -831 0
-791 -832 0
-791 -833 0
-791 -834 0
-791 -835 0
-791 -836 0
-791 -837 0
-791 -838 0
-791 -839 0
-791 -840 0
-791 -841 0
-791 -842 0
-791 -843 0
-791 -844 0
-791 -845 0
-791 -846 0
-791 -847 0
-791 -848 0
-791 -849 0
-791 -850 0
-791 -851 0
-791 -852 0
-791 -853 0
-792 -793 0
-792 -794 0
-792 -795 0
-792 -796 0
-792 -797 0
-792 -798 0
-792 -799 0
-792 -800 0
-792 -801 0
-792 -802 0
-792 -803 0
-792 -804 0
-792 -805 0
-792 -806 0
-792 -807 0
-792 -808 0
-792 -809 0
-792 -810 0
-792 -811 0
-792 -812 0
-792 -813 0
-792 -814 0
-792 -815 0
-792 -816 0
-792 -817 0
-792 -818 0
-792 -819 0
-792 -820 0
-792 -821 0
-792 -822 0
-792 -823 0
-792 -824 0
-792 -825 0
-792 -826 0
-792 -827 0
-792 -828 0
-792 -829 0
-792 -830 0
-792 -831 0
-792 -832 0
-792 -833 0
-792 -834 0
-792 -835 0
-792 -836 0
-792 -837 0
-792 -838 0
-792 -839 0
-792 -840 0
-792 -841 0
-792 -842 0
-792 -843 0
-792 -844 0
-792 -845 0
-792 -846 0
-792 -847 0
-792 -848 0
-792 -849 0
-792 -850 0
-792 -851 0
-792 -852 0
-792 -853 0
-793 -794 0
-793 -795 0
-793 -796 0
-793 -797 0
-793 -798 0
-793 -799 0
-793 -800 0
-793 -801 0
-793 -802 0
-793 -803 0
-793 -804 0
-793 -805 0
-793 -806 0
-793 -807 0
-793 -808 0
-793 -809 0
-793 -810 0
-793 -811 0
-793 -812 0
-793 -813 0
-793 -814 0
-793 -815 0
-793 -816 0
-793 -817 0
-793 -818 0
-793 -819 0
-793 -820 0
-793 -821 0
-793 -822 0
-793 -823 0
-793 -824 0
-793 -825 0
-793 -826 0
-793 -827 0
-793 -828 0
-793 -829 0
-793 -830 0
-793 -831 0
-793 -832 0
-793 -833 0
-793 -834 0
-793 -835 0
-793 -836 0
-793 -837 0
-793 -838 0
-793 -839 0
-793 -840 0
-793 -841 0
-793 -842 0
-793 -843 0
-793 -844 0
-793 -845 0
-793 -846 0
-793 -847 0
-793 -848 0
-793 -849 0
-793 -850 0
-793 -851 0
-793 -852 0
-793 -853 0
-794 -795 0
-794 -796 0
-794 -797 0
-794 -798 0
-794 -799 0
-794 -800 0
-794 -801 0
-794 -802 0
-794 -803 0
-794 -804 0
-794 -805 0
-794 -806 0
-794 -807 0
-794 -808 0
-794 -809 0
-794 -810 0
-794 -811 0
-794 -812 0
-794 -813 0
-794 -814 0
-794 -815 0
-794 -816 0
-794 -817 0
-794 -818 0
-794 -819 0
-794 -820 0
-794 -821 0
-794 -822 0
-794 -823 0
-794 -824 0
-794 -825 0
-794 -826 0
-794 -827 0
-794 -828 0
-794 -829 0
-794 -830 0
-794 -831 0
-794 -832 0
-794 -833 0
-794 -834 0
-794 -835 0
-794 -836 0
-794 -837 0
-794 -838 0
-794 -839 0
-794 -840 0
-794 -841 0
-794 -842 0
-794 -843 0
-794 -844 0
-794 -845 0
-794 -846 0
-794 -847 0
-794 -848 0
-794 -849 0
-794 -850 0
-794 -851 0
-794 -852 0
-794 -853 0
-795 -796 0
-795 -797 0
-795 -798 0
-795 -799 0
-795 -800 0
-795 -801 0
-795 -802 0
-795 -803 0
-795 -804 0
-795 -805 0
-795 -806 0
-795 -807 0
-795 -808 0
-795 -809 0
-795 -810 0
-795 -811 0
-795 -812 0
-795 -813 0
-795 -814 0
-795 -815 0
-795 -816 0
-795 -817 0
-795 -818 0
-795 -819 0
-795 -820 0
-795 -821 0
-795 -822 0
-795 -823 0
-795 -824 0
-795 -825 0
-795 -826 0
-795 -827 0
-795 -828 0
-795 -829 0
-795 -830 0
-795 -831 0
-795 -832 0
-795 -833 0
-795 -834 0
-795 -835 0
-795 -836 0
-795 -837 0
-795 -838 0
-795 -839 0
-795 -840 0
-795 -841 0
-795 -842 0
-795 -843 0
-795 -844 0
-795 -845 0
-795 -846 0
-795 -847 0
-795 -848 0
-795 -849 0
-795 -850 0
-795 -851 0
-795 -852 0
-795 -853 0
-796 -797 0
-796 -798 0
-796 -799 0
-796 -800 0
-796 -801 0
-796 -802 0
-796 -803 0
-796 -804 0
-796 -805 0
-796 -806 0
-796 -807 0
-796 -808 0
-796 -809 0
-796 -810 0
-796 -811 0
-796 -812 0
-796 -813 0
-796 -814 0
-796 -815 0
-796 -816 0
-796 -817 0
-796 -818 0
-796 -819 0
-796 -820 0
-796 -821 0
-796 -822 0
-796 -823 0
-796 -824 0
-796 -825 0
-796 -826 0
-796 -827 0
-796 -828 0
-796 -829 0
-796 -830 0
-796 -831 0
-796 -832 0
-796 -833 0
-796 -834 0
-796 -835 0
-796 -836 0
-796 -837 0
-796 -838 0
-796 -839 0
-796 -840 0
-796 -841 0
-796 -842 0
-796 -843 0
-796 -844 0
-796 -845 0
-796 -846 0
-796 -847 0
-796 -848 0
-796 -849 0
-796 -850 0
-796 -851 0
-796 -852 0
-796 -853 0
-797 -798 0
-797 -799 0
-797 -800 0
-797 -801 0
-797 -802 0
-797 -803 0
-797 -804 0
-797 -805 0
-797 -806 0
-797 -807 0
-797 -808 0
-797 -809 0
-797 -810 0
-797 -811 0
-797 -812 0
-797 -813 0
-797 -814 0
-797 -815 0
-797 -816 0
-797 -817 0
-797 -818 0
-797 -819 0
-797 -820 0
-797 -821 0
-797 -822 0
-797 -823 0
-797 -824 0
-797 -825 0
-797 -826 0
-797 -827 0
-797 -828 0
-797 -829 0
-797 -830 0
-797 -831 0
-797 -832 0
-797 -833 0
-797 -834 0
-797 -835 0
-797 -836 0
-797 -837 0
-797 -838 0
-797 -839 0
-797 -840 0
-797 -841 0
-797 -842 0
-797 -843 0
-797 -844 0
-797 -845 0
-797 -846 0
-797 -847 0
-797 -848 0
-797 -849 0
-797 -850 0
-797 -851 0
-797 -852 0
-797 -853 0
-798 -799 0
-798 -800 0
-798 -801 0
-798 -802 0
-798 -803 0
-798 -804 0
-798 -805 0
-798 -806 0
-798 -807 0
-798 -808 0
-798 -809 0
-798 -810 0
-798 -811 0
-798 -812 0
-798 -813 0
-798 -814 0
-798 -815 0
-798 -816 0
-798 -817 0
-798 -818 0
-798 -819 0
-798 -820 0
-798 -821 0
-798 -822 0
-798 -823 0
-798 -824 0
-798 -825 0
-798 -826 0
-798 -827 0
-798 -828 0
-798 -829 0
-798 -830 0
-798 -831 0
-798 -832 0
-798 -833 0
-798 -834 0
-798 -835 0
-798 -836 0
-798 -837 0
-798 -838 0
-798 -839 0
-798 -840 0
-798 -841 0
-798 -842 0
-798 -843 0
-798 -844 0
-798 -845 0
-798 -846 0
-798 -847 0
-798 -848 0
-798 -849 0
-798 -850 0
-798 -851 0
-798 -852 0
-798 -853 0
-799 -800 0
-799 -801 0
-799 -802 0
-799 -803 0
-799 -804 0
-799 -805 0
-799 -806 0
-799 -807 0
-799 -808 0
-799 -809 0
-799 -810 0
-799 -811 0
-799 -812 0
-799 -813 0
-799 -814 0
-799 -815 0
-799 -816 0
-799 -817 0
-799 -818 0
-799 -819 0
-799 -820 0
-799 -821 0
-799 -822 0
-799 -823 0
-799 -824 0
-799 -825 0
-799 -826 0
-799 -827 0
-799 -828 0
-799 -829 0
-799 -830 0
-799 -831 0
-799 -832 0
-799 -833 0
-799 -834 0
-799 -835 0
-799 -836 0
-799 -837 0
-799 -838 0
-799 -839 0
-799 -840 0
-799 -841 0
-799 -842 0
-799 -843 0
-799 -844 0
-799 -845 0
-799 -846 0
-799 -847 0
-799 -848 0
-799 -849 0
-799 -850 0
-799 -851 0
-799 -852 0
-799 -853 0
-800 -801 0
-800 -802 0
-800 -803 0
-800 -804 0
-800 -805 0
-800 -806 0
-800 -807 0
-800 -808 0
-800 -809 0
-800 -810 0
-800 -811 0
-800 -812 0
-800 -813 0
-800 -814 0
-800 -815 0
-800 -816 0
-800 -817 0
-800 -818 0
-800 -819 0
-800 -820 0
-800 -821 0
-800 -822 0
-800 -823 0
-800 -824 0
-800 -825 0
-800 -826 0
-800 -827 0
-800 -828 0
-800 -829 0
-800 -830 0
-800 -831 0
-800 -832 0
-800 -833 0
-800 -834 0
-800 -835 0
-800 -836 0
-800 -837 0
-800 -838 0
-800 -839 0
-800 -840 0
-800 -841 0
-800 -842 0
-800 -843 0
-800 -844 0
-800 -845 0
-800 -846 0
-800 -847 0
-800 -848 0
-800 -849 0
-800 -850 0
-800 -851 0
-800 -852 0
-800 -853 0
-801 -802 0
-801 -803 0
-801 -804 0
-801 -805 0
-801 -806 0
-801 -807 0
-801 -808 0
-801 -809 0
-801 -810 0
-801 -811 0
-801 -812 0
-801 -813 0
-801 -814 0
-801 -815 0
-801 -816 0
-801 -817 0
-801 -818 0
-801 -819 0
-801 -820 0
-801 -821 0
-801 -822 0
-801 -823 0
-801 -824 0
-801 -825 0
-801 -826 0
-801 -827 0
-801 -828 0
-801 -829 0
-801 -830 0
-801 -831 0
-801 -832 0
-801 -833 0
-801 -834 0
-801 -835 0
-801 -836 0
-801 -837 0
-801 -838 0
-801 -839 0
-801 -840 0
-801 -841 0
-801 -842 0
-801 -843 0
-801 -844 0
-801 -845 0
-801 -846 0
-801 -847 0
-801 -848 0
-801 -849 0
-801 -850 0
-801 -851 0
-801 -852 0
-801 -853 0
-802 -803 0
-802 -804 0
-802 -805 0
-802 -806 0
-802 -807 0
-802 -808 0
-802 -809 0
-802 -810 0
-802 -811 0
-802 -812 0
-802 -813 0
-802 -814 0
-802 -815 0
-802 -816 0
-802 -817 0
-802 -818 0
-802 -819 0
-802 -820 0
-802 -821 0
-802 -822 0
-802 -823 0
-802 -824 0
-802 -825 0
-802 -826 0
-802 -827 0
-802 -828 0
-802 -829 0
-802 -830 0
-802 -831 0
-802 -832 0
-802 -833 0
-802 -834 0
-802 -835 0
-802 -836 0
-802 -837 0
-802 -838 0
-802 -839 0
-802 -840 0
-802 -841 0
-802 -842 0
-802 -843 0
-802 -844 0
-802 -845 0
-802 -846 0
-802 -847 0
-802 -848 0
-802 -849 0
-802 -850 0
-802 -851 0
-802 -852 0
-802 -853 0
-803 -804 0
-803 -805 0
-803 -806 0
-803 -807 0
-803 -808 0
-803 -809 0
-803 -810 0
-803 -811 0
-803 -812 0
-803 -813 0
-803 -814 0
-803 -815 0
-803 -816 0
-803 -817 0
-803 -818 0
-803 -819 0
-803 -820 0
-803 -821 0
-803 -822 0
-803 -823 0
-803 -824 0
-803 -825 0
-803 -826 0
-803 -827 0
-803 -828 0
-803 -829 0
-803 -830 0
-803 -831 0
-803 -832 0
-803 -833 0
-803 -834 0
-803 -835 0
-803 -836 0
-803 -837 0
-803 -838 0
-803 -839 0
-803 -840 0
-803 -841 0
-803 -842 0
-803 -843 0
-803 -844 0
-803 -845 0
-803 -846 0
-803 -847 0
-803 -848 0
-803 -849 0
-803 -850 0
-803 -851 0
-803 -852 0
-803 -853 0
-804 -805 0
-804 -806 0
-804 -807 0
-804 -808 0
-804 -809 0
-804 -810 0
-804 -811 0
-804 -812 0
-804 -813 0
-804 -814 0
-804 -815 0
-804 -816 0
-804 -817 0
-804 -818 0
-804 -819 0
-804 -820 0
-804 -821 0
-804 -822 0
-804 -823 0
-804 -824 0
-804 -825 0
-804 -826 0
-804 -827 0
-804 -828 0
-804 -829 0
-804 -830 0
-804 -831 0
-804 -832 0
-804 -833 0
-804 -834 0
-804 -835 0
-804 -836 0
-804 -837 0
-804 -838 0
-804 -839 0
-804 -840 0
-804 -841 0
-804 -842 0
-804 -843 0
-804 -844 0
-804 -845 0
-804 -846 0
-804 -847 0
-804 -848 0
-804 -849 0
-804 -850 0
-804 -851 0
-804 -852 0
-804 -853 0
-805 -806 0
-805 -807 0
-805 -808 0
-805 -809 0
-805 -810 0
-805 -811 0
-805 -812 0
-805 -813 0
-805 -814 0
-805 -815 0
-805 -816 0
-805 -817 0
-805 -818 0
-805 -819 0
-805 -820 0
-805 -821 0
-805 -822 0
-805 -823 0
-805 -824 0
-805 -825 0
-805 -826 0
-805 -827 0
-805 -828 0
-805 -829 0
-805 -830 0
-805 -831 0
-805 -832 0
-805 -833 0
-805 -834 0
-805 -835 0
-805 -836 0
-805 -837 0
-805 -838 0
-805 -839 0
-805 -840 0
-805 -841 0
-805 -842 0
-805 -843 0
-805 -844 0
-805 -845 0
-805 -846 0
-805 -847 0
-805 -848 0
-805 -849 0
-805 -850 0
-805 -851 0
-805 -852 0
-805 -853 0
-806 -807 0
-806 -808 0
-806 -809 0
-806 -810 0
-806 -811 0
-806 -812 0
-806 -813 0
-806 -814 0
-806 -815 0
-806 -816 0
-806 -817 0
-806 -818 0
-806 -819 0
-806 -820 0
-806 -821 0
-806 -822 0
-806 -823 0
-806 -824 0
-806 -825 0
-806 -826 0
-806 -827 0
-806 -828 0
-806 -829 0
-806 -830 0
-806 -831 0
-806 -832 0
-806 -833 0
-806 -834 0
-806 -835 0
-806 -836 0
-806 -837 0
-806 -838 0
-806 -839 0
-806 -840 0
-806 -841 0
-806 -842 0
-806 -843 0
-806 -844 0
-806 -845 0
-806 -846 0
-806 -847 0
-806 -848 0
-806 -849 0
-806 -850 0
-806 -851 0
-806 -852 0
-806 -853 0
-807 -808 0
-807 -809 0
-807 -810 0
-807 -811 0
-807 -812 0
-807 -813 0
-807 -814 0
-807 -815 0
-807 -816 0
-807 -817 0
-807 -818 0
-807 -819 0
-807 -820 0
-807 -821 0
-807 -822 0
-807 -823 0
-807 -824 0
-807 -825 0
-807 -826 0
-807 -827 0
-807 -828 0
-807 -829 0
-807 -830 0
-807 -831 0
-807 -832 0
-807 -833 0
-807 -834 0
-807 -835 0
-807 -836 0
-807 -837 0
-807 -838 0
-807 -839 0
-807 -840 0
-807 -841 0
-807 -842 0
-807 -843 0
-807 -844 0
-807 -845 0
-807 -846 0
-807 -847 0
-807 -848 0
-807 -849 0
-807 -850 0
-807 -851 0
-807 -852 0
-807 -853 0
-808 -809 0
-808 -810 0
-808 -811 0
-808 -812 0
-808 -813 0
-808 -814 0
-808 -815 0
-808 -816 0
-808 -817 0
-808 -818 0
-808 -819 0
-808 -820 0
-808 -821 0
-808 -822 0
-808 -823 0
-808 -824 0
-808 -825 0
-808 -826 0
-808 -827 0
-808 -828 0
-808 -829 0
-808 -830 0
-808 -831 0
-808 -832 0
-808 -833 0
-808 -834 0
-808 -835 0
-808 -836 0
-808 -837 0
-808 -838 0
-808 -839 0
-808 -840 0
-808 -841 0
-808 -842 0
-808 -843 0
-808 -844 0
-808 -845 0
-808 -846 0
-808 -847 0
-808 -848 0
-808 -849 0
-808 -850 0
-808 -851 0
-808 -852 0
-808 -853 0
-809 -810 0
-809 -811 0
-809 -812 0
-809 -813 0
-809 -814 0
-809 -815 0
-809 -816 0
-809 -817 0
-809 -818 0
-809 -819 0
-809 -820 0
-809 -821 0
-809 -822 0
-809 -823 0
-809 -824 0
-809 -825 0
-809 -826 0
-809 -827 0
-809 -828 0
-809 -829 0
-809 -830 0
-809 -831 0
-809 -832 0
-809 -833 0
-809 -834 0
-809 -835 0
-809 -836 0
-809 -837 0
-809 -838 0
-809 -839 0
-809 -840 0
-809 -841 0
-809 -842 0
-809 -843 0
-809 -844 0
-809 -845 0
-809 -846 0
-809 -847 0
-809 -848 0
-809 -849 0
-809 -850 0
-809 -851 0
-809 -852 0
-809 -853 0
-810 -811 0
-810 -812 0
-810 -813 0
-810 -814 0
-810 -815 0
-810 -816 0
-810 -817 0
-810 -818 0
-810 -819 0
-810 -820 0
-810 -821 0
-810 -822 0
-810 -823 0
-810 -824 0
-810 -825 0
-810 -826 0
-810 -827 0
-810 -828 0
-810 -829 0
-810 -830 0
-810 -831 0
-810 -832 0
-810 -833 0
-810 -834 0
-810 -835 0
-810 -836 0
-810 -837 0
-810 -838 0
-810 -839 0
-810 -840 0
-810 -841 0
-810 -842 0
-810 -843 0
-810 -844 0
-810 -845 0
-810 -846 0
-810 -847 0
-810 -848 0
-810 -849 0
-810 -850 0
-810 -851 0
-810 -852 0
-810 -853 0
-811 -812 0
-811 -813 0
-811 -814 0
-811 -815 0
-811 -816 0
-811 -817 0
-811 -818 0
-811 -819 0
-811 -820 0
-811 -821 0
-811 -822 0
-811 -823 0
-811 -824 0
-811 -825 0
-811 -826 0
-811 -827 0
-811 -828 0
-811 -829 0
-811 -830 0
-811 -831 0
-811 -832 0
-811 -833 0
-811 -834 0
-811 -835 0
-811 -836 0
-811 -837 0
-811 -838 0
-811 -839 0
-811 -840 0
-811 -841 0
-811 -842 0
-811 -843 0
-811 -844 0
-811 -845 0
-811 -846 0
-811 -847 0
-811 -848 0
-811 -849 0
-811 -850 0
-811 -851 0
-811 -852 0
-811 -853 0
-812 -813 0
-812 -814 0
-812 -815 0
-812 -816 0
-812 -817 0
-812 -818 0
-812 -819 0
-812 -820 0
-812 -821 0
-812 -822 0
-812 -823 0
-812 -824 0
-812 -825 0
-812 -826 0
-812 -827 0
-812 -828 0
-812 -829 0
-812 -830 0
-812 -831 0
-812 -832 0
-812 -833 0
-812 -834 0
-812 -835 0
-812 -836 0
-812 -837 0
-812 -838 0
-812 -839 0
-812 -840 0
-812 -841 0
-812 -842 0
-812 -843 0
-812 -844 0
-812 -845 0
-812 -846 0
-812 -847 0
-812 -848 0
-812 -849 0
-812 -850 0
-812 -851 0
-812 -852 0
-812 -853 0
-813 -814 0
-813 -815 0
-813 -816 0
-813 -817 0
-813 -818 0
-813 -819 0
-813 -820 0
-813 -821 0
-813 -822 0
-813 -823 0
-813 -824 0
-813 -825 0
-813 -826 0
-813 -827 0
-813 -828 0
-813 -829 0
-813 -830 0
-813 -831 0
-813 -832 0
-813 -833 0
-813 -834 0
-813 -835 0
-813 -836 0
-813 -837 0
-813 -838 0
-813 -839 0
-813 -840 0
-813 -841 0
-813 -842 0
-813 -843 0
-813 -844 0
-813 -845 0
-813 -846 0
-813 -847 0
-813 -848 0
-813 -849 0
-813 -850 0
-813 -851 0
-813 -852 0
-813 -853 0
-814 -815 0
-814 -816 0
-814 -817 0
-814 -818 0
-814 -819 0
-814 -820 0
-814 -821 0
-814 -822 0
-814 -823 0
-814 -824 0
-814 -825 0
-814 -826 0
-814 -827 0
-814 -828 0
-814 -829 0
-814 -830 0
-814 -831 0
-814 -832 0
-814 -833 0
-814 -834 0
-814 -835 0
-814 -836 0
-814 -837 0
-814 -838 0
-814 -839 0
-814 -840 0
-814 -841 0
-814 -842 0
-814 -843 0
-814 -844 0
-814 -845 0
-814 -846 0
-814 -847 0
-814 -848 0
-814 -849 0
-814 -850 0
-814 -851 0
-814 -852 0
-814 -853 0
-815 -816 0
-815 -817 0
-815 -818 0
-815 -819 0
-815 -820 0
-815 -821 0
-815 -822 0
-815 -823 0
-815 -824 0
-815 -825 0
-815 -826 0
-815 -827 0
-815 -828 0
-815 -829 0
-815 -830 0
-815 -831 0
-815 -832 0
-815 -833 0
-815 -834 0
-815 -835 0
-815 -836 0
-815 -837 0
-815 -838 0
-815 -839 0
-815 -840 0
-815 -841 0
-815 -842 0
-815 -843 0
-815 -844 0
-815 -845 0
-815 -846 0
-815 -847 0
-815 -848 0
-815 -849 0
-815 -850 0
-815 -851 0
-815 -852 0
-815 -853 0
-816 -817 0
-816 -818 0
-816 -819 0
-816 -820 0
-816 -821 0
-816 -822 0
-816 -823 0
-816 -824 0
-816 -825 0
-816 -826 0
-816 -827 0
-816 -828 0
-816 -829 0
-816 -830 0
-816 -831 0
-816 -832 0
-816 -833 0
-816 -834 0
-816 -835 0
-816 -836 0
-816 -837 0
-816 -838 0
-816 -839 0
-816 -840 0
-816 -841 0
-816 -842 0
-816 -843 0
-816 -844 0
-816 -845 0
-816 -846 0
-816 -847 0
-816 -848 0
-816 -849 0
-816 -850 0
-816 -851 0
-816 -852 0
-816 -853 0
-817 -818 0
-817 -819 0
-817 -820 0
-817 -821 0
-817 -822 0
-817 -823 0
-817 -824 0
-817 -825 0
-817 -826 0
-817 -827 0
-817 -828 0
-817 -829 0
-817 -830 0
-817 -831 0
-817 -832 0
-817 -833 0
-817 -834 0
-817 -835 0
-817 -836 0
-817 -837 0
-817 -838 0
-817 -839 0
-817 -840 0
-817 -841 0
-817 -842 0
-817 -843 0
-817 -844 0
-817 -845 0
-817 -846 0
-817 -847 0
-817 -848 0
-817 -849 0
-817 -850 0
-817 -851 0
-817 -852 0
-817 -853 0
-818 -819 0
-818 -820 0
-818 -821 0
-818 -822 0
-818 -823 0
-818 -824 0
-818 -825 0
-818 -826 0
-818 -827 0
-818 -828 0
-818 -829 0
-818 -830 0
-818 -831 0
-818 -832 0
-818 -833 0
-818 -834 0
-818 -835 0
-818 -836 0
-818 -837 0
-818 -838 0
-818 -839 0
-818 -840 0
-818 -841 0
-818 -842 0
-818 -843 0
-818 -844 0
-818 -845 0
-818 -846 0
-818 -847 0
-818 -848 0
-818 -849 0
-818 -850 0
-818 -851 0
-818 -852 0
-818 -853 0
-819 -820 0
-819 -821 0
-819 -822 0
-819 -823 0
-819 -824 0
-819 -825 0
-819 -826 0
-819 -827 0
-819 -828 0
-819 -829 0
-819 -830 0
-819 -831 0
-819 -832 0
-819 -833 0
-819 -834 0
-819 -835 0
-819 -836 0
-819 -837 0
-819 -838 0
-819 -839 0
-819 -840 0
-819 -841 0
-819 -842 0
-819 -843 0
-819 -844 0
-819 -845 0
-819 -846 0
-819 -847 0
-819 -848 0
-819 -849 0
-819 -850 0
-819 -851 0
-819 -852 0
-819 -853 0
-820 -821 0
-820 -822 0
-820 -823 0
-820 -824 0
-820 -825 0
-820 -826 0
-820 -827 0
-820 -828 0
-820 -829 0
-820 -830 0
-820 -831 0
-820 -832 0
-820 -833 0
-820 -834 0
-820 -835 0
-820 -836 0
-820 -837 0
-820 -838 0
-820 -839 0
-820 -840 0
-820 -841 0
-820 -842 0
-820 -843 0
-820 -844 0
-820 -845 0
-820 -846 0
-820 -847 0
-820 -848 0
-820 -849 0
-820 -850 0
-820 -851 0
-820 -852 0
-820 -853 0
-821 -822 0
-821 -823 0
-821 -824 0
-821 -825 0
-821 -826 0
-821 -827 0
-821 -828 0
-821 -829 0
-821 -830 0
-821 -831 0
-821 -832 0
-821 -833 0
-821 -834 0
-821 -835 0
-821 -836 0
-821 -837 0
-821 -838 0
-821 -839 0
-821 -840 0
-821 -841 0
-821 -842 0
-821 -843 0
-821 -844 0
-821 -845 0
-821 -846 0
-821 -847 0
-821 -848 0
-821 -849 0
-821 -850 0
-821 -851 0
-821 -852 0
-821 -853 0
-822 -823 0
-822 -824 0
-822 -825 0
-822 -826 0
-822 -827 0
-822 -828 0
-822 -829 0
-822 -830 0
-822 -831 0
-822 -832 0
-822 -833 0
-822 -834 0
-822 -835 0
-822 -836 0
-822 -837 0
-822 -838 0
-822 -839 0
-822 -840 0
-822 -841 0
-822 -842 0
-822 -843 0
-822 -844 0
-822 -845 0
-822 -846 0
-822 -847 0
-822 -848 0
-822 -849 0
-822 -850 0
-822 -851 0
-822 -852 0
-822 -853 0
-823 -824 0
-823 -825 0
-823 -826 0
-823 -827 0
-823 -828 0
-823 -829 0
-823 -830 0
-823 -831 0
-823 -832 0
-823 -833 0
-823 -834 0
-823 -835 0
-823 -836 0
-823 -837 0
-823 -838 0
-823 -839 0
-823 -840 0
-823 -841 0
-823 -842 0
-823 -843 0
-823 -844 0
-823 -845 0
-823 -846 0
-823 -847 0
-823 -848 0
-823 -849 0
-823 -850 0
-823 -851 0
-823 -852 0
-823 -853 0
-824 -825 0
-824 -826 0
-824 -827 0
-824 -828 0
-824 -829 0
-824 -830 0
-824 -831 0
-824 -832 0
-824 -833 0
-824 -834 0
-824 -835 0
-824 -836 0
-824 -837 0
-824 -838 0
-824 -839 0
-824 -840 0
-824 -841 0
-824 -842 0
-824 -843 0
-824 -844 0
-824 -845 0
-824 -846 0
-824 -847 0
-824 -848 0
-824 -849 0
-824 -850 0
-824 -851 0
-824 -852 0
-824 -853 0
-825 -826 0
-825 -827 0
-825 -828 0
-825 -829 0
-825 -830 0
-825 -831 0
-825 -832 0
-825 -833 0
-825 -834 0
-825 -835 0
-825 -836 0
-825 -837 0
-825 -838 0
-825 -839 0
-825 -840 0
-825 -841 0
-825 -842 0
-825 -843 0
-825 -844 0
-825 -845 0
-825 -846 0
-825 -847 0
-825 -848 0
-825 -849 0
-825 -850 0
-825 -851 0
-825 -852 0
-825 -853 0
-826 -827 0
-826 -828 0
-826 -829 0
-826 -830 0
-826 -831 0
-826 -832 0
-826 -833 0
-826 -834 0
-826 -835 0
-826 -836 0
-826 -837 0
-826 -838 0
-826 -839 0
-826 -840 0
-826 -841 0
-826 -842 0
-826 -843 0
-826 -844 0
-826 -845 0
-826 -846 0
-826 -847 0
-826 -848 0
-826 -849 0
-826 -850 0
-826 -851 0
-826 -852 0
-826 -853 0
-827 -828 0
-827 -829 0
-827 -830 0
-827 -831 0
-827 -832 0
-827 -833 0
-827 -834 0
-827 -835 0
-827 -836 0
-827 -837 0
-827 -838 0
-827 -839 0
-827 -840 0
-827 -841 0
-827 -842 0
-827 -843 0
-827 -844 0
-827 -845 0
-827 -846 0
-827 -847 0
-827 -848 0
-827 -849 0
-827 -850 0
-827 -851 0
-827 -852 0
-827 -853 0
-828 -829 0
-828 -830 0
-828 -831 0
-828 -832 0
-828 -833 0
-828 -834 0
-828 -835 0
-828 -836 0
-828 -837 0
-828 -838 0
-828 -839 0
-828 -840 0
-828 -841 0
-828 -842 0
-828 -843 0
-828 -844 0
-828 -845 0
-828 -846 0
-828 -847 0
-828 -848 0
-828 -849 0
-828 -850 0
-828 -851 0
-828 -852 0
-828 -853 0
-829 -830 0
-829 -831 0
-829 -832 0
-829 -833 0
-829 -834 0
-829 -835 0
-829 -836 0
-829 -837 0
-829 -838 0
-829 -839 0
-829 -840 0
-829 -841 0
-829 -842 0
-829 -843 0
-829 -844 0
-829 -845 0
-829 -846 0
-829 -847 0
-829 -848 0
-829 -849 0
-829 -850 0
-829 -851 0
-829 -852 0
-829 -853 0
-830 -831 0
-830 -832 0
-830 -833 0
-830 -834 0
-830 -835 0
-830 -836 0
-830 -837 0
-830 -838 0
-830 -839 0
-830 -840 0
-830 -841 0
-830 -842 0
-830 -843 0
-830 -844 0
-830 -845 0
-830 -846 0
-830 -847 0
-830 -848 0
-830 -849 0
-830 -850 0
-830 -851 0
-830 -852 0
-830 -853 0
-831 -832 0
-831 -833 0
-831 -834 0
-831 -835 0
-831 -836 0
-831 -837 0
-831 -838 0
-831 -839 0
-831 -840 0
-831 -841 0
-831 -842 0
-831 -843 0
-831 -844 0
-831 -845 0
-831 -846 0
-831 -847 0
-831 -848 0
-831 -849 0
-831 -850 0
-831 -851 0
-831 -852 0
-831 -853 0
-832 -833 0
-832 -834 0
-832 -835 0
-832 -836 0
-832 -837 0
-832 -838 0
-832 -839 0
-832 -840 0
-832 -841 0
-832 -842 0
-832 -843 0
-832 -844 0
-832 -845 0
-832 -846 0
-832 -847 0
-832 -848 0
-832 -849 0
-832 -850 0
-832 -851 0
-832 -852 0
-832 -853 0
-833 -834 0
-833 -835 0
-833 -836 0
-833 -837 0
-833 -838 0
-833 -839 0
-833 -840 0
-833 -841 0
-833 -842 0
-833 -843 0
-833 -844 0
-833 -845 0
-833 -846 0
-833 -847 0
-833 -848 0
-833 -849 0
-833 -850 0
-833 -851 0
-833 -852 0
-833 -853 0
-834 -835 0
-834 -836 0
-834 -837 0
-834 -838 0
-834 -839 0
-834 -840 0
-834 -841 0
-834 -842 0
-834 -843 0
-834 -844 0
-834 -845 0
-834 -846 0
-834 -847 0
-834 -848 0
-834 -849 0
-834 -850 0
-834 -851 0
-834 -852 0
-834 -853 0
-835 -836 0
-835 -837 0
-835 -838 0
-835 -839 0
-835 -840 0
-835 -841 0
-835 -842 0
-835 -843 0
-835 -844 0
-835 -845 0
-835 -846 0
-835 -847 0
-835 -848 0
-835 -849 0
-835 -850 0
-835 -851 0
-835 -852 0
-835 -853 0
-836 -837 0
-836 -838 0
-836 -839 0
-836 -840 0
-836 -841 0
-836 -842 0
-836 -843 0
-836 -844 0
-836 -845 0
-836 -846 0
-836 -847 0
-836 -848 0
-836 -849 0
-836 -850 0
-836 -851 0
-836 -852 0
-836 -853 0
-837 -838 0
-837 -839 0
-837 -840 0
-837 -841 0
-837 -842 0
-837 -843 0
-837 -844 0
-837 -845 0
-837 -846 0
-837 -847 0
-837 -848 0
-837 -849 0
-837 -850 0
-837 -851 0
-837 -852 0
-837 -853 0
-838 -839 0
-838 -840 0
-838 -841 0
-838 -842 0
-838 -843 0
-838 -844 0
-838 -845 0
-838 -846 0
-838 -847 0
-838 -848 0
-838 -849 0
-838 -850 0
-838 -851 0
-838 -852 0
-838 -853 0
-839 -840 0
-839 -841 0
-839 -842 0
-839 -843 0
-839 -844 0
-839 -845 0
-839 -846 0
-839 -847 0
-839 -848 0
-839 -849 0
-839 -850 0
-839 -851 0
-839 -852 0
-839 -853 0
-840 -841 0
-840 -842 0
-840 -843 0
-840 -844 0
-840 -845 0
-840 -846 0
-840 -847 0
-840 -848 0
-840 -849 0
-840 -850 0
-840 -851 0
-840 -852 0
-840 -853 0
-841 -842 0
-841 -843 0
-841 -844 0
-841 -845 0
-841 -846 0
-841 -847 0
-841 -848 0
-841 -849 0
-841 -850 0
-841 -851 0
-841 -852 0
-841 -853 0
-842 -843 0
-842 -844 0
-842 -845 0
-842 -846 0
-842 -847 0
-842 -848 0
-842 -849 0
-842 -850 0
-842 -851 0
-842 -852 0
-842 -853 0
-843 -844 0
-843 -845 0
-843 -846 0
-843 -847 0
-843 -848 0
-843 -849 0
-843 -850 0
-843 -851 0
-843 -852 0
-843 -853 0
-844 -845 0
-844 -846 0
-844 -847 0
-844 -848 0
-844 -849 0
-844 -850 0
-844 -851 0
-844 -852 0
-844 -853 0
-845 -846 0
-845 -847 0
-845 -848 0
-845 -849 0
-845 -850 0
-845 -851 0
-845 -852 0
-845 -853 0
-846 -847 0
-846 -848 0
-846 -849 0
-846 -850 0
-846 -851 0
-846 -852 0
-846 -853 0
-847 -848 0
-847 -849 0
-847 -850 0
-847 -851 0
-847 -852 0
-847 -853 0
-848 -849 0
-848 -850 0
-848 -851 0
-848 -852 0
-848 -853 0
-849 -850 0
-849 -851 0
-849 -852 0
-849 -853 0
-850 -851 0
-850 -852 0
-850 -853 0
-851 -852 0
-851 -853 0
-852 -853 0
-854 194 0
-854 -43 -142 -139 0
-854 -43 -143 -140 0
-854 -43 -144 -141 0
-854 49 0
-854 -49 -142 1081 404 0
-854 -49 -143 1081 410 0
-854 -49 -144 1081 416 0
-854 -142 -428 0
-854 -142 -452 0
-854 -142 -476 0
-854 -142 -434 0
-854 -142 -458 0
-854 -142 -482 0
-854 -142 -440 0
-854 -142 -464 0
-854 -142 -488 0
-854 -143 -434 0
-854 -143 -458 0
-854 -143 -482 0
-854 -143 -440 0
-854 -143 -464 0
-854 -143 -488 0
-854 -144 -440 0
-854 -144 -464 0
-854 -144 -488 0
-854 -145 0
-854 64 0
-854 -142 155 0
-854 -143 156 0
-854 -144 157 0
-854 -199 0
-855 194 0
-855 -44 -142 -139 0
-855 -44 -143 -140 0
-855 -44 -144 -141 0
-855 50 0
-855 -50 -142 1082 405 0
-855 -50 -143 1082 411 0
-855 -50 -144 1082 417 0
-855 -142 -429 0
-855 -142 -453 0
-855 -142 -477 0
-855 -142 -435 0
-855 -142 -459 0
-855 -142 -483 0
-855 -142 -441 0
-855 -142 -465 0
-855 -142 -489 0
-855 -143 -435 0
-855 -143 -459 0
-855 -143 -483 0
-855 -143 -441 0
-855 -143 -465 0
-855 -143 -489 0
-855 -144 -441 0
-855 -144 -465 0
-855 -144 -489 0
-855 -145 0
-855 65 0
-855 -142 155 0
-855 -143 156 0
-855 -144 157 0
-855 -199 0
-856 194 0
-856 -45 -142 -139 0
-856 -45 -143 -140 0
-856 -45 -144 -141 0
-856 51 0
-856 -51 -142 1083 406 0
-856 -51 -143 1083 412 0
-856 -51 -144 1083 418 0
-856 -142 -430 0
-856 -142 -454 0
-856 -142 -478 0
-856 -142 -436 0
-856 -142 -460 0
-856 -142 -484 0
-856 -142 -442 0
-856 -142 -466 0
-856 -142 -490 0
-856 -143 -436 0
-856 -143 -460 0
-856 -143 -484 0
-856 -143 -442 0
-856 -143 -466 0
-856 -143 -490 0
-856 -144 -442 0
-856 -144 -466 0
-856 -144 -490 0
-856 -145 0
-856 66 0
-856 -142 155 0
-856 -143 156 0
-856 -144 157 0
-856 -199 0
-857 194 0
-857 -46 -142 -139 0
-857 -46 -143 -140 0
-857 -46 -144 -141 0
-857 52 0
-857 -52 -142 1084 407 0
-857 -52 -143 1084 413 0
-857 -52 -144 1084 419 0
-857 -142 -431 0
-857 -142 -455 0
-857 -142 -479 0
-857 -142 -437 0
-857 -142 -461 0
-857 -142 -485 0
-857 -142 -443 0
-857 -142 -467 0
-857 -142 -491 0
-857 -143 -437 0
-857 -143 -461 0
-857 -143 -485 0
-857 -143 -443 0
-857 -143 -467 0
-857 -143 -491 0
-857 -144 -443 0
-857 -144 -467 0
-857 -144 -491 0
-857 -145 0
-857 67 0
-857 -142 155 0
-857 -143 156 0
-857 -144 157 0
-857 -199 0
-858 194 0
-858 -47 -142 -139 0
-858 -47 -143 -140 0
-858 -47 -144 -141 0
-858 53 0
-858 -53 -142 1085 408 0
-858 -53 -143 1085 414 0
-858 -53 -144 1085 420 0
-858 -142 -432 0
-858 -142 -456 0
-858 -142 -480 0
-858 -142 -438 0
-858 -142 -462 0
-858 -142 -486 0
-858 -142 -444 0
-858 -142 -468 0
-858 -142 -492 0
-858 -143 -438 0
-858 -143 -462 0
-858 -143 -486 0
-858 -143 -444 0
-858 -143 -468 0
-858 -143 -492 0
-858 -144 -444 0
-858 -144 -468 0
-858 -144 -492 0
-858 -145 0
-858 68 0
-858 -142 155 0
-858 -143 156 0
-858 -144 157 0
-858 -199 0
-859 194 0
-859 -48 -142 -139 0
-859 -48 -143 -140 0
-859 -48 -144 -141 0
-859 54 0
-859 -54 -142 1086 409 0
-859 -54 -143 1086 415 0
-859 -54 -144 1086 421 0
-859 -142 -433 0
-859 -142 -457 0
-859 -142 -481 0
-859 -142 -439 0
-859 -142 -463 0
-859 -142 -487 0
-859 -142 -445 0
-859 -142 -469 0
-859 -142 -493 0
-859 -143 -439 0
-859 -143 -463 0
-859 -143 -487 0
-859 -143 -445 0
-859 -143 -469 0
-859 -143 -493 0
-859 -144 -445 0
-859 -144 -469 0
-859 -144 -493 0
-859 -145 0
-859 69 0
-859 -142 155 0
-859 -143 156 0
-859 -144 157 0
-859 -199 0
-860 194 0
-860 -43 -146 -139 0
-860 -43 -147 -140 0
-860 -43 -148 -141 0
-860 55 0
-860 -55 -146 1087 404 0
-860 -55 -147 1087 410 0
-860 -55 -148 1087 416 0
-860 -146 -428 0
-860 -146 -452 0
-860 -146 -476 0
-860 -146 -434 0
-860 -146 -458 0
-860 -146 -482 0
-860 -146 -440 0
-860 -146 -464 0
-860 -146 -488 0
-860 -147 -434 0
-860 -147 -458 0
-860 -147 -482 0
-860 -147 -440 0
-860 -147 -464 0
-860 -147 -488 0
-860 -148 -440 0
-860 -148 -464 0
-860 -148 -488 0
-860 -149 0
-860 64 0
-860 -146 155 0
-860 -147 156 0
-860 -148 157 0
-860 -200 0
-861 194 0
-861 -44 -146 -139 0
-861 -44 -147 -140 0
-861 -44 -148 -141 0
-861 55 56 0
-861 -55 -146 1088 405 0
-861 -55 -147 1088 411 0
-861 -55 -148 1088 417 0
-861 -56 -146 1088 405 0
-861 -56 -147 1088 411 0
-861 -56 -148 1088 417 0
-861 -146 -429 0
-861 -146 -453 0
-861 -146 -477 0
-861 -146 -435 0
-861 -146 -459 0
-861 -146 -483 0
-861 -146 -441 0
-861 -146 -465 0
-861 -146 -489 0
-861 -147 -435 0
-861 -147 -459 0
-861 -147 -483 0
-861 -147 -441 0
-861 -147 -465 0
-861 -147 -489 0
-861 -148 -441 0
-861 -148 -465 0
-861 -148 -489 0
-861 -149 0
-861 65 0
-861 -146 155 0
-861 -147 156 0
-861 -148 157 0
-861 -200 0
-862 194 0
-862 -45 -146 -139 0
-862 -45 -147 -140 0
-862 -45 -148 -141 0
-862 56 57 0
-862 -56 -146 1089 406 0
-862 -56 -147 1089 412 0
-862 -56 -148 1089 418 0
-862 -57 -146 1089 406 0
-862 -57 -147 1089 412 0
-862 -57 -148 1089 418 0
-862 -146 -430 0
-862 -146 -454 0
-862 -146 -478 0
-862 -146 -436 0
-862 -146 -460 0
-862 -146 -484 0
-862 -146 -442 0
-862 -146 -466 0
-862 -146 -490 0
-862 -147 -436 0
-862 -147 -460 0
-862 -147 -484 0
-862 -147 -442 0
-862 -147 -466 0
-862 -147 -490 0
-862 -148 -442 0
-862 -148 -466 0
-862 -148 -490 0
-862 -149 0
-862 66 0
-862 -146 155 0
-862 -147 156 0
-862 -148 157 0
-862 -200 0
-863 194 0
-863 -46 -146 -139 0
-863 -46 -147 -140 0
-863 -46 -148 -141 0
-863 57 58 0
-863 -57 -146 1090 407 0
-863 -57 -147 1090 413 0
-863 -57 -148 1090 419 0
-863 -58 -146 1090 407 0
-863 -58 -147 1090 413 0
-863 -58 -148 1090 419 0
-863 -146 -431 0
-863 -146 -455 0
-863 -146 -479 0
-863 -146 -437 0
-863 -146 -461 0
-863 -146 -485 0
-863 -146 -443 0
-863 -146 -467 0
-863 -146 -491 0
-863 -147 -437 0
-863 -147 -461 0
-863 -147 -485 0
-863 -147 -443 0
-863 -147 -467 0
-863 -147 -491 0
-863 -148 -443 0
-863 -148 -467 0
-863 -148 -491 0
-863 -149 0
-863 67 0
-863 -146 155 0
-863 -147 156 0
-863 -148 157 0
-863 -200 0
-864 194 0
-864 -47 -146 -139 0
-864 -47 -147 -140 0
-864 -47 -148 -141 0
-864 58 59 0
-864 -58 -146 1091 408 0
-864 -58 -147 1091 414 0
-864 -58 -148 1091 420 0
-864 -59 -146 1091 408 0
-864 -59 -147 1091 414 0
-864 -59 -148 1091 420 0
-864 -146 -432 0
-864 -146 -456 0
-864 -146 -480 0
-864 -146 -438 0
-864 -146 -462 0
-864 -146 -486 0
-864 -146 -444 0
-864 -146 -468 0
-864 -146 -492 0
-864 -147 -438 0
-864 -147 -462 0
-864 -147 -486 0
-864 -147 -444 0
-864 -147 -468 0
-864 -147 -492 0
-864 -148 -444 0
-864 -148 -468 0
-864 -148 -492 0
-864 -149 0
-864 68 0
-864 -146 155 0
-864 -147 156 0
-864 -148 157 0
-864 -200 0
-865 194 0
-865 -48 -146 -139 0
-865 -48 -147 -140 0
-865 -48 -148 -141 0
-865 59 0
-865 -59 -146 1092 409 0
-865 -59 -147 1092 415 0
-865 -59 -148 1092 421 0
-865 -146 -433 0
-865 -146 -457 0
-865 -146 -481 0
-865 -146 -439 0
-865 -146 -463 0
-865 -146 -487 0
-865 -146 -445 0
-865 -146 -469 0
-865 -146 -493 0
-865 -147 -439 0
-865 -147 -463 0
-865 -147 -487 0
-865 -147 -445 0
-865 -147 -469 0
-865 -147 -493 0
-865 -148 -445 0
-865 -148 -469 0
-865 -148 -493 0
-865 -149 0
-865 69 0
-865 -146 155 0
-865 -147 156 0
-865 -148 157 0
-865 -200 0
-866 194 0
-866 -43 -150 -139 0
-866 -43 -151 -140 0
-866 -43 -152 -141 0
-866 60 0
-866 -60 -150 1093 404 0
-866 -60 -151 1093 410 0
-866 -60 -152 1093 416 0
-866 -150 -428 0
-866 -150 -452 0
-866 -150 -476 0
-866 -150 -434 0
-866 -150 -458 0
-866 -150 -482 0
-866 -150 -440 0
-866 -150 -464 0
-866 -150 -488 0
-866 -151 -434 0
-866 -151 -458 0
-866 -151 -482 0
-866 -151 -440 0
-866 -151 -464 0
-866 -151 -488 0
-866 -152 -440 0
-866 -152 -464 0
-866 -152 -488 0
-866 -153 0
-866 64 0
-866 -150 155 0
-866 -151 156 0
-866 -152 157 0
-866 -201 0
-867 194 0
-867 -44 -150 -139 0
-867 -44 -151 -140 0
-867 -44 -152 -141 0
-867 60 61 0
-867 -60 -150 1094 405 0
-867 -60 -151 1094 411 0
-867 -60 -152 1094 417 0
-867 -61 -150 1094 405 0
-867 -61 -151 1094 411 0
-867 -61 -152 1094 417 0
-867 -150 -429 0
-867 -150 -453 0
-867 -150 -477 0
-867 -150 -435 0
-867 -150 -459 0
-867 -150 -483 0
-867 -150 -441 0
-867 -150 -465 0
-867 -150 -489 0
-867 -151 -435 0
-867 -151 -459 0
-867 -151 -483 0
-867 -151 -441 0
-867 -151 -465 0
-867 -151 -489 0
-867 -152 -441 0
-867 -152 -465 0
-867 -152 -489 0
-867 -153 0
-867 65 0
-867 -150 155 0
-867 -151 156 0
-867 -152 157 0
-867 -201 0
-868 194 0
-868 -45 -150 -139 0
-868 -45 -151 -140 0
-868 -45 -152 -141 0
-868 60 61 62 0
-868 -60 -150 1095 406 0
-868 -60 -151 1095 412 0
-868 -60 -152 1095 418 0
-868 -61 -150 1095 406 0
-868 -61 -151 1095 412 0
-868 -61 -152 1095 418 0
-868 -62 -150 1095 406 0
-868 -62 -151 1095 412 0
-868 -62 -152 1095 418 0
-868 -150 -430 0
-868 -150 -454 0
-868 -150 -478 0
-868 -150 -436 0
-868 -150 -460 0
-868 -150 -484 0
-868 -150 -442 0
-868 -150 -466 0
-868 -150 -490 0
-868 -151 -436 0
-868 -151 -460 0
-868 -151 -484 0
-868 -151 -442 0
-868 -151 -466 0
-868 -151 -490 0
-868 -152 -442 0
-868 -152 -466 0
-868 -152 -490 0
-868 -153 0
-868 66 0
-868 -150 155 0
-868 -151 156 0
-868 -152 157 0
-868 -201 0
-869 194 0
-869 -46 -150 -139 0
-869 -46 -151 -140 0
-869 -46 -152 -141 0
-869 61 62 63 0
-869 -61 -150 1096 407 0
-869 -61 -151 1096 413 0
-869 -61 -152 1096 419 0
-869 -62 -150 1096 407 0
-869 -62 -151 1096 413 0
-869 -62 -152 1096 419 0
-869 -63 -150 1096 407 0
-869 -63 -151 1096 413 0
-869 -63 -152 1096 419 0
-869 -150 -431 0
-869 -150 -455 0
-869 -150 -479 0
-869 -150 -437 0
-869 -150 -461 0
-869 -150 -485 0
-869 -150 -443 0
-869 -150 -467 0
-869 -150 -491 0
-869 -151 -437 0
-869 -151 -461 0
-869 -151 -485 0
-869 -151 -443 0
-869 -151 -467 0
-869 -151 -491 0
-869 -152 -443 0
-869 -152 -467 0
-869 -152 -491 0
-869 -153 0
-869 67 0
-869 -150 155 0
-869 -151 156 0
-869 -152 157 0
-869 -201 0
-870 194 0
-870 -47 -150 -139 0
-870 -47 -151 -140 0
-870 -47 -152 -141 0
-870 62 63 0
-870 -62 -150 1097 408 0
-870 -62 -151 1097 414 0
-870 -62 -152 1097 420 0
-870 -63 -150 1097 408 0
-870 -63 -151 1097 414 0
-870 -63 -152 1097 420 0
-870 -150 -432 0
-870 -150 -456 0
-870 -150 -480 0
-870 -150 -438 0
-870 -150 -462 0
-870 -150 -486 0
-870 -150 -444 0
-870 -150 -468 0
-870 -150 -492 0
-870 -151 -438 0
-870 -151 -462 0
-870 -151 -486 0
-870 -151 -444 0
-870 -151 -468 0
-870 -151 -492 0
-870 -152 -444 0
-870 -152 -468 0
-870 -152 -492 0
-870 -153 0
-870 68 0
-870 -150 155 0
-870 -151 156 0
-870 -152 157 0
-870 -201 0
-871 194 0
-871 -48 -150 -139 0
-871 -48 -151 -140 0
-871 -48 -152 -141 0
-871 63 0
-871 -63 -150 1098 409 0
-871 -63 -151 1098 415 0
-871 -63 -152 1098 421 0
-871 -150 -433 0
-871 -150 -457 0
-871 -150 -481 0
-871 -150 -439 0
-871 -150 -463 0
-871 -150 -487 0
-871 -150 -445 0
-871 -150 -469 0
-871 -150 -493 0
-871 -151 -439 0
-871 -151 -463 0
-871 -151 -487 0
-871 -151 -445 0
-871 -151 -469 0
-871 -151 -493 0
-871 -152 -445 0
-871 -152 -469 0
-871 -152 -493 0
-871 -153 0
-871 69 0
-871 -150 155 0
-871 -151 156 0
-871 -152 157 0
-871 -201 0
-872 194 0
-872 -43 -138 0
-872 -422 0
-872 -446 0
-872 -470 0
-872 -428 0
-872 -452 0
-872 -476 0
-872 -434 0
-872 -458 0
-872 -482 0
-872 -440 0
-872 -464 0
-872 -488 0
-872 64 0
-872 154 0
-873 194 0
-873 -44 -138 0
-873 -423 0
-873 -447 0
-873 -471 0
-873 -429 0
-873 -453 0
-873 -477 0
-873 -435 0
-873 -459 0
-873 -483 0
-873 -441 0
-873 -465 0
-873 -489 0
-873 65 0
-873 154 0
-874 194 0
-874 -45 -138 0
-874 -424 0
-874 -448 0
-874 -472 0
-874 -430 0
-874 -454 0
-874 -478 0
-874 -436 0
-874 -460 0
-874 -484 0
-874 -442 0
-874 -466 0
-874 -490 0
-874 66 0
-874 154 0
-875 194 0
-875 -46 -138 0
-875 -425 0
-875 -449 0
-875 -473 0
-875 -431 0
-875 -455 0
-875 -479 0
-875 -437 0
-875 -461 0
-875 -485 0
-875 -443 0
-875 -467 0
-875 -491 0
-875 67 0
-875 154 0
-876 194 0
-876 -47 -138 0
-876 -426 0
-876 -450 0
-876 -474 0
-876 -432 0
-876 -456 0
-876 -480 0
-876 -438 0
-876 -462 0
-876 -486 0
-876 -444 0
-876 -468 0
-876 -492 0
-876 68 0
-876 154 0
-877 194 0
-877 -48 -138 0
-877 -427 0
-877 -451 0
-877 -475 0
-877 -433 0
-877 -457 0
-877 -481 0
-877 -439 0
-877 -463 0
-877 -487 0
-877 -445 0
-877 -469 0
-877 -493 0
-877 69 0
-877 154 0
-878 195 0
-878 -49 -138 -143 0
-878 -49 -139 -144 0
-878 -49 -140 -145 0
-878 43 0
-878 -43 -138 1075 428 0
-878 -43 -139 1075 434 0
-878 -43 -140 1075 440 0
-878 -138 -404 0
-878 -138 -452 0
-878 -138 -476 0
-878 -138 -410 0
-878 -138 -458 0
-878 -138 -482 0
-878 -138 -416 0
-878 -138 -464 0
-878 -138 -488 0
-878 -139 -410 0
-878 -139 -458 0
-878 -139 -482 0
-878 -139 -416 0
-878 -139 -464 0
-878 -139 -488 0
-878 -140 -416 0
-878 -140 -464 0
-878 -140 -488 0
-878 -141 0
-878 70 0
-878 -138 159 0
-878 -139 160 0
-878 -140 161 0
-878 -198 0
-879 195 0
-879 -50 -138 -143 0
-879 -50 -139 -144 0
-879 -50 -140 -145 0
-879 44 0
-879 -44 -138 1076 429 0
-879 -44 -139 1076 435 0
-879 -44 -140 1076 441 0
-879 -138 -405 0
-879 -138 -453 0
-879 -138 -477 0
-879 -138 -411 0
-879 -138 -459 0
-879 -138 -483 0
-879 -138 -417 0
-879 -138 -465 0
-879 -138 -489 0
-879 -139 -411 0
-879 -139 -459 0
-879 -139 -483 0
-879 -139 -417 0
-879 -139 -465 0
-879 -139 -489 0
-879 -140 -417 0
-879 -140 -465 0
-879 -140 -489 0
-879 -141 0
-879 71 0
-879 -138 159 0
-879 -139 160 0
-879 -140 161 0
-879 -198 0
-880 195 0
-880 -51 -138 -143 0
-880 -51 -139 -144 0
-880 -51 -140 -145 0
-880 45 0
-880 -45 -138 1077 430 0
-880 -45 -139 1077 436 0
-880 -45 -140 1077 442 0
-880 -138 -406 0
-880 -138 -454 0
-880 -138 -478 0
-880 -138 -412 0
-880 -138 -460 0
-880 -138 -484 0
-880 -138 -418 0
-880 -138 -466 0
-880 -138 -490 0
-880 -139 -412 0
-880 -139 -460 0
-880 -139 -484 0
-880 -139 -418 0
-880 -139 -466 0
-880 -139 -490 0
-880 -140 -418 0
-880 -140 -466 0
-880 -140 -490 0
-880 -141 0
-880 72 0
-880 -138 159 0
-880 -139 160 0
-880 -140 161 0
-880 -198 0
-881 195 0
-881 -52 -138 -143 0
-881 -52 -139 -144 0
-881 -52 -140 -145 0
-881 46 0
-881 -46 -138 1078 431 0
-881 -46 -139 1078 437 0
-881 -46 -140 1078 443 0
-881 -138 -407 0
-881 -138 -455 0
-881 -138 -479 0
-881 -138 -413 0
-881 -138 -461 0
-881 -138 -485 0
-881 -138 -419 0
-881 -138 -467 0
-881 -138 -491 0
-881 -139 -413 0
-881 -139 -461 0
-881 -139 -485 0
-881 -139 -419 0
-881 -139 -467 0
-881 -139 -491 0
-881 -140 -419 0
-881 -140 -467 0
-881 -140 -491 0
-881 -141 0
-881 73 0
-881 -138 159 0
-881 -139 160 0
-881 -140 161 0
-881 -198 0
-882 195 0
-882 -53 -138 -143 0
-882 -53 -139 -144 0
-882 -53 -140 -145 0
-882 47 0
-882 -47 -138 1079 432 0
-882 -47 -139 1079 438 0
-882 -47 -140 1079 444 0
-882 -138 -408 0
-882 -138 -456 0
-882 -138 -480 0
-882 -138 -414 0
-882 -138 -462 0
-882 -138 -486 0
-882 -138 -420 0
-882 -138 -468 0
-882 -138 -492 0
-882 -139 -414 0
-882 -139 -462 0
-882 -139 -486 0
-882 -139 -420 0
-882 -139 -468 0
-882 -139 -492 0
-882 -140 -420 0
-882 -140 -468 0
-882 -140 -492 0
-882 -141 0
-882 74 0
-882 -138 159 0
-882 -139 160 0
-882 -140 161 0
-882 -198 0
-883 195 0
-883 -54 -138 -143 0
-883 -54 -139 -144 0
-883 -54 -140 -145 0
-883 48 0
-883 -48 -138 1080 433 0
-883 -48 -139 1080 439 0
-883 -48 -140 1080 445 0
-883 -138 -409 0
-883 -138 -457 0
-883 -138 -481 0
-883 -138 -415 0
-883 -138 -463 0
-883 -138 -487 0
-883 -138 -421 0
-883 -138 -469 0
-883 -138 -493 0
-883 -139 -415 0
-883 -139 -463 0
-883 -139 -487 0
-883 -139 -421 0
-883 -139 -469 0
-883 -139 -493 0
-883 -140 -421 0
-883 -140 -469 0
-883 -140 -493 0
-883 -141 0
-883 75 0
-883 -138 159 0
-883 -139 160 0
-883 -140 161 0
-883 -198 0
-884 195 0
-884 -49 -146 -143 0
-884 -49 -147 -144 0
-884 -49 -148 -145 0
-884 55 0
-884 -55 -146 1087 428 0
-884 -55 -147 1087 434 0
-884 -55 -148 1087 440 0
-884 -146 -404 0
-884 -146 -452 0
-884 -146 -476 0
-884 -146 -410 0
-884 -146 -458 0
-884 -146 -482 0
-884 -146 -416 0
-884 -146 -464 0
-884 -146 -488 0
-884 -147 -410 0
-884 -147 -458 0
-884 -147 -482 0
-884 -147 -416 0
-884 -147 -464 0
-884 -147 -488 0
-884 -148 -416 0
-884 -148 -464 0
-884 -148 -488 0
-884 -149 0
-884 70 0
-884 -146 159 0
-884 -147 160 0
-884 -148 161 0
-884 -200 0
-885 195 0
-885 -50 -146 -143 0
-885 -50 -147 -144 0
-885 -50 -148 -145 0
-885 55 56 0
-885 -55 -146 1088 429 0
-885 -55 -147 1088 435 0
-885 -55 -148 1088 441 0
-885 -56 -146 1088 429 0
-885 -56 -147 1088 435 0
-885 -56 -148 1088 441 0
-885 -146 -405 0
-885 -146 -453 0
-885 -146 -477 0
-885 -146 -411 0
-885 -146 -459 0
-885 -146 -483 0
-885 -146 -417 0
-885 -146 -465 0
-885 -146 -489 0
-885 -147 -411 0
-885 -147 -459 0
-885 -147 -483 0
-885 -147 -417 0
-885 -147 -465 0
-885 -147 -489 0
-885 -148 -417 0
-885 -148 -465 0
-885 -148 -489 0
-885 -149 0
-885 71 0
-885 -146 159 0
-885 -147 160 0
-885 -148 161 0
-885 -200 0
-886 195 0
-886 -51 -146 -143 0
-886 -51 -147 -144 0
-886 -51 -148 -145 0
-886 56 57 0
-886 -56 -146 1089 430 0
-886 -56 -147 1089 436 0
-886 -56 -148 1089 442 0
-886 -57 -146 1089 430 0
-886 -57 -147 1089 436 0
-886 -57 -148 1089 442 0
-886 -146 -406 0
-886 -146 -454 0
-886 -146 -478 0
-886 -146 -412 0
-886 -146 -460 0
-886 -146 -484 0
-886 -146 -418 0
-886 -146 -466 0
-886 -146 -490 0
-886 -147 -412 0
-886 -147 -460 0
-886 -147 -484 0
-886 -147 -418 0
-886 -147 -466 0
-886 -147 -490 0
-886 -148 -418 0
-886 -148 -466 0
-886 -148 -490 0
-886 -149 0
-886 72 0
-886 -146 159 0
-886 -147 160 0
-886 -148 161 0
-886 -200 0
-887 195 0
-887 -52 -146 -143 0
-887 -52 -147 -144 0
-887 -52 -148 -145 0
-887 57 58 0
-887 -57 -146 1090 431 0
-887 -57 -147 1090 437 0
-887 -57 -148 1090 443 0
-887 -58 -146 1090 431 0
-887 -58 -147 1090 437 0
-887 -58 -148 1090 443 0
-887 -146 -407 0
-887 -146 -455 0
-887 -146 -479 0
-887 -146 -413 0
-887 -146 -461 0
-887 -146 -485 0
-887 -146 -419 0
-887 -146 -467 0
-887 -146 -491 0
-887 -147 -413 0
-887 -147 -461 0
-887 -147 -485 0
-887 -147 -419 0
-887 -147 -467 0
-887 -147 -491 0
-887 -148 -419 0
-887 -148 -467 0
-887 -148 -491 0
-887 -149 0
-887 73 0
-887 -146 159 0
-887 -147 160 0
-887 -148 161 0
-887 -200 0
-888 195 0
-888 -53 -146 -143 0
-888 -53 -147 -144 0
-888 -53 -148 -145 0
-888 58 59 0
-888 -58 -146 1091 432 0
-888 -58 -147 1091 438 0
-888 -58 -148 1091 444 0
-888 -59 -146 1091 432 0
-888 -59 -147 1091 438 0
-888 -59 -148 1091 444 0
-888 -146 -408 0
-888 -146 -456 0
-888 -146 -480 0
-888 -146 -414 0
-888 -146 -462 0
-888 -146 -486 0
-888 -146 -420 0
-888 -146 -468 0
-888 -146 -492 0
-888 -147 -414 0
-888 -147 -462 0
-888 -147 -486 0
-888 -147 -420 0
-888 -147 -468 0
-888 -147 -492 0
-888 -148 -420 0
-888 -148 -468 0
-888 -148 -492 0
-888 -149 0
-888 74 0
-888 -146 159 0
-888 -147 160 0
-888 -148 161 0
-888 -200 0
-889 195 0
-889 -54 -146 -143 0
-889 -54 -147 -144 0
-889 -54 -148 -145 0
-889 59 0
-889 -59 -146 1092 433 0
-889 -59 -147 1092 439 0
-889 -59 -148 1092 445 0
-889 -146 -409 0
-889 -146 -457 0
-889 -146 -481 0
-889 -146 -415 0
-889 -146 -463 0
-889 -146 -487 0
-889 -146 -421 0
-889 -146 -469 0
-889 -146 -493 0
-889 -147 -415 0
-889 -147 -463 0
-889 -147 -487 0
-889 -147 -421 0
-889 -147 -469 0
-889 -147 -493 0
-889 -148 -421 0
-889 -148 -469 0
-889 -148 -493 0
-889 -149 0
-889 75 0
-889 -146 159 0
-889 -147 160 0
-889 -148 161 0
-889 -200 0
-890 195 0
-890 -49 -150 -143 0
-890 -49 -151 -144 0
-890 -49 -152 -145 0
-890 60 0
-890 -60 -150 1093 428 0
-890 -60 -151 1093 434 0
-890 -60 -152 1093 440 0
-890 -150 -404 0
-890 -150 -452 0
-890 -150 -476 0
-890 -150 -410 0
-890 -150 -458 0
-890 -150 -482 0
-890 -150 -416 0
-890 -150 -464 0
-890 -150 -488 0
-890 -151 -410 0
-890 -151 -458 0
-890 -151 -482 0
-890 -151 -416 0
-890 -151 -464 0
-890 -151 -488 0
-890 -152 -416 0
-890 -152 -464 0
-890 -152 -488 0
-890 -153 0
-890 70 0
-890 -150 159 0
-890 -151 160 0
-890 -152 161 0
-890 -201 0
-891 195 0
-891 -50 -150 -143 0
-891 -50 -151 -144 0
-891 -50 -152 -145 0
-891 60 61 0
-891 -60 -150 1094 429 0
-891 -60 -151 1094 435 0
-891 -60 -152 1094 441 0
-891 -61 -150 1094 429 0
-891 -61 -151 1094 435 0
-891 -61 -152 1094 441 0
-891 -150 -405 0
-891 -150 -453 0
-891 -150 -477 0
-891 -150 -411 0
-891 -150 -459 0
-891 -150 -483 0
-891 -150 -417 0
-891 -150 -465 0
-891 -150 -489 0
-891 -151 -411 0
-891 -151 -459 0
-891 -151 -483 0
-891 -151 -417 0
-891 -151 -465 0
-891 -151 -489 0
-891 -152 -417 0
-891 -152 -465 0
-891 -152 -489 0
-891 -153 0
-891 71 0
-891 -150 159 0
-891 -151 160 0
-891 -152 161 0
-891 -201 0
-892 195 0
-892 -51 -150 -143 0
-892 -51 -151 -144 0
-892 -51 -152 -145 0
-892 60 61 62 0
-892 -60 -150 1095 430 0
-892 -60 -151 1095 436 0
-892 -60 -152 1095 442 0
-892 -61 -150 1095 430 0
-892 -61 -151 1095 436 0
-892 -61 -152 1095 442 0
-892 -62 -150 1095 430 0
-892 -62 -151 1095 436 0
-892 -62 -152 1095 442 0
-892 -150 -406 0
-892 -150 -454 0
-892 -150 -478 0
-892 -150 -412 0
-892 -150 -460 0
-892 -150 -484 0
-892 -150 -418 0
-892 -150 -466 0
-892 -150 -490 0
-892 -151 -412 0
-892 -151 -460 0
-892 -151 -484 0
-892 -151 -418 0
-892 -151 -466 0
-892 -151 -490 0
-892 -152 -418 0
-892 -152 -466 0
-892 -152 -490 0
-892 -153 0
-892 72 0
-892 -150 159 0
-892 -151 160 0
-892 -152 161 0
-892 -201 0
-893 195 0
-893 -52 -150 -143 0
-893 -52 -151 -144 0
-893 -52 -152 -145 0
-893 61 62 63 0
-893 -61 -150 1096 431 0
-893 -61 -151 1096 437 0
-893 -61 -152 1096 443 0
-893 -62 -150 1096 431 0
-893 -62 -151 1096 437 0
-893 -62 -152 1096 443 0
-893 -63 -150 1096 431 0
-893 -63 -151 1096 437 0
-893 -63 -152 1096 443 0
-893 -150 -407 0
-893 -150 -455 0
-893 -150 -479 0
-893 -150 -413 0
-893 -150 -461 0
-893 -150 -485 0
-893 -150 -419 0
-893 -150 -467 0
-893 -150 -491 0
-893 -151 -413 0
-893 -151 -461 0
-893 -151 -485 0
-893 -151 -419 0
-893 -151 -467 0
-893 -151 -491 0
-893 -152 -419 0
-893 -152 -467 0
-893 -152 -491 0
-893 -153 0
-893 73 0
-893 -150 159 0
-893 -151 160 0
-893 -152 161 0
-893 -201 0
-894 195 0
-894 -53 -150 -143 0
-894 -53 -151 -144 0
-894 -53 -152 -145 0
-894 62 63 0
-894 -62 -150 1097 432 0
-894 -62 -151 1097 438 0
-894 -62 -152 1097 444 0
-894 -63 -150 1097 432 0
-894 -63 -151 1097 438 0
-894 -63 -152 1097 444 0
-894 -150 -408 0
-894 -150 -456 0
-894 -150 -480 0
-894 -150 -414 0
-894 -150 -462 0
-894 -150 -486 0
-894 -150 -420 0
-894 -150 -468 0
-894 -150 -492 0
-894 -151 -414 0
-894 -151 -462 0
-894 -151 -486 0
-894 -151 -420 0
-894 -151 -468 0
-894 -151 -492 0
-894 -152 -420 0
-894 -152 -468 0
-894 -152 -492 0
-894 -153 0
-894 74 0
-894 -150 159 0
-894 -151 160 0
-894 -152 161 0
-894 -201 0
-895 195 0
-895 -54 -150 -143 0
-895 -54 -151 -144 0
-895 -54 -152 -145 0
-895 63 0
-895 -63 -150 1098 433 0
-895 -63 -151 1098 439 0
-895 -63 -152 1098 445 0
-895 -150 -409 0
-895 -150 -457 0
-895 -150 -481 0
-895 -150 -415 0
-895 -150 -463 0
-895 -150 -487 0
-895 -150 -421 0
-895 -150 -469 0
-895 -150 -493 0
-895 -151 -415 0
-895 -151 -463 0
-895 -151 -487 0
-895 -151 -421 0
-895 -151 -469 0
-895 -151 -493 0
-895 -152 -421 0
-895 -152 -469 0
-895 -152 -493 0
-895 -153 0
-895 75 0
-895 -150 159 0
-895 -151 160 0
-895 -152 161 0
-895 -201 0
-896 195 0
-896 -49 -142 0
-896 -398 0
-896 -446 0
-896 -470 0
-896 -404 0
-896 -452 0
-896 -476 0
-896 -410 0
-896 -458 0
-896 -482 0
-896 -416 0
-896 -464 0
-896 -488 0
-896 70 0
-896 158 0
-897 195 0
-897 -50 -142 0
-897 -399 0
-897 -447 0
-897 -471 0
-897 -405 0
-897 -453 0
-897 -477 0
-897 -411 0
-897 -459 0
-897 -483 0
-897 -417 0
-897 -465 0
-897 -489 0
-897 71 0
-897 158 0
-898 195 0
-898 -51 -142 0
-898 -400 0
-898 -448 0
-898 -472 0
-898 -406 0
-898 -454 0
-898 -478 0
-898 -412 0
-898 -460 0
-898 -484 0
-898 -418 0
-898 -466 0
-898 -490 0
-898 72 0
-898 158 0
-899 195 0
-899 -52 -142 0
-899 -401 0
-899 -449 0
-899 -473 0
-899 -407 0
-899 -455 0
-899 -479 0
-899 -413 0
-899 -461 0
-899 -485 0
-899 -419 0
-899 -467 0
-899 -491 0
-899 73 0
-899 158 0
-900 195 0
-900 -53 -142 0
-900 -402 0
-900 -450 0
-900 -474 0
-900 -408 0
-900 -456 0
-900 -480 0
-900 -414 0
-900 -462 0
-900 -486 0
-900 -420 0
-900 -468 0
-900 -492 0
-900 74 0
-900 158 0
-901 195 0
-901 -54 -142 0
-901 -403 0
-901 -451 0
-901 -475 0
-901 -409 0
-901 -457 0
-901 -481 0
-901 -415 0
-901 -463 0
-901 -487 0
-901 -421 0
-901 -469 0
-901 -493 0
-901 75 0
-901 158 0
-902 196 0
-902 -55 -138 -147 0
-902 -55 -139 -148 0
-902 -55 -140 -149 0
-902 43 44 0
-902 -43 -138 1075 452 0
-902 -43 -139 1075 458 0
-902 -43 -140 1075 464 0
-902 -44 -138 1076 453 0
-902 -44 -139 1076 459 0
-902 -44 -140 1076 465 0
-902 -138 -404 0
-902 -138 -428 0
-902 -138 -476 0
-902 -138 -410 0
-902 -138 -434 0
-902 -138 -482 0
-902 -138 -416 0
-902 -138 -440 0
-902 -138 -488 0
-902 -138 -405 0
-902 -138 -429 0
-902 -138 -477 0
-902 -138 -411 0
-902 -138 -435 0
-902 -138 -483 0
-902 -138 -417 0
-902 -138 -441 0
-902 -138 -489 0
-902 -139 -410 0
-902 -139 -434 0
-902 -139 -482 0
-902 -139 -416 0
-902 -139 -440 0
-902 -139 -488 0
-902 -139 -411 0
-902 -139 -435 0
-902 -139 -483 0
-902 -139 -417 0
-902 -139 -441 0
-902 -139 -489 0
-902 -140 -416 0
-902 -140 -440 0
-902 -140 -488 0
-902 -140 -417 0
-902 -140 -441 0
-902 -140 -489 0
-902 -141 0
-902 76 0
-902 -138 163 0
-902 -139 164 0
-902 -140 165 0
-902 -198 0
-903 196 0
-903 -56 -138 -147 0
-903 -56 -139 -148 0
-903 -56 -140 -149 0
-903 44 45 0
-903 -44 -138 1076 453 0
-903 -44 -139 1076 459 0
-903 -44 -140 1076 465 0
-903 -45 -138 1077 454 0
-903 -45 -139 1077 460 0
-903 -45 -140 1077 466 0
-903 -138 -405 0
-903 -138 -429 0
-903 -138 -477 0
-903 -138 -411 0
-903 -138 -435 0
-903 -138 -483 0
-903 -138 -417 0
-903 -138 -441 0
-903 -138 -489 0
-903 -138 -406 0
-903 -138 -430 0
-903 -138 -478 0
-903 -138 -412 0
-903 -138 -436 0
-903 -138 -484 0
-903 -138 -418 0
-903 -138 -442 0
-903 -138 -490 0
-903 -139 -411 0
-903 -139 -435 0
-903 -139 -483 0
-903 -139 -417 0
-903 -139 -441 0
-903 -139 -489 0
-903 -139 -412 0
-903 -139 -436 0
-903 -139 -484 0
-903 -139 -418 0
-903 -139 -442 0
-903 -139 -490 0
-903 -140 -417 0
-903 -140 -441 0
-903 -140 -489 0
-903 -140 -418 0
-903 -140 -442 0
-903 -140 -490 0
-903 -141 0
-903 77 0
-903 -138 163 0
-903 -139 164 0
-903 -140 165 0
-903 -198 0
-904 196 0
-904 -57 -138 -147 0
-904 -57 -139 -148 0
-904 -57 -140 -149 0
-904 45 46 0
-904 -45 -138 1077 454 0
-904 -45 -139 1077 460 0
-904 -45 -140 1077 466 0
-904 -46 -138 1078 455 0
-904 -46 -139 1078 461 0
-904 -46 -140 1078 467 0
-904 -138 -406 0
-904 -138 -430 0
-904 -138 -478 0
-904 -138 -412 0
-904 -138 -436 0
-904 -138 -484 0
-904 -138 -418 0
-904 -138 -442 0
-904 -138 -490 0
-904 -138 -407 0
-904 -138 -431 0
-904 -138 -479 0
-904 -138 -413 0
-904 -138 -437 0
-904 -138 -485 0
-904 -138 -419 0
-904 -138 -443 0
-904 -138 -491 0
-904 -139 -412 0
-904 -139 -436 0
-904 -139 -484 0
-904 -139 -418 0
-904 -139 -442 0
-904 -139 -490 0
-904 -139 -413 0
-904 -139 -437 0
-904 -139 -485 0
-904 -139 -419 0
-904 -139 -443 0
-904 -139 -491 0
-904 -140 -418 0
-904 -140 -442 0
-904 -140 -490 0
-904 -140 -419 0
-904 -140 -443 0
-904 -140 -491 0
-904 -141 0
-904 78 0
-904 -138 163 0
-904 -139 164 0
-904 -140 165 0
-904 -198 0
-905 196 0
-905 -58 -138 -147 0
-905 -58 -139 -148 0
-905 -58 -140 -149 0
-905 46 47 0
-905 -46 -138 1078 455 0
-905 -46 -139 1078 461 0
-905 -46 -140 1078 467 0
-905 -47 -138 1079 456 0
-905 -47 -139 1079 462 0
-905 -47 -140 1079 468 0
-905 -138 -407 0
-905 -138 -431 0
-905 -138 -479 0
-905 -138 -413 0
-905 -138 -437 0
-905 -138 -485 0
-905 -138 -419 0
-905 -138 -443 0
-905 -138 -491 0
-905 -138 -408 0
-905 -138 -432 0
-905 -138 -480 0
-905 -138 -414 0
-905 -138 -438 0
-905 -138 -486 0
-905 -138 -420 0
-905 -138 -444 0
-905 -138 -492 0
-905 -139 -413 0
-905 -139 -437 0
-905 -139 -485 0
-905 -139 -419 0
-905 -139 -443 0
-905 -139 -491 0
-905 -139 -414 0
-905 -139 -438 0
-905 -139 -486 0
-905 -139 -420 0
-905 -139 -444 0
-905 -139 -492 0
-905 -140 -419 0
-905 -140 -443 0
-905 -140 -491 0
-905 -140 -420 0
-905 -140 -444 0
-905 -140 -492 0
-905 -141 0
-905 79 0
-905 -138 163 0
-905 -139 164 0
-905 -140 165 0
-905 -198 0
-906 196 0
-906 -59 -138 -147 0
-906 -59 -139 -148 0
-906 -59 -140 -149 0
-906 47 48 0
-906 -47 -138 1079 456 0
-906 -47 -139 1079 462 0
-906 -47 -140 1079 468 0
-906 -48 -138 1080 457 0
-906 -48 -139 1080 463 0
-906 -48 -140 1080 469 0
-906 -138 -408 0
-906 -138 -432 0
-906 -138 -480 0
-906 -138 -414 0
-906 -138 -438 0
-906 -138 -486 0
-906 -138 -420 0
-906 -138 -444 0
-906 -138 -492 0
-906 -138 -409 0
-906 -138 -433 0
-906 -138 -481 0
-906 -138 -415 0
-906 -138 -439 0
-906 -138 -487 0
-906 -138 -421 0
-906 -138 -445 0
-906 -138 -493 0
-906 -139 -414 0
-906 -139 -438 0
-906 -139 -486 0
-906 -139 -420 0
-906 -139 -444 0
-906 -139 -492 0
-906 -139 -415 0
-906 -139 -439 0
-906 -139 -487 0
-906 -139 -421 0
-906 -139 -445 0
-906 -139 -493 0
-906 -140 -420 0
-906 -140 -444 0
-906 -140 -492 0
-906 -140 -421 0
-906 -140 -445 0
-906 -140 -493 0
-906 -141 0
-906 80 0
-906 -138 163 0
-906 -139 164 0
-906 -140 165 0
-906 -198 0
-907 196 0
-907 -55 -142 -147 0
-907 -55 -143 -148 0
-907 -55 -144 -149 0
-907 49 50 0
-907 -49 -142 1081 452 0
-907 -49 -143 1081 458 0
-907 -49 -144 1081 464 0
-907 -50 -142 1082 453 0
-907 -50 -143 1082 459 0
-907 -50 -144 1082 465 0
-907 -142 -404 0
-907 -142 -428 0
-907 -142 -476 0
-907 -142 -410 0
-907 -142 -434 0
-907 -142 -482 0
-907 -142 -416 0
-907 -142 -440 0
-907 -142 -488 0
-907 -142 -405 0
-907 -142 -429 0
-907 -142 -477 0
-907 -142 -411 0
-907 -142 -435 0
-907 -142 -483 0
-907 -142 -417 0
-907 -142 -441 0
-907 -142 -489 0
-907 -143 -410 0
-907 -143 -434 0
-907 -143 -482 0
-907 -143 -416 0
-907 -143 -440 0
-907 -143 -488 0
-907 -143 -411 0
-907 -143 -435 0
-907 -143 -483 0
-907 -143 -417 0
-907 -143 -441 0
-907 -143 -489 0
-907 -144 -416 0
-907 -144 -440 0
-907 -144 -488 0
-907 -144 -417 0
-907 -144 -441 0
-907 -144 -489 0
-907 -145 0
-907 76 0
-907 -142 163 0
-907 -143 164 0
-907 -144 165 0
-907 -199 0
-908 196 0
-908 -56 -142 -147 0
-908 -56 -143 -148 0
-908 -56 -144 -149 0
-908 50 51 0
-908 -50 -142 1082 453 0
-908 -50 -143 1082 459 0
-908 -50 -144 1082 465 0
-908 -51 -142 1083 454 0
-908 -51 -143 1083 460 0
-908 -51 -144 1083 466 0
-908 -142 -405 0
-908 -142 -429 0
-908 -142 -477 0
-908 -142 -411 0
-908 -142 -435 0
-908 -142 -483 0
-908 -142 -417 0
-908 -142 -441 0
-908 -142 -489 0
-908 -142 -406 0
-908 -142 -430 0
-908 -142 -478 0
-908 -142 -412 0
-908 -142 -436 0
-908 -142 -484 0
-908 -142 -418 0
-908 -142 -442 0
-908 -142 -490 0
-908 -143 -411 0
-908 -143 -435 0
-908 -143 -483 0
-908 -143 -417 0
-908 -143 -441 0
-908 -143 -489 0
-908 -143 -412 0
-908 -143 -436 0
-908 -143 -484 0
-908 -143 -418 0
-908 -143 -442 0
-908 -143 -490 0
-908 -144 -417 0
-908 -144 -441 0
-908 -144 -489 0
-908 -144 -418 0
-908 -144 -442 0
-908 -144 -490 0
-908 -145 0
-908 77 0
-908 -142 163 0
-908 -143 164 0
-908 -144 165 0
-908 -199 0
-909 196 0
-909 -57 -142 -147 0
-909 -57 -143 -148 0
-909 -57 -144 -149 0
-909 51 52 0
-909 -51 -142 1083 454 0
-909 -51 -143 1083 460 0
-909 -51 -144 1083 466 0
-909 -52 -142 1084 455 0
-909 -52 -143 1084 461 0
-909 -52 -144 1084 467 0
-909 -142 -406 0
-909 -142 -430 0
-909 -142 -478 0
-909 -142 -412 0
-909 -142 -436 0
-909 -142 -484 0
-909 -142 -418 0
-909 -142 -442 0
-909 -142 -490 0
-909 -142 -407 0
-909 -142 -431 0
-909 -142 -479 0
-909 -142 -413 0
-909 -142 -437 0
-909 -142 -485 0
-909 -142 -419 0
-909 -142 -443 0
-909 -142 -491 0
-909 -143 -412 0
-909 -143 -436 0
-909 -143 -484 0
-909 -143 -418 0
-909 -143 -442 0
-909 -143 -490 0
-909 -143 -413 0
-909 -143 -437 0
-909 -143 -485 0
-909 -143 -419 0
-909 -143 -443 0
-909 -143 -491 0
-909 -144 -418 0
-909 -144 -442 0
-909 -144 -490 0
-909 -144 -419 0
-909 -144 -443 0
-909 -144 -491 0
-909 -145 0
-909 78 0
-909 -142 163 0
-909 -143 164 0
-909 -144 165 0
-909 -199 0
-910 196 0
-910 -58 -142 -147 0
-910 -58 -143 -148 0
-910 -58 -144 -149 0
-910 52 53 0
-910 -52 -142 1084 455 0
-910 -52 -143 1084 461 0
-910 -52 -144 1084 467 0
-910 -53 -142 1085 456 0
-910 -53 -143 1085 462 0
-910 -53 -144 1085 468 0
-910 -142 -407 0
-910 -142 -431 0
-910 -142 -479 0
-910 -142 -413 0
-910 -142 -437 0
-910 -142 -485 0
-910 -142 -419 0
-910 -142 -443 0
-910 -142 -491 0
-910 -142 -408 0
-910 -142 -432 0
-910 -142 -480 0
-910 -142 -414 0
-910 -142 -438 0
-910 -142 -486 0
-910 -142 -420 0
-910 -142 -444 0
-910 -142 -492 0
-910 -143 -413 0
-910 -143 -437 0
-910 -143 -485 0
-910 -143 -419 0
-910 -143 -443 0
-910 -143 -491 0
-910 -143 -414 0
-910 -143 -438 0
-910 -143 -486 0
-910 -143 -420 0
-910 -143 -444 0
-910 -143 -492 0
-910 -144 -419 0
-910 -144 -443 0
-910 -144 -491 0
-910 -144 -420 0
-910 -144 -444 0
-910 -144 -492 0
-910 -145 0
-910 79 0
-910 -142 163 0
-910 -143 164 0
-910 -144 165 0
-910 -199 0
-911 196 0
-911 -59 -142 -147 0
-911 -59 -143 -148 0
-911 -59 -144 -149 0
-911 53 54 0
-911 -53 -142 1085 456 0
-911 -53 -143 1085 462 0
-911 -53 -144 1085 468 0
-911 -54 -142 1086 457 0
-911 -54 -143 1086 463 0
-911 -54 -144 1086 469 0
-911 -142 -408 0
-911 -142 -432 0
-911 -142 -480 0
-911 -142 -414 0
-911 -142 -438 0
-911 -142 -486 0
-911 -142 -420 0
-911 -142 -444 0
-911 -142 -492 0
-911 -142 -409 0
-911 -142 -433 0
-911 -142 -481 0
-911 -142 -415 0
-911 -142 -439 0
-911 -142 -487 0
-911 -142 -421 0
-911 -142 -445 0
-911 -142 -493 0
-911 -143 -414 0
-911 -143 -438 0
-911 -143 -486 0
-911 -143 -420 0
-911 -143 -444 0
-911 -143 -492 0
-911 -143 -415 0
-911 -143 -439 0
-911 -143 -487 0
-911 -143 -421 0
-911 -143 -445 0
-911 -143 -493 0
-911 -144 -420 0
-911 -144 -444 0
-911 -144 -492 0
-911 -144 -421 0
-911 -144 -445 0
-911 -144 -493 0
-911 -145 0
-911 80 0
-911 -142 163 0
-911 -143 164 0
-911 -144 165 0
-911 -199 0
-912 196 0
-912 -55 -150 -147 0
-912 -55 -151 -148 0
-912 -55 -152 -149 0
-912 60 61 0
-912 -60 -150 1093 452 0
-912 -60 -151 1093 458 0
-912 -60 -152 1093 464 0
-912 -60 -150 1094 453 0
-912 -60 -151 1094 459 0
-912 -60 -152 1094 465 0
-912 -61 -150 1094 453 0
-912 -61 -151 1094 459 0
-912 -61 -152 1094 465 0
-912 -150 -404 0
-912 -150 -428 0
-912 -150 -476 0
-912 -150 -410 0
-912 -150 -434 0
-912 -150 -482 0
-912 -150 -416 0
-912 -150 -440 0
-912 -150 -488 0
-912 -150 -405 0
-912 -150 -429 0
-912 -150 -477 0
-912 -150 -411 0
-912 -150 -435 0
-912 -150 -483 0
-912 -150 -417 0
-912 -150 -441 0
-912 -150 -489 0
-912 -151 -410 0
-912 -151 -434 0
-912 -151 -482 0
-912 -151 -416 0
-912 -151 -440 0
-912 -151 -488 0
-912 -151 -411 0
-912 -151 -435 0
-912 -151 -483 0
-912 -151 -417 0
-912 -151 -441 0
-912 -151 -489 0
-912 -152 -416 0
-912 -152 -440 0
-912 -152 -488 0
-912 -152 -417 0
-912 -152 -441 0
-912 -152 -489 0
-912 -153 0
-912 76 0
-912 -150 163 0
-912 -151 164 0
-912 -152 165 0
-912 -201 0
-913 196 0
-913 -56 -150 -147 0
-913 -56 -151 -148 0
-913 -56 -152 -149 0
-913 60 61 62 0
-913 -60 -150 1094 453 0
-913 -60 -151 1094 459 0
-913 -60 -152 1094 465 0
-913 -60 -150 1095 454 0
-913 -60 -151 1095 460 0
-913 -60 -152 1095 466 0
-913 -61 -150 1094 453 0
-913 -61 -151 1094 459 0
-913 -61 -152 1094 465 0
-913 -61 -150 1095 454 0
-913 -61 -151 1095 460 0
-913 -61 -152 1095 466 0
-913 -62 -150 1095 454 0
-913 -62 -151 1095 460 0
-913 -62 -152 1095 466 0
-913 -150 -405 0
-913 -150 -429 0
-913 -150 -477 0
-913 -150 -411 0
-913 -150 -435 0
-913 -150 -483 0
-913 -150 -417 0
-913 -150 -441 0
-913 -150 -489 0
-913 -150 -406 0
-913 -150 -430 0
-913 -150 -478 0
-913 -150 -412 0
-913 -150 -436 0
-913 -150 -484 0
-913 -150 -418 0
-913 -150 -442 0
-913 -150 -490 0
-913 -151 -411 0
-913 -151 -435 0
-913 -151 -483 0
-913 -151 -417 0
-913 -151 -441 0
-913 -151 -489 0
-913 -151 -412 0
-913 -151 -436 0
-913 -151 -484 0
-913 -151 -418 0
-913 -151 -442 0
-913 -151 -490 0
-913 -152 -417 0
-913 -152 -441 0
-913 -152 -489 0
-913 -152 -418 0
-913 -152 -442 0
-913 -152 -490 0
-913 -153 0
-913 77 0
-913 -150 163 0
-913 -151 164 0
-913 -152 165 0
-913 -201 0
-914 196 0
-914 -57 -150 -147 0
-914 -57 -151 -148 0
-914 -57 -152 -149 0
-914 60 61 62 63 0
-914 -60 -150 1095 454 0
-914 -60 -151 1095 460 0
-914 -60 -152 1095 466 0
-914 -61 -150 1095 454 0
-914 -61 -151 1095 460 0
-914 -61 -152 1095 466 0
-914 -61 -150 1096 455 0
-914 -61 -151 1096 461 0
-914 -61 -152 1096 467 0
-914 -62 -150 1095 454 0
-914 -62 -151 1095 460 0
-914 -62 -152 1095 466 0
-914 -62 -150 1096 455 0
-914 -62 -151 1096 461 0
-914 -62 -152 1096 467 0
-914 -63 -150 1096 455 0
-914 -63 -151 1096 461 0
-914 -63 -152 1096 467 0
-914 -150 -406 0
-914 -150 -430 0
-914 -150 -478 0
-914 -150 -412 0
-914 -150 -436 0
-914 -150 -484 0
-914 -150 -418 0
-914 -150 -442 0
-914 -150 -490 0
-914 -150 -407 0
-914 -150 -431 0
-914 -150 -479 0
-914 -150 -413 0
-914 -150 -437 0
-914 -150 -485 0
-914 -150 -419 0
-914 -150 -443 0
-914 -150 -491 0
-914 -151 -412 0
-914 -151 -436 0
-914 -151 -484 0
-914 -151 -418 0
-914 -151 -442 0
-914 -151 -490 0
-914 -151 -413 0
-914 -151 -437 0
-914 -151 -485 0
-914 -151 -419 0
-914 -151 -443 0
-914 -151 -491 0
-914 -152 -418 0
-914 -152 -442 0
-914 -152 -490 0
-914 -152 -419 0
-914 -152 -443 0
-914 -152 -491 0
-914 -153 0
-914 78 0
-914 -150 163 0
-914 -151 164 0
-914 -152 165 0
-914 -201 0
-915 196 0
-915 -58 -150 -147 0
-915 -58 -151 -148 0
-915 -58 -152 -149 0
-915 61 62 63 0
-915 -61 -150 1096 455 0
-915 -61 -151 1096 461 0
-915 -61 -152 1096 467 0
-915 -62 -150 1096 455 0
-915 -62 -151 1096 461 0
-915 -62 -152 1096 467 0
-915 -62 -150 1097 456 0
-915 -62 -151 1097 462 0
-915 -62 -152 1097 468 0
-915 -63 -150 1096 455 0
-915 -63 -151 1096 461 0
-915 -63 -152 1096 467 0
-915 -63 -150 1097 456 0
-915 -63 -151 1097 462 0
-915 -63 -152 1097 468 0
-915 -150 -407 0
-915 -150 -431 0
-915 -150 -479 0
-915 -150 -413 0
-915 -150 -437 0
-915 -150 -485 0
-915 -150 -419 0
-915 -150 -443 0
-915 -150 -491 0
-915 -150 -408 0
-915 -150 -432 0
-915 -150 -480 0
-915 -150 -414 0
-915 -150 -438 0
-915 -150 -486 0
-915 -150 -420 0
-915 -150 -444 0
-915 -150 -492 0
-915 -151 -413 0
-915 -151 -437 0
-915 -151 -485 0
-915 -151 -419 0
-915 -151 -443 0
-915 -151 -491 0
-915 -151 -414 0
-915 -151 -438 0
-915 -151 -486 0
-915 -151 -420 0
-915 -151 -444 0
-915 -151 -492 0
-915 -152 -419 0
-915 -152 -443 0
-915 -152 -491 0
-915 -152 -420 0
-915 -152 -444 0
-915 -152 -492 0
-915 -153 0
-915 79 0
-915 -150 163 0
-915 -151 164 0
-915 -152 165 0
-915 -201 0
-916 196 0
-916 -59 -150 -147 0
-916 -59 -151 -148 0
-916 -59 -152 -149 0
-916 62 63 0
-916 -62 -150 1097 456 0
-916 -62 -151 1097 462 0
-916 -62 -152 1097 468 0
-916 -63 -150 1097 456 0
-916 -63 -151 1097 462 0
-916 -63 -152 1097 468 0
-916 -63 -150 1098 457 0
-916 -63 -151 1098 463 0
-916 -63 -152 1098 469 0
-916 -150 -408 0
-916 -150 -432 0
-916 -150 -480 0
-916 -150 -414 0
-916 -150 -438 0
-916 -150 -486 0
-916 -150 -420 0
-916 -150 -444 0
-916 -150 -492 0
-916 -150 -409 0
-916 -150 -433 0
-916 -150 -481 0
-916 -150 -415 0
-916 -150 -439 0
-916 -150 -487 0
-916 -150 -421 0
-916 -150 -445 0
-916 -150 -493 0
-916 -151 -414 0
-916 -151 -438 0
-916 -151 -486 0
-916 -151 -420 0
-916 -151 -444 0
-916 -151 -492 0
-916 -151 -415 0
-916 -151 -439 0
-916 -151 -487 0
-916 -151 -421 0
-916 -151 -445 0
-916 -151 -493 0
-916 -152 -420 0
-916 -152 -444 0
-916 -152 -492 0
-916 -152 -421 0
-916 -152 -445 0
-916 -152 -493 0
-916 -153 0
-916 80 0
-916 -150 163 0
-916 -151 164 0
-916 -152 165 0
-916 -201 0
-917 196 0
-917 -55 -146 0
-917 -398 0
-917 -422 0
-917 -470 0
-917 -404 0
-917 -428 0
-917 -476 0
-917 -410 0
-917 -434 0
-917 -482 0
-917 -416 0
-917 -440 0
-917 -488 0
-917 -399 0
-917 -423 0
-917 -471 0
-917 -405 0
-917 -429 0
-917 -477 0
-917 -411 0
-917 -435 0
-917 -483 0
-917 -417 0
-917 -441 0
-917 -489 0
-917 76 0
-917 162 0
-918 196 0
-918 -56 -146 0
-918 -399 0
-918 -423 0
-918 -471 0
-918 -405 0
-918 -429 0
-918 -477 0
-918 -411 0
-918 -435 0
-918 -483 0
-918 -417 0
-918 -441 0
-918 -489 0
-918 -400 0
-918 -424 0
-918 -472 0
-918 -406 0
-918 -430 0
-918 -478 0
-918 -412 0
-918 -436 0
-918 -484 0
-918 -418 0
-918 -442 0
-918 -490 0
-918 77 0
-918 162 0
-919 196 0
-919 -57 -146 0
-919 -400 0
-919 -424 0
-919 -472 0
-919 -406 0
-919 -430 0
-919 -478 0
-919 -412 0
-919 -436 0
-919 -484 0
-919 -418 0
-919 -442 0
-919 -490 0
-919 -401 0
-919 -425 0
-919 -473 0
-919 -407 0
-919 -431 0
-919 -479 0
-919 -413 0
-919 -437 0
-919 -485 0
-919 -419 0
-919 -443 0
-919 -491 0
-919 78 0
-919 162 0
-920 196 0
-920 -58 -146 0
-920 -401 0
-920 -425 0
-920 -473 0
-920 -407 0
-920 -431 0
-920 -479 0
-920 -413 0
-920 -437 0
-920 -485 0
-920 -419 0
-920 -443 0
-920 -491 0
-920 -402 0
-920 -426 0
-920 -474 0
-920 -408 0
-920 -432 0
-920 -480 0
-920 -414 0
-920 -438 0
-920 -486 0
-920 -420 0
-920 -444 0
-920 -492 0
-920 79 0
-920 162 0
-921 196 0
-921 -59 -146 0
-921 -402 0
-921 -426 0
-921 -474 0
-921 -408 0
-921 -432 0
-921 -480 0
-921 -414 0
-921 -438 0
-921 -486 0
-921 -420 0
-921 -444 0
-921 -492 0
-921 -403 0
-921 -427 0
-921 -475 0
-921 -409 0
-921 -433 0
-921 -481 0
-921 -415 0
-921 -439 0
-921 -487 0
-921 -421 0
-921 -445 0
-921 -493 0
-921 80 0
-921 162 0
-922 197 0
-922 -60 -138 -151 0
-922 -60 -139 -152 0
-922 -60 -140 -153 0
-922 43 44 45 0
-922 -43 -138 1075 476 0
-922 -43 -139 1075 482 0
-922 -43 -140 1075 488 0
-922 -44 -138 1076 477 0
-922 -44 -139 1076 483 0
-922 -44 -140 1076 489 0
-922 -45 -138 1077 478 0
-922 -45 -139 1077 484 0
-922 -45 -140 1077 490 0
-922 -138 -404 0
-922 -138 -428 0
-922 -138 -452 0
-922 -138 -410 0
-922 -138 -434 0
-922 -138 -458 0
-922 -138 -416 0
-922 -138 -440 0
-922 -138 -464 0
-922 -138 -405 0
-922 -138 -429 0
-922 -138 -453 0
-922 -138 -411 0
-922 -138 -435 0
-922 -138 -459 0
-922 -138 -417 0
-922 -138 -441 0
-922 -138 -465 0
-922 -138 -406 0
-922 -138 -430 0
-922 -138 -454 0
-922 -138 -412 0
-922 -138 -436 0
-922 -138 -460 0
-922 -138 -418 0
-922 -138 -442 0
-922 -138 -466 0
-922 -139 -410 0
-922 -139 -434 0
-922 -139 -458 0
-922 -139 -416 0
-922 -139 -440 0
-922 -139 -464 0
-922 -139 -411 0
-922 -139 -435 0
-922 -139 -459 0
-922 -139 -417 0
-922 -139 -441 0
-922 -139 -465 0
-922 -139 -412 0
-922 -139 -436 0
-922 -139 -460 0
-922 -139 -418 0
-922 -139 -442 0
-922 -139 -466 0
-922 -140 -416 0
-922 -140 -440 0
-922 -140 -464 0
-922 -140 -417 0
-922 -140 -441 0
-922 -140 -465 0
-922 -140 -418 0
-922 -140 -442 0
-922 -140 -466 0
-922 -141 0
-922 81 0
-922 -138 167 0
-922 -139 168 0
-922 -140 169 0
-922 -198 0
-923 197 0
-923 -61 -138 -151 0
-923 -61 -139 -152 0
-923 -61 -140 -153 0
-923 44 45 46 0
-923 -44 -138 1076 477 0
-923 -44 -139 1076 483 0
-923 -44 -140 1076 489 0
-923 -45 -138 1077 478 0
-923 -45 -139 1077 484 0
-923 -45 -140 1077 490 0
-923 -46 -138 1078 479 0
-923 -46 -139 1078 485 0
-923 -46 -140 1078 491 0
-923 -138 -405 0
-923 -138 -429 0
-923 -138 -453 0
-923 -138 -411 0
-923 -138 -435 0
-923 -138 -459 0
-923 -138 -417 0
-923 -138 -441 0
-923 -138 -465 0
-923 -138 -406 0
-923 -138 -430 0
-923 -138 -454 0
-923 -138 -412 0
-923 -138 -436 0
-923 -138 -460 0
-923 -138 -418 0
-923 -138 -442 0
-923 -138 -466 0
-923 -138 -407 0
-923 -138 -431 0
-923 -138 -455 0
-923 -138 -413 0
-923 -138 -437 0
-923 -138 -461 0
-923 -138 -419 0
-923 -138 -443 0
-923 -138 -467 0
-923 -139 -411 0
-923 -139 -435 0
-923 -139 -459 0
-923 -139 -417 0
-923 -139 -441 0
-923 -139 -465 0
-923 -139 -412 0
-923 -139 -436 0
-923 -139 -460 0
-923 -139 -418 0
-923 -139 -442 0
-923 -139 -466 0
-923 -139 -413 0
-923 -139 -437 0
-923 -139 -461 0
-923 -139 -419 0
-923 -139 -443 0
-923 -139 -467 0
-923 -140 -417 0
-923 -140 -441 0
-923 -140 -465 0
-923 -140 -418 0
-923 -140 -442 0
-923 -140 -466 0
-923 -140 -419 0
-923 -140 -443 0
-923 -140 -467 0
-923 -141 0
-923 82 0
-923 -138 167 0
-923 -139 168 0
-923 -140 169 0
-923 -198 0
-924 197 0
-924 -62 -138 -151 0
-924 -62 -139 -152 0
-924 -62 -140 -153 0
-924 45 46 47 0
-924 -45 -138 1077 478 0
-924 -45 -139 1077 484 0
-924 -45 -140 1077 490 0
-924 -46 -138 1078 479 0
-924 -46 -139 1078 485 0
-924 -46 -140 1078 491 0
-924 -47 -138 1079 480 0
-924 -47 -139 1079 486 0
-924 -47 -140 1079 492 0
-924 -138 -406 0
-924 -138 -430 0
-924 -138 -454 0
-924 -138 -412 0
-924 -138 -436 0
-924 -138 -460 0
-924 -138 -418 0
-924 -138 -442 0
-924 -138 -466 0
-924 -138 -407 0
-924 -138 -431 0
-924 -138 -455 0
-924 -138 -413 0
-924 -138 -437 0
-924 -138 -461 0
-924 -138 -419 0
-924 -138 -443 0
-924 -138 -467 0
-924 -138 -408 0
-924 -138 -432 0
-924 -138 -456 0
-924 -138 -414 0
-924 -138 -438 0
-924 -138 -462 0
-924 -138 -420 0
-924 -138 -444 0
-924 -138 -468 0
-924 -139 -412 0
-924 -139 -436 0
-924 -139 -460 0
-924 -139 -418 0
-924 -139 -442 0
-924 -139 -466 0
-924 -139 -413 0
-924 -139 -437 0
-924 -139 -461 0
-924 -139 -419 0
-924 -139 -443 0
-924 -139 -467 0
-924 -139 -414 0
-924 -139 -438 0
-924 -139 -462 0
-924 -139 -420 0
-924 -139 -444 0
-924 -139 -468 0
-924 -140 -418 0
-924 -140 -442 0
-924 -140 -466 0
-924 -140 -419 0
-924 -140 -443 0
-924 -140 -467 0
-924 -140 -420 0
-924 -140 -444 0
-924 -140 -468 0
-924 -141 0
-924 83 0
-924 -138 167 0
-924 -139 168 0
-924 -140 169 0
-924 -198 0
-925 197 0
-925 -63 -138 -151 0
-925 -63 -139 -152 0
-925 -63 -140 -153 0
-925 46 47 48 0
-925 -46 -138 1078 479 0
-925 -46 -139 1078 485 0
-925 -46 -140 1078 491 0
-925 -47 -138 1079 480 0
-925 -47 -139 1079 486 0
-925 -47 -140 1079 492 0
-925 -48 -138 1080 481 0
-925 -48 -139 1080 487 0
-925 -48 -140 1080 493 0
-925 -138 -407 0
-925 -138 -431 0
-925 -138 -455 0
-925 -138 -413 0
-925 -138 -437 0
-925 -138 -461 0
-925 -138 -419 0
-925 -138 -443 0
-925 -138 -467 0
-925 -138 -408 0
-925 -138 -432 0
-925 -138 -456 0
-925 -138 -414 0
-925 -138 -438 0
-925 -138 -462 0
-925 -138 -420 0
-925 -138 -444 0
-925 -138 -468 0
-925 -138 -409 0
-925 -138 -433 0
-925 -138 -457 0
-925 -138 -415 0
-925 -138 -439 0
-925 -138 -463 0
-925 -138 -421 0
-925 -138 -445 0
-925 -138 -469 0
-925 -139 -413 0
-925 -139 -437 0
-925 -139 -461 0
-925 -139 -419 0
-925 -139 -443 0
-925 -139 -467 0
-925 -139 -414 0
-925 -139 -438 0
-925 -139 -462 0
-925 -139 -420 0
-925 -139 -444 0
-925 -139 -468 0
-925 -139 -415 0
-925 -139 -439 0
-925 -139 -463 0
-925 -139 -421 0
-925 -139 -445 0
-925 -139 -469 0
-925 -140 -419 0
-925 -140 -443 0
-925 -140 -467 0
-925 -140 -420 0
-925 -140 -444 0
-925 -140 -468 0
-925 -140 -421 0
-925 -140 -445 0
-925 -140 -469 0
-925 -141 0
-925 84 0
-925 -138 167 0
-925 -139 168 0
-925 -140 169 0
-925 -198 0
-926 197 0
-926 -60 -142 -151 0
-926 -60 -143 -152 0
-926 -60 -144 -153 0
-926 49 50 51 0
-926 -49 -142 1081 476 0
-926 -49 -143 1081 482 0
-926 -49 -144 1081 488 0
-926 -50 -142 1082 477 0
-926 -50 -143 1082 483 0
-926 -50 -144 1082 489 0
-926 -51 -142 1083 478 0
-926 -51 -143 1083 484 0
-926 -51 -144 1083 490 0
-926 -142 -404 0
-926 -142 -428 0
-926 -142 -452 0
-926 -142 -410 0
-926 -142 -434 0
-926 -142 -458 0
-926 -142 -416 0
-926 -142 -440 0
-926 -142 -464 0
-926 -142 -405 0
-926 -142 -429 0
-926 -142 -453 0
-926 -142 -411 0
-926 -142 -435 0
-926 -142 -459 0
-926 -142 -417 0
-926 -142 -441 0
-926 -142 -465 0
-926 -142 -406 0
-926 -142 -430 0
-926 -142 -454 0
-926 -142 -412 0
-926 -142 -436 0
-926 -142 -460 0
-926 -142 -418 0
-926 -142 -442 0
-926 -142 -466 0
-926 -143 -410 0
-926 -143 -434 0
-926 -143 -458 0
-926 -143 -416 0
-926 -143 -440 0
-926 -143 -464 0
-926 -143 -411 0
-926 -143 -435 0
-926 -143 -459 0
-926 -143 -417 0
-926 -143 -441 0
-926 -143 -465 0
-926 -143 -412 0
-926 -143 -436 0
-926 -143 -460 0
-926 -143 -418 0
-926 -143 -442 0
-926 -143 -466 0
-926 -144 -416 0
-926 -144 -440 0
-926 -144 -464 0
-926 -144 -417 0
-926 -144 -441 0
-926 -144 -465 0
-926 -144 -418 0
-926 -144 -442 0
-926 -144 -466 0
-926 -145 0
-926 81 0
-926 -142 167 0
-926 -143 168 0
-926 -144 169 0
-926 -199 0
-927 197 0
-927 -61 -142 -151 0
-927 -61 -143 -152 0
-927 -61 -144 -153 0
-927 50 51 52 0
-927 -50 -142 1082 477 0
-927 -50 -143 1082 483 0
-927 -50 -144 1082 489 0
-927 -51 -142 1083 478 0
-927 -51 -143 1083 484 0
-927 -51 -144 1083 490 0
-927 -52 -142 1084 479 0
-927 -52 -143 1084 485 0
-927 -52 -144 1084 491 0
-927 -142 -405 0
-927 -142 -429 0
-927 -142 -453 0
-927 -142 -411 0
-927 -142 -435 0
-927 -142 -459 0
-927 -142 -417 0
-927 -142 -441 0
-927 -142 -465 0
-927 -142 -406 0
-927 -142 -430 0
-927 -142 -454 0
-927 -142 -412 0
-927 -142 -436 0
-927 -142 -460 0
-927 -142 -418 0
-927 -142 -442 0
-927 -142 -466 0
-927 -142 -407 0
-927 -142 -431 0
-927 -142 -455 0
-927 -142 -413 0
-927 -142 -437 0
-927 -142 -461 0
-927 -142 -419 0
-927 -142 -443 0
-927 -142 -467 0
-927 -143 -411 0
-927 -143 -435 0
-927 -143 -459 0
-927 -143 -417 0
-927 -143 -441 0
-927 -143 -465 0
-927 -143 -412 0
-927 -143 -436 0
-927 -143 -460 0
-927 -143 -418 0
-927 -143 -442 0
-927 -143 -466 0
-927 -143 -413 0
-927 -143 -437 0
-927 -143 -461 0
-927 -143 -419 0
-927 -143 -443 0
-927 -143 -467 0
-927 -144 -417 0
-927 -144 -441 0
-927 -144 -465 0
-927 -144 -418 0
-927 -144 -442 0
-927 -144 -466 0
-927 -144 -419 0
-927 -144 -443 0
-927 -144 -467 0
-927 -145 0
-927 82 0
-927 -142 167 0
-927 -143 168 0
-927 -144 169 0
-927 -199 0
-928 197 0
-928 -62 -142 -151 0
-928 -62 -143 -152 0
-928 -62 -144 -153 0
-928 51 52 53 0
-928 -51 -142 1083 478 0
-928 -51 -143 1083 484 0
-928 -51 -144 1083 490 0
-928 -52 -142 1084 479 0
-928 -52 -143 1084 485 0
-928 -52 -144 1084 491 0
-928 -53 -142 1085 480 0
-928 -53 -143 1085 486 0
-928 -53 -144 1085 492 0
-928 -142 -406 0
-928 -142 -430 0
-928 -142 -454 0
-928 -142 -412 0
-928 -142 -436 0
-928 -142 -460 0
-928 -142 -418 0
-928 -142 -442 0
-928 -142 -466 0
-928 -142 -407 0
-928 -142 -431 0
-928 -142 -455 0
-928 -142 -413 0
-928 -142 -437 0
-928 -142 -461 0
-928 -142 -419 0
-928 -142 -443 0
-928 -142 -467 0
-928 -142 -408 0
-928 -142 -432 0
-928 -142 -456 0
-928 -142 -414 0
-928 -142 -438 0
-928 -142 -462 0
-928 -142 -420 0
-928 -142 -444 0
-928 -142 -468 0
-928 -143 -412 0
-928 -143 -436 0
-928 -143 -460 0
-928 -143 -418 0
-928 -143 -442 0
-928 -143 -466 0
-928 -143 -413 0
-928 -143 -437 0
-928 -143 -461 0
-928 -143 -419 0
-928 -143 -443 0
-928 -143 -467 0
-928 -143 -414 0
-928 -143 -438 0
-928 -143 -462 0
-928 -143 -420 0
-928 -143 -444 0
-928 -143 -468 0
-928 -144 -418 0
-928 -144 -442 0
-928 -144 -466 0
-928 -144 -419 0
-928 -144 -443 0
-928 -144 -467 0
-928 -144 -420 0
-928 -144 -444 0
-928 -144 -468 0
-928 -145 0
-928 83 0
-928 -142 167 0
-928 -143 168 0
-928 -144 169 0
-928 -199 0
-929 197 0
-929 -63 -142 -151 0
-929 -63 -143 -152 0
-929 -63 -144 -153 0
-929 52 53 54 0
-929 -52 -142 1084 479 0
-929 -52 -143 1084 485 0
-929 -52 -144 1084 491 0
-929 -53 -142 1085 480 0
-929 -53 -143 1085 486 0
-929 -53 -144 1085 492 0
-929 -54 -142 1086 481 0
-929 -54 -143 1086 487 0
-929 -54 -144 1086 493 0
-929 -142 -407 0
-929 -142 -431 0
-929 -142 -455 0
-929 -142 -413 0
-929 -142 -437 0
-929 -142 -461 0
-929 -142 -419 0
-929 -142 -443 0
-929 -142 -467 0
-929 -142 -408 0
-929 -142 -432 0
-929 -142 -456 0
-929 -142 -414 0
-929 -142 -438 0
-929 -142 -462 0
-929 -142 -420 0
-929 -142 -444 0
-929 -142 -468 0
-929 -142 -409 0
-929 -142 -433 0
-929 -142 -457 0
-929 -142 -415 0
-929 -142 -439 0
-929 -142 -463 0
-929 -142 -421 0
-929 -142 -445 0
-929 -142 -469 0
-929 -143 -413 0
-929 -143 -437 0
-929 -143 -461 0
-929 -143 -419 0
-929 -143 -443 0
-929 -143 -467 0
-929 -143 -414 0
-929 -143 -438 0
-929 -143 -462 0
-929 -143 -420 0
-929 -143 -444 0
-929 -143 -468 0
-929 -143 -415 0
-929 -143 -439 0
-929 -143 -463 0
-929 -143 -421 0
-929 -143 -445 0
-929 -143 -469 0
-929 -144 -419 0
-929 -144 -443 0
-929 -144 -467 0
-929 -144 -420 0
-929 -144 -444 0
-929 -144 -468 0
-929 -144 -421 0
-929 -144 -445 0
-929 -144 -469 0
-929 -145 0
-929 84 0
-929 -142 167 0
-929 -143 168 0
-929 -144 169 0
-929 -199 0
-930 197 0
-930 -60 -146 -151 0
-930 -60 -147 -152 0
-930 -60 -148 -153 0
-930 55 56 57 0
-930 -55 -146 1087 476 0
-930 -55 -147 1087 482 0
-930 -55 -148 1087 488 0
-930 -55 -146 1088 477 0
-930 -55 -147 1088 483 0
-930 -55 -148 1088 489 0
-930 -56 -146 1088 477 0
-930 -56 -147 1088 483 0
-930 -56 -148 1088 489 0
-930 -56 -146 1089 478 0
-930 -56 -147 1089 484 0
-930 -56 -148 1089 490 0
-930 -57 -146 1089 478 0
-930 -57 -147 1089 484 0
-930 -57 -148 1089 490 0
-930 -146 -404 0
-930 -146 -428 0
-930 -146 -452 0
-930 -146 -410 0
-930 -146 -434 0
-930 -146 -458 0
-930 -146 -416 0
-930 -146 -440 0
-930 -146 -464 0
-930 -146 -405 0
-930 -146 -429 0
-930 -146 -453 0
-930 -146 -411 0
-930 -146 -435 0
-930 -146 -459 0
-930 -146 -417 0
-930 -146 -441 0
-930 -146 -465 0
-930 -146 -406 0
-930 -146 -430 0
-930 -146 -454 0
-930 -146 -412 0
-930 -146 -436 0
-930 -146 -460 0
-930 -146 -418 0
-930 -146 -442 0
-930 -146 -466 0
-930 -147 -410 0
-930 -147 -434 0
-930 -147 -458 0
-930 -147 -416 0
-930 -147 -440 0
-930 -147 -464 0
-930 -147 -411 0
-930 -147 -435 0
-930 -147 -459 0
-930 -147 -417 0
-930 -147 -441 0
-930 -147 -465 0
-930 -147 -412 0
-930 -147 -436 0
-930 -147 -460 0
-930 -147 -418 0
-930 -147 -442 0
-930 -147 -466 0
-930 -148 -416 0
-930 -148 -440 0
-930 -148 -464 0
-930 -148 -417 0
-930 -148 -441 0
-930 -148 -465 0
-930 -148 -418 0
-930 -148 -442 0
-930 -148 -466 0
-930 -149 0
-930 81 0
-930 -146 167 0
-930 -147 168 0
-930 -148 169 0
-930 -200 0
-931 197 0
-931 -61 -146 -151 0
-931 -61 -147 -152 0
-931 -61 -148 -153 0
-931 55 56 57 58 0
-931 -55 -146 1088 477 0
-931 -55 -147 1088 483 0
-931 -55 -148 1088 489 0
-931 -56 -146 1088 477 0
-931 -56 -147 1088 483 0
-931 -56 -148 1088 489 0
-931 -56 -146 1089 478 0
-931 -56 -147 1089 484 0
-931 -56 -148 1089 490 0
-931 -57 -146 1089 478 0
-931 -57 -147 1089 484 0
-931 -57 -148 1089 490 0
-931 -57 -146 1090 479 0
-931 -57 -147 1090 485 0
-931 -57 -148 1090 491 0
-931 -58 -146 1090 479 0
-931 -58 -147 1090 485 0
-931 -58 -148 1090 491 0
-931 -146 -405 0
-931 -146 -429 0
-931 -146 -453 0
-931 -146 -411 0
-931 -146 -435 0
-931 -146 -459 0
-931 -146 -417 0
-931 -146 -441 0
-931 -146 -465 0
-931 -146 -406 0
-931 -146 -430 0
-931 -146 -454 0
-931 -146 -412 0
-931 -146 -436 0
-931 -146 -460 0
-931 -146 -418 0
-931 -146 -442 0
-931 -146 -466 0
-931 -146 -407 0
-931 -146 -431 0
-931 -146 -455 0
-931 -146 -413 0
-931 -146 -437 0
-931 -146 -461 0
-931 -146 -419 0
-931 -146 -443 0
-931 -146 -467 0
-931 -147 -411 0
-931 -147 -435 0
-931 -147 -459 0
-931 -147 -417 0
-931 -147 -441 0
-931 -147 -465 0
-931 -147 -412 0
-931 -147 -436 0
-931 -147 -460 0
-931 -147 -418 0
-931 -147 -442 0
-931 -147 -466 0
-931 -147 -413 0
-931 -147 -437 0
-931 -147 -461 0
-931 -147 -419 0
-931 -147 -443 0
-931 -147 -467 0
-931 -148 -417 0
-931 -148 -441 0
-931 -148 -465 0
-931 -148 -418 0
-931 -148 -442 0
-931 -148 -466 0
-931 -148 -419 0
-931 -148 -443 0
-931 -148 -467 0
-931 -149 0
-931 82 0
-931 -146 167 0
-931 -147 168 0
-931 -148 169 0
-931 -200 0
-932 197 0
-932 -62 -146 -151 0
-932 -62 -147 -152 0
-932 -62 -148 -153 0
-932 56 57 58 59 0
-932 -56 -146 1089 478 0
-932 -56 -147 1089 484 0
-932 -56 -148 1089 490 0
-932 -57 -146 1089 478 0
-932 -57 -147 1089 484 0
-932 -57 -148 1089 490 0
-932 -57 -146 1090 479 0
-932 -57 -147 1090 485 0
-932 -57 -148 1090 491 0
-932 -58 -146 1090 479 0
-932 -58 -147 1090 485 0
-932 -58 -148 1090 491 0
-932 -58 -146 1091 480 0
-932 -58 -147 1091 486 0
-932 -58 -148 1091 492 0
-932 -59 -146 1091 480 0
-932 -59 -147 1091 486 0
-932 -59 -148 1091 492 0
-932 -146 -406 0
-932 -146 -430 0
-932 -146 -454 0
-932 -146 -412 0
-932 -146 -436 0
-932 -146 -460 0
-932 -146 -418 0
-932 -146 -442 0
-932 -146 -466 0
-932 -146 -407 0
-932 -146 -431 0
-932 -146 -455 0
-932 -146 -413 0
-932 -146 -437 0
-932 -146 -461 0
-932 -146 -419 0
-932 -146 -443 0
-932 -146 -467 0
-932 -146 -408 0
-932 -146 -432 0
-932 -146 -456 0
-932 -146 -414 0
-932 -146 -438 0
-932 -146 -462 0
-932 -146 -420 0
-932 -146 -444 0
-932 -146 -468 0
-932 -147 -412 0
-932 -147 -436 0
-932 -147 -460 0
-932 -147 -418 0
-932 -147 -442 0
-932 -147 -466 0
-932 -147 -413 0
-932 -147 -437 0
-932 -147 -461 0
-932 -147 -419 0
-932 -147 -443 0
-932 -147 -467 0
-932 -147 -414 0
-932 -147 -438 0
-932 -147 -462 0
-932 -147 -420 0
-932 -147 -444 0
-932 -147 -468 0
-932 -148 -418 0
-932 -148 -442 0
-932 -148 -466 0
-932 -148 -419 0
-932 -148 -443 0
-932 -148 -467 0
-932 -148 -420 0
-932 -148 -444 0
-932 -148 -468 0
-932 -149 0
-932 83 0
-932 -146 167 0
-932 -147 168 0
-932 -148 169 0
-932 -200 0
-933 197 0
-933 -63 -146 -151 0
-933 -63 -147 -152 0
-933 -63 -148 -153 0
-933 57 58 59 0
-933 -57 -146 1090 479 0
-933 -57 -147 1090 485 0
-933 -57 -148 1090 491 0
-933 -58 -146 1090 479 0
-933 -58 -147 1090 485 0
-933 -58 -148 1090 491 0
-933 -58 -146 1091 480 0
-933 -58 -147 1091 486 0
-933 -58 -148 1091 492 0
-933 -59 -146 1091 480 0
-933 -59 -147 1091 486 0
-933 -59 -148 1091 492 0
-933 -59 -146 1092 481 0
-933 -59 -147 1092 487 0
-933 -59 -148 1092 493 0
-933 -146 -407 0
-933 -146 -431 0
-933 -146 -455 0
-933 -146 -413 0
-933 -146 -437 0
-933 -146 -461 0
-933 -146 -419 0
-933 -146 -443 0
-933 -146 -467 0
-933 -146 -408 0
-933 -146 -432 0
-933 -146 -456 0
-933 -146 -414 0
-933 -146 -438 0
-933 -146 -462 0
-933 -146 -420 0
-933 -146 -444 0
-933 -146 -468 0
-933 -146 -409 0
-933 -146 -433 0
-933 -146 -457 0
-933 -146 -415 0
-933 -146 -439 0
-933 -146 -463 0
-933 -146 -421 0
-933 -146 -445 0
-933 -146 -469 0
-933 -147 -413 0
-933 -147 -437 0
-933 -147 -461 0
-933 -147 -419 0
-933 -147 -443 0
-933 -147 -467 0
-933 -147 -414 0
-933 -147 -438 0
-933 -147 -462 0
-933 -147 -420 0
-933 -147 -444 0
-933 -147 -468 0
-933 -147 -415 0
-933 -147 -439 0
-933 -147 -463 0
-933 -147 -421 0
-933 -147 -445 0
-933 -147 -469 0
-933 -148 -419 0
-933 -148 -443 0
-933 -148 -467 0
-933 -148 -420 0
-933 -148 -444 0
-933 -148 -468 0
-933 -148 -421 0
-933 -148 -445 0
-933 -148 -469 0
-933 -149 0
-933 84 0
-933 -146 167 0
-933 -147 168 0
-933 -148 169 0
-933 -200 0
-934 197 0
-934 -60 -150 0
-934 -398 0
-934 -422 0
-934 -446 0
-934 -404 0
-934 -428 0
-934 -452 0
-934 -410 0
-934 -434 0
-934 -458 0
-934 -416 0
-934 -440 0
-934 -464 0
-934 -399 0
-934 -423 0
-934 -447 0
-934 -405 0
-934 -429 0
-934 -453 0
-934 -411 0
-934 -435 0
-934 -459 0
-934 -417 0
-934 -441 0
-934 -465 0
-934 -400 0
-934 -424 0
-934 -448 0
-934 -406 0
-934 -430 0
-934 -454 0
-934 -412 0
-934 -436 0
-934 -460 0
-934 -418 0
-934 -442 0
-934 -466 0
-934 81 0
-934 166 0
-935 197 0
-935 -61 -150 0
-935 -399 0
-935 -423 0
-935 -447 0
-935 -405 0
-935 -429 0
-935 -453 0
-935 -411 0
-935 -435 0
-935 -459 0
-935 -417 0
-935 -441 0
-935 -465 0
-935 -400 0
-935 -424 0
-935 -448 0
-935 -406 0
-935 -430 0
-935 -454 0
-935 -412 0
-935 -436 0
-935 -460 0
-935 -418 0
-935 -442 0
-935 -466 0
-935 -401 0
-935 -425 0
-935 -449 0
-935 -407 0
-935 -431 0
-935 -455 0
-935 -413 0
-935 -437 0
-935 -461 0
-935 -419 0
-935 -443 0
-935 -467 0
-935 82 0
-935 166 0
-936 197 0
-936 -62 -150 0
-936 -400 0
-936 -424 0
-936 -448 0
-936 -406 0
-936 -430 0
-936 -454 0
-936 -412 0
-936 -436 0
-936 -460 0
-936 -418 0
-936 -442 0
-936 -466 0
-936 -401 0
-936 -425 0
-936 -449 0
-936 -407 0
-936 -431 0
-936 -455 0
-936 -413 0
-936 -437 0
-936 -461 0
-936 -419 0
-936 -443 0
-936 -467 0
-936 -402 0
-936 -426 0
-936 -450 0
-936 -408 0
-936 -432 0
-936 -456 0
-936 -414 0
-936 -438 0
-936 -462 0
-936 -420 0
-936 -444 0
-936 -468 0
-936 83 0
-936 166 0
-937 197 0
-937 -63 -150 0
-937 -401 0
-937 -425 0
-937 -449 0
-937 -407 0
-937 -431 0
-937 -455 0
-937 -413 0
-937 -437 0
-937 -461 0
-937 -419 0
-937 -443 0
-937 -467 0
-937 -402 0
-937 -426 0
-937 -450 0
-937 -408 0
-937 -432 0
-937 -456 0
-937 -414 0
-937 -438 0
-937 -462 0
-937 -420 0
-937 -444 0
-937 -468 0
-937 -403 0
-937 -427 0
-937 -451 0
-937 -409 0
-937 -433 0
-937 -457 0
-937 -415 0
-937 -439 0
-937 -463 0
-937 -421 0
-937 -445 0
-937 -469 0
-937 84 0
-937 166 0
43 -64 854 855 856 857 858 859 860 861 862 863 864 865 866 867 868 869 870 871 872 873 874 875 876 877 0
-43 64 854 855 856 857 858 859 860 861 862 863 864 865 866 867 868 869 870 871 872 873 874 875 876 877 0
44 -65 854 855 856 857 858 859 860 861 862 863 864 865 866 867 868 869 870 871 872 873 874 875 876 877 0
-44 65 854 855 856 857 858 859 860 861 862 863 864 865 866 867 868 869 870 871 872 873 874 875 876 877 0
45 -66 854 855 856 857 858 859 860 861 862 863 864 865 866 867 868 869 870 871 872 873 874 875 876 877 0
-45 66 854 855 856 857 858 859 860 861 862 863 864 865 866 867 868 869 870 871 872 873 874 875 876 877 0
46 -67 854 855 856 857 858 859 860 861 862 863 864 865 866 867 868 869 870 871 872 873 874 875 876 877 0
-46 67 854 855 856 857 858 859 860 861 862 863 864 865 866 867 868 869 870 871 872 873 874 875 876 877 0
47 -68 854 855 856 857 858 859 860 861 862 863 864 865 866 867 868 869 870 871 872 873 874 875 876 877 0
-47 68 854 855 856 857 858 859 860 861 862 863 864 865 866 867 868 869 870 871 872 873 874 875 876 877 0
48 -69 854 855 856 857 858 859 860 861 862 863 864 865 866 867 868 869 870 871 872 873 874 875 876 877 0
-48 69 854 855 856 857 858 859 860 861 862 863 864 865 866 867 868 869 870 871 872 873 874 875 876 877 0
138 -154 854 855 856 857 858 859 860 861 862 863 864 865 866 867 868 869 870 871 872 873 874 875 876 877 0
-138 154 854 855 856 857 858 859 860 861 862 863 864 865 866 867 868 869 870 871 872 873 874 875 876 877 0
139 -155 854 855 856 857 858 859 860 861 862 863 864 865 866 867 868 869 870 871 872 873 874 875 876 877 0
-139 155 854 855 856 857 858 859 860 861 862 863 864 865 866 867 868 869 870 871 872 873 874 875 876 877 0
140 -156 854 855 856 857 858 859 860 861 862 863 864 865 866 867 868 869 870 871 872 873 874 875 876 877 0
-140 156 854 855 856 857 858 859 860 861 862 863 864 865 866 867 868 869 870 871 872 873 874 875 876 877 0
141 -157 854 855 856 857 858 859 860 861 862 863 864 865 866 867 868 869 870 871 872 873 874 875 876 877 0
-141 157 854 855 856 857 858 859 860 861 862 863 864 865 866 867 868 869 870 871 872 873 874 875 876 877 0
49 -70 878 879 880 881 882 883 884 885 886 887 888 889 890 891 892 893 894 895 896 897 898 899 900 901 0
-49 70 878 879 880 881 882 883 884 885 886 887 888 889 890 891 892 893 894 895 896 897 898 899 900 901 0
50 -71 878 879 880 881 882 883 884 885 886 887 888 889 890 891 892 893 894 895 896 897 898 899 900 901 0
-50 71 878 879 880 881 882 883 884 885 886 887 888 889 890 891 892 893 894 895 896 897 898 899 900 901 0
51 -72 878 879 880 881 882 883 884 885 886 887 888 889 890 891 892 893 894 895 896 897 898 899 900 901 0
-51 72 878 879 880 881 882 883 884 885 886 887 888 889 890 891 892 893 894 895 896 897 898 899 900 901 0
52 -73 878 879 880 881 882 883 884 885 886 887 888 889 890 891 892 893 894 895 896 897 898 899 900 901 0
-52 73 878 879 880 881 882 883 884 885 886 887 888 889 890 891 892 893 894 895 896 897 898 899 900 901 0
53 -74 878 879 880 881 882 883 884 885 886 887 888 889 890 891 892 893 894 895 896 897 898 899 900 901 0
-53 74 878 879 880 881 882 883 884 885 886 887 888 889 890 891 892 893 894 895 896 897 898 899 900 901 0
54 -75 878 879 880 881 882 883 884 885 886 887 888 889 890 891 892 893 894 895 896 897 898 899 900 901 0
-54 75 878 879 880 881 882 883 884 885 886 887 888 889 890 891 892 893 894 895 896 897 898 899 900 901 0
142 -158 878 879 880 881 882 883 884 885 886 887 888 889 890 891 892 893 894 895 896 897 898 899 900 901 0
-142 158 878 879 880 881 882 883 884 885 886 887 888 889 890 891 892 893 894 895 896 897 898 899 900 901 0
143 -159 878 879 880 881 882 883 884 885 886 887 888 889 890 891 892 893 894 895 896 897 898 899 900 901 0
-143 159 878 879 880 881 882 883 884 885 886 887 888 889 890 891 892 893 894 895 896 897 898 899 900 901 0
144 -160 878 879 880 881 882 883 884 885 886 887 888 889 890 891 892 893 894 895 896 897 898 899 900 901 0
-144 160 878 879 880 881 882 883 884 885 886 887 888 889 890 891 892 893 894 895 896 897 898 899 900 901 0
145 -161 878 879 880 881 882 883 884 885 886 887 888 889 890 891 892 893 894 895 896 897 898 899 900 901 0
-145 161 878 879 880 881 882 883 884 885 886 887 888 889 890 891 892 893 894 895 896 897 898 899 900 901 0
55 -76 902 903 904 905 906 907 908 909 910 911 912 913 914 915 916 917 918 919 920 921 0
-55 76 902 903 904 905 906 907 908 909 910 911 912 913 914 915 916 917 918 919 920 921 0
56 -77 902 903 904 905 906 907 908 909 910 911 912 913 914 915 916 917 918 919 920 921 0
-56 77 902 903 904 905 906 907 908 909 910 911 912 913 914 915 916 917 918 919 920 921 0
57 -78 902 903 904 905 906 907 908 909 910 911 912 913 914 915 916 917 918 919 920 921 0
-57 78 902 903 904 905 906 907 908 909 910 911 912 913 914 915 916 917 918 919 920 921 0
58 -79 902 903 904 905 906 907 908 909 910 911 912 913 914 915 916 917 918 919 920 921 0
-58 79 902 903 904 905 906 907 908 909 910 911 912 913 914 915 916 917 918 919 920 921 0
59 -80 902 903 904 905 906 907 908 909 910 911 912 913 914 915 916 917 918 919 920 921 0
-59 80 902 903 904 905 906 907 908 909 910 911 912 913 914 915 916 917 918 919 920 921 0
146 -162 902 903 904 905 906 907 908 909 910 911 912 913 914 915 916 917 918 919 920 921 0
-146 162 902 903 904 905 906 907 908 909 910 911 912 913 914 915 916 917 918 919 920 921 0
147 -163 902 903 904 905 906 907 908 909 910 911 912 913 914 915 916 917 918 919 920 921 0
-147 163 902 903 904 905 906 907 908 909 910 911 912 913 914 915 916 917 918 919 920 921 0
148 -164 902 903 904 905 906 907 908 909 910 911 912 913 914 915 916 917 918 919 920 921 0
-148 164 902 903 904 905 906 907 908 909 910 911 912 913 914 915 916 917 918 919 920 921 0
149 -165 902 903 904 905 906 907 908 909 910 911 912 913 914 915 916 917 918 919 920 921 0
-149 165 902 903 904 905 906 907 908 909 910 911 912 913 914 915 916 917 918 919 920 921 0
60 -81 922 923 924 925 926 927 928 929 930 931 932 933 934 935 936 937 0
-60 81 922 923 924 925 926 927 928 929 930 931 932 933 934 935 936 937 0
61 -82 922 923 924 925 926 927 928 929 930 931 932 933 934 935 936 937 0
-61 82 922 923 924 925 926 927 928 929 930 931 932 933 934 935 936 937 0
62 -83 922 923 924 925 926 927 928 929 930 931 932 933 934 935 936 937 0
-62 83 922 923 924 925 926 927 928 929 930 931 932 933 934 935 936 937 0
63 -84 922 923 924 925 926 927 928 929 930 931 932 933 934 935 936 937 0
-63 84 922 923 924 925 926 927 928 929 930 931 932 933 934 935 936 937 0
150 -166 922 923 924 925 926 927 928 929 930 931 932 933 934 935 936 937 0
-150 166 922 923 924 925 926 927 928 929 930 931 932 933 934 935 936 937 0
151 -167 922 923 924 925 926 927 928 929 930 931 932 933 934 935 936 937 0
-151 167 922 923 924 925 926 927 928 929 930 931 932 933 934 935 936 937 0
152 -168 922 923 924 925 926 927 928 929 930 931 932 933 934 935 936 937 0
-152 168 922 923 924 925 926 927 928 929 930 931 932 933 934 935 936 937 0
153 -169 922 923 924 925 926 927 928 929 930 931 932 933 934 935 936 937 0
-153 169 922 923 924 925 926 927 928 929 930 931 932 933 934 935 936 937 0
854 855 856 857 858 859 860 861 862 863 864 865 866 867 868 869 870 871 872 873 874 875 876 877 878 879 880 881 882 883 884 885 886 887 888 889 890 891 892 893 894 895 896 897 898 899 900 901 902 903 904 905 906 907 908 909 910 911 912 913 914 915 916 917 918 919 920 921 922 923 924 925 926 927 928 929 930 931 932 933 934 935 936 937 0
-854 -855 0
-854 -856 0
-854 -857 0
-854 -858 0
-854 -859 0
-854 -860 0
-854 -861 0
-854 -862 0
-854 -863 0
-854 -864 0
-854 -865 0
-854 -866 0
-854 -867 0
-854 -868 0
-854 -869 0
-854 -870 0
-854 -871 0
-854 -872 0
-854 -873 0
-854 -874 0
-854 -875 0
-854 -876 0
-854 -877 0
-854 -878 0
-854 -879 0
-854 -880 0
-854 -881 0
-854 -882 0
-854 -883 0
-854 -884 0
-854 -885 0
-854 -886 0
-854 -887 0
-854 -888 0
-854 -889 0
-854 -890 0
-854 -891 0
-854 -892 0
-854 -893 0
-854 -894 0
-854 -895 0
-854 -896 0
-854 -897 0
-854 -898 0
-854 -899 0
-854 -900 0
-854 -901 0
-854 -902 0
-854 -903 0
-854 -904 0
-854 -905 0
-854 -906 0
-854 -907 0
-854 -908 0
-854 -909 0
-854 -910 0
-854 -911 0
-854 -912 0
-854 -913 0
-854 -914 0
-854 -915 0
-854 -916 0
-854 -917 0
-854 -918 0
-854 -919 0
-854 -920 0
-854 -921 0
-854 -922 0
-854 -923 0
-854 -924 0
-854 -925 0
-854 -926 0
-854 -927 0
-854 -928 0
-854 -929 0
-854 -930 0
-854 -931 0
-854 -932 0
-854 -933 0
-854 -934 0
-854 -935 0
-854 -936 0
-854 -937 0
-855 -856 0
-855 -857 0
-855 -858 0
-855 -859 0
-855 -860 0
-855 -861 0
-855 -862 0
-855 -863 0
-855 -864 0
-855 -865 0
-855 -866 0
-855 -867 0
-855 -868 0
-855 -869 0
-855 -870 0
-855 -871 0
-855 -872 0
-855 -873 0
-855 -874 0
-855 -875 0
-855 -876 0
-855 -877 0
-855 -878 0
-855 -879 0
-855 -880 0
-855 -881 0
-855 -882 0
-855 -883 0
-855 -884 0
-855 -885 0
-855 -886 0
-855 -887 0
-855 -888 0
-855 -889 0
-855 -890 0
-855 -891 0
-855 -892 0
-855 -893 0
-855 -894 0
-855 -895 0
-855 -896 0
-855 -897 0
-855 -898 0
-855 -899 0
-855 -900 0
-855 -901 0
-855 -902 0
-855 -903 0
-855 -904 0
-855 -905 0
-855 -906 0
-855 -907 0
-855 -908 0
-855 -909 0
-855 -910 0
-855 -911 0
-855 -912 0
-855 -913 0
-855 -914 0
-855 -915 0
-855 -916 0
-855 -917 0
-855 -918 0
-855 -919 0
-855 -920 0
-855 -921 0
-855 -922 0
-855 -923 0
-855 -924 0
-855 -925 0
-855 -926 0
-855 -927 0
-855 -928 0
-855 -929 0
-855 -930 0
-855 -931 0
-855 -932 0
-855 -933 0
-855 -934 0
-855 -935 0
-855 -936 0
-855 -937 0
-856 -857 0
-856 -858 0
-856 -859 0
-856 -860 0
-856 -861 0
-856 -862 0
-856 -863 0
-856 -864 0
-856 -865 0
-856 -866 0
-856 -867 0
-856 -868 0
-856 -869 0
-856 -870 0
-856 -871 0
-856 -872 0
-856 -873 0
-856 -874 0
-856 -875 0
-856 -876 0
-856 -877 0
-856 -878 0
-856 -879 0
-856 -880 0
-856 -881 0
-856 -882 0
-856 -883 0
-856 -884 0
-856 -885 0
-856 -886 0
-856 -887 0
-856 -888 0
-856 -889 0
-856 -890 0
-856 -891 0
-856 -892 0
-856 -893 0
-856 -894 0
-856 -895 0
-856 -896 0
-856 -897 0
-856 -898 0
-856 -899 0
-856 -900 0
-856 -901 0
-856 -902 0
-856 -903 0
-856 -904 0
-856 -905 0
-856 -906 0
-856 -907 0
-856 -908 0
-856 -909 0
-856 -910 0
-856 -911 0
-856 -912 0
-856 -913 0
-856 -914 0
-856 -915 0
-856 -916 0
-856 -917 0
-856 -918 0
-856 -919 0
-856 -920 0
-856 -921 0
-856 -922 0
-856 -923 0
-856 -924 0
-856 -925 0
-856 -926 0
-856 -927 0
-856 -928 0
-856 -929 0
-856 -930 0
-856 -931 0
-856 -932 0
-856 -933 0
-856 -934 0
-856 -935 0
-856 -936 0
-856 -937 0
-857 -858 0
-857 -859 0
-857 -860 0
-857 -861 0
-857 -862 0
-857 -863 0
-857 -864 0
-857 -865 0
-857 -866 0
-857 -867 0
-857 -868 0
-857 -869 0
-857 -870 0
-857 -871 0
-857 -872 0
-857 -873 0
-857 -874 0
-857 -875 0
-857 -876 0
-857 -877 0
-857 -878 0
-857 -879 0
-857 -880 0
-857 -881 0
-857 -882 0
-857 -883 0
-857 -884 0
-857 -885 0
-857 -886 0
-857 -887 0
-857 -888 0
-857 -889 0
-857 -890 0
-857 -891 0
-857 -892 0
-857 -893 0
-857 -894 0
-857 -895 0
-857 -896 0
-857 -897 0
-857 -898 0
-857 -899 0
-857 -900 0
-857 -901 0
-857 -902 0
-857 -903 0
-857 -904 0
-857 -905 0
-857 -906 0
-857 -907 0
-857 -908 0
-857 -909 0
-857 -910 0
-857 -911 0
-857 -912 0
-857 -913 0
-857 -914 0
-857 -915 0
-857 -916 0
-857 -917 0
-857 -918 0
-857 -919 0
-857 -920 0
-857 -921 0
-857 -922 0
-857 -923 0
-857 -924 0
-857 -925 0
-857 -926 0
-857 -927 0
-857 -928 0
-857 -929 0
-857 -930 0
-857 -931 0
-857 -932 0
-857 -933 0
-857 -934 0
-857 -935 0
-857 -936 0
-857 -937 0
-858 -859 0
-858 -860 0
-858 -861 0
-858 -862 0
-858 -863 0
-858 -864 0
-858 -865 0
-858 -866 0
-858 -867 0
-858 -868 0
-858 -869 0
-858 -870 0
-858 -871 0
-858 -872 0
-858 -873 0
-858 -874 0
-858 -875 0
-858 -876 0
-858 -877 0
-858 -878 0
-858 -879 0
-858 -880 0
-858 -881 0
-858 -882 0
-858 -883 0
-858 -884 0
-858 -885 0
-858 -886 0
-858 -887 0
-858 -888 0
-858 -889 0
-858 -890 0
-858 -891 0
-858 -892 0
-858 -893 0
-858 -894 0
-858 -895 0
-858 -896 0
-858 -897 0
-858 -898 0
-858 -899 0
-858 -900 0
-858 -901 0
-858 -902 0
-858 -903 0
-858 -904 0
-858 -905 0
-858 -906 0
-858 -907 0
-858 -908 0
-858 -909 0
-858 -910 0
-858 -911 0
-858 -912 0
-858 -913 0
-858 -914 0
-858 -915 0
-858 -916 0
-858 -917 0
-858 -918 0
-858 -919 0
-858 -920 0
-858 -921 0
-858 -922 0
-858 -923 0
-858 -924 0
-858 -925 0
-858 -926 0
-858 -927 0
-858 -928 0
-858 -929 0
-858 -930 0
-858 -931 0
-858 -932 0
-858 -933 0
-858 -934 0
-858 -935 0
-858 -936 0
-858 -937 0
-859 -860 0
-859 -861 0
-859 -862 0
-859 -863 0
-859 -864 0
-859 -865 0
-859 -866 0
-859 -867 0
-859 -868 0
-859 -869 0
-859 -870 0
-859 -871 0
-859 -872 0
-859 -873 0
-859 -874 0
-859 -875 0
-859 -876 0
-859 -877 0
-859 -878 0
-859 -879 0
-859 -880 0
-859 -881 0
-859 -882 0
-859 -883 0
-859 -884 0
-859 -885 0
-859 -886 0
-859 -887 0
-859 -888 0
-859 -889 0
-859 -890 0
-859 -891 0
-859 -892 0
-859 -893 0
-859 -894 0
-859 -895 0
-859 -896 0
-859 -897 0
-859 -898 0
-859 -899 0
-859 -900 0
-859 -901 0
-859 -902 0
-859 -903 0
-859 -904 0
-859 -905 0
-859 -906 0
-859 -907 0
-859 -908 0
-859 -909 0
-859 -910 0
-859 -911 0
-859 -912 0
-859 -913 0
-859 -914 0
-859 -915 0
-859 -916 0
-859 -917 0
-859 -918 0
-859 -919 0
-859 -920 0
-859 -921 0
-859 -922 0
-859 -923 0
-859 -924 0
-859 -925 0
-859 -926 0
-859 -927 0
-859 -928 0
-859 -929 0
-859 -930 0
-859 -931 0
-859 -932 0
-859 -933 0
-859 -934 0
-859 -935 0
-859 -936 0
-859 -937 0
-860 -861 0
-860 -862 0
-860 -863 0
-860 -864 0
-860 -865 0
-860 -866 0
-860 -867 0
-860 -868 0
-860 -869 0
-860 -870 0
-860 -871 0
-860 -872 0
-860 -873 0
-860 -874 0
-860 -875 0
-860 -876 0
-860 -877 0
-860 -878 0
-860 -879 0
-860 -880 0
-860 -881 0
-860 -882 0
-860 -883 0
-860 -884 0
-860 -885 0
-860 -886 0
-860 -887 0
-860 -888 0
-860 -889 0
-860 -890 0
-860 -891 0
-860 -892 0
-860 -893 0
-860 -894 0
-860 -895 0
-860 -896 0
-860 -897 0
-860 -898 0
-860 -899 0
-860 -900 0
-860 -901 0
-860 -902 0
-860 -903 0
-860 -904 0
-860 -905 0
-860 -906 0
-860 -907 0
-860 -908 0
-860 -909 0
-860 -910 0
-860 -911 0
-860 -912 0
-860 -913 0
-860 -914 0
-860 -915 0
-860 -916 0
-860 -917 0
-860 -918 0
-860 -919 0
-860 -920 0
-860 -921 0
-860 -922 0
-860 -923 0
-860 -924 0
-860 -925 0
-860 -926 0
-860 -927 0
-860 -928 0
-860 -929 0
-860 -930 0
-860 -931 0
-860 -932 0
-860 -933 0
-860 -934 0
-860 -935 0
-860 -936 0
-860 -937 0
-861 -862 0
-861 -863 0
-861 -864 0
-861 -865 0
-861 -866 0
-861 -867 0
-861 -868 0
-861 -869 0
-861 -870 0
-861 -871 0
-861 -872 0
-861 -873 0
-861 -874 0
-861 -875 0
-861 -876 0
-861 -877 0
-861 -878 0
-861 -879 0
-861 -880 0
-861 -881 0
-861 -882 0
-861 -883 0
-861 -884 0
-861 -885 0
-861 -886 0
-861 -887 0
-861 -888 0
-861 -889 0
-861 -890 0
-861 -891 0
-861 -892 0
-861 -893 0
-861 -894 0
-861 -895 0
-861 -896 0
-861 -897 0
-861 -898 0
-861 -899 0
-861 -900 0
-861 -901 0
-861 -902 0
-861 -903 0
-861 -904 0
-861 -905 0
-861 -906 0
-861 -907 0
-861 -908 0
-861 -909 0
-861 -910 0
-861 -911 0
-861 -912 0
-861 -913 0
-861 -914 0
-861 -915 0
-861 -916 0
-861 -917 0
-861 -918 0
-861 -919 0
-861 -920 0
-861 -921 0
-861 -922 0
-861 -923 0
-861 -924 0
-861 -925 0
-861 -926 0
-861 -927 0
-861 -928 0
-861 -929 0
-861 -930 0
-861 -931 0
-861 -932 0
-861 -933 0
-861 -934 0
-861 -935 0
-861 -936 0
-861 -937 0
-862 -863 0
-862 -864 0
-862 -865 0
-862 -866 0
-862 -867 0
-862 -868 0
-862 -869 0
-862 -870 0
-862 -871 0
-862 -872 0
-862 -873 0
-862 -874 0
-862 -875 0
-862 -876 0
-862 -877 0
-862 -878 0
-862 -879 0
-862 -880 0
-862 -881 0
-862 -882 0
-862 -883 0
-862 -884 0
-862 -885 0
-862 -886 0
-862 -887 0
-862 -888 0
-862 -889 0
-862 -890 0
-862 -891 0
-862 -892 0
-862 -893 0
-862 -894 0
-862 -895 0
-862 -896 0
-862 -897 0
-862 -898 0
-862 -899 0
-862 -900 0
-862 -901 0
-862 -902 0
-862 -903 0
-862 -904 0
-862 -905 0
-862 -906 0
-862 -907 0
-862 -908 0
-862 -909 0
-862 -910 0
-862 -911 0
-862 -912 0
-862 -913 0
-862 -914 0
-862 -915 0
-862 -916 0
-862 -917 0
-862 -918 0
-862 -919 0
-862 -920 0
-862 -921 0
-862 -922 0
-862 -923 0
-862 -924 0
-862 -925 0
-862 -926 0
-862 -927 0
-862 -928 0
-862 -929 0
-862 -930 0
-862 -931 0
-862 -932 0
-862 -933 0
-862 -934 0
-862 -935 0
-862 -936 0
-862 -937 0
-863 -864 0
-863 -865 0
-863 -866 0
-863 -867 0
-863 -868 0
-863 -869 0
-863 -870 0
-863 -871 0
-863 -872 0
-863 -873 0
-863 -874 0
-863 -875 0
-863 -876 0
-863 -877 0
-863 -878 0
-863 -879 0
-863 -880 0
-863 -881 0
-863 -882 0
-863 -883 0
-863 -884 0
-863 -885 0
-863 -886 0
-863 -887 0
-863 -888 0
-863 -889 0
-863 -890 0
-863 -891 0
-863 -892 0
-863 -893 0
-863 -894 0
-863 -895 0
-863 -896 0
-863 -897 0
-863 -898 0
-863 -899 0
-863 -900 0
-863 -901 0
-863 -902 0
-863 -903 0
-863 -904 0
-863 -905 0
-863 -906 0
-863 -907 0
-863 -908 0
-863 -909 0
-863 -910 0
-863 -911 0
-863 -912 0
-863 -913 0
-863 -914 0
-863 -915 0
-863 -916 0
-863 -917 0
-863 -918 0
-863 -919 0
-863 -920 0
-863 -921 0
-863 -922 0
-863 -923 0
-863 -924 0
-863 -925 0
-863 -926 0
-863 -927 0
-863 -928 0
-863 -929 0
-863 -930 0
-863 -931 0
-863 -932 0
-863 -933 0
-863 -934 0
-863 -935 0
-863 -936 0
-863 -937 0
-864 -865 0
-864 -866 0
-864 -867 0
-864 -868 0
-864 -869 0
-864 -870 0
-864 -871 0
-864 -872 0
-864 -873 0
-864 -874 0
-864 -875 0
-864 -876 0
-864 -877 0
-864 -878 0
-864 -879 0
-864 -880 0
-864 -881 0
-864 -882 0
-864 -883 0
-864 -884 0
-864 -885 0
-864 -886 0
-864 -887 0
-864 -888 0
-864 -889 0
-864 -890 0
-864 -891 0
-864 -892 0
-864 -893 0
-864 -894 0
-864 -895 0
-864 -896 0
-864 -897 0
-864 -898 0
-864 -899 0
-864 -900 0
-864 -901 0
-864 -902 0
-864 -903 0
-864 -904 0
-864 -905 0
-864 -906 0
-864 -907 0
-864 -908 0
-864 -909 0
-864 -910 0
-864 -911 0
-864 -912 0
-864 -913 0
-864 -914 0
-864 -915 0
-864 -916 0
-864 -917 0
-864 -918 0
-864 -919 0
-864 -920 0
-864 -921 0
-864 -922 0
-864 -923 0
-864 -924 0
-864 -925 0
-864 -926 0
-864 -927 0
-864 -928 0
-864 -929 0
-864 -930 0
-864 -931 0
-864 -932 0
-864 -933 0
-864 -934 0
-864 -935 0
-864 -936 0
-864 -937 0
-865 -866 0
-865 -867 0
-865 -868 0
-865 -869 0
-865 -870 0
-865 -871 0
-865 -872 0
-865 -873 0
-865 -874 0
-865 -875 0
-865 -876 0
-865 -877 0
-865 -878 0
-865 -879 0
-865 -880 0
-865 -881 0
-865 -882 0
-865 -883 0
-865 -884 0
-865 -885 0
-865 -886 0
-865 -887 0
-865 -888 0
-865 -889 0
-865 -890 0
-865 -891 0
-865 -892 0
-865 -893 0
-865 -894 0
-865 -895 0
-865 -896 0
-865 -897 0
-865 -898 0
-865 -899 0
-865 -900 0
-865 -901 0
-865 -902 0
-865 -903 0
-865 -904 0
-865 -905 0
-865 -906 0
-865 -907 0
-865 -908 0
-865 -909 0
-865 -910 0
-865 -911 0
-865 -912 0
-865 -913 0
-865 -914 0
-865 -915 0
-865 -916 0
-865 -917 0
-865 -918 0
-865 -919 0
-865 -920 0
-865 -921 0
-865 -922 0
-865 -923 0
-865 -924 0
-865 -925 0
-865 -926 0
-865 -927 0
-865 -928 0
-865 -929 0
-865 -930 0
-865 -931 0
-865 -932 0
-865 -933 0
-865 -934 0
-865 -935 0
-865 -936 0
-865 -937 0
-866 -867 0
-866 -868 0
-866 -869 0
-866 -870 0
-866 -871 0
-866 -872 0
-866 -873 0
-866 -874 0
-866 -875 0
-866 -876 0
-866 -877 0
-866 -878 0
-866 -879 0
-866 -880 0
-866 -881 0
-866 -882 0
-866 -883 0
-866 -884 0
-866 -885 0
-866 -886 0
-866 -887 0
-866 -888 0
-866 -889 0
-866 -890 0
-866 -891 0
-866 -892 0
-866 -893 0
-866 -894 0
-866 -895 0
-866 -896 0
-866 -897 0
-866 -898 0
-866 -899 0
-866 -900 0
-866 -901 0
-866 -902 0
-866 -903 0
-866 -904 0
-866 -905 0
-866 -906 0
-866 -907 0
-866 -908 0
-866 -909 0
-866 -910 0
-866 -911 0
-866 -912 0
-866 -913 0
-866 -914 0
-866 -915 0
-866 -916 0
-866 -917 0
-866 -918 0
-866 -919 0
-866 -920 0
-866 -921 0
-866 -922 0
-866 -923 0
-866 -924 0
-866 -925 0
-866 -926 0
-866 -927 0
-866 -928 0
-866 -929 0
-866 -930 0
-866 -931 0
-866 -932 0
-866 -933 0
-866 -934 0
-866 -935 0
-866 -936 0
-866 -937 0
-867 -868 0
-867 -869 0
-867 -870 0
-867 -871 0
-867 -872 0
-867 -873 0
-867 -874 0
-867 -875 0
-867 -876 0
-867 -877 0
-867 -878 0
-867 -879 0
-867 -880 0
-867 -881 0
-867 -882 0
-867 -883 0
-867 -884 0
-867 -885 0
-867 -886 0
-867 -887 0
-867 -888 0
-867 -889 0
-867 -890 0
-867 -891 0
-867 -892 0
-867 -893 0
-867 -894 0
-867 -895 0
-867 -896 0
-867 -897 0
-867 -898 0
-867 -899 0
-867 -900 0
-867 -901 0
-867 -902 0
-867 -903 0
-867 -904 0
-867 -905 0
-867 -906 0
-867 -907 0
-867 -908 0
-867 -909 0
-867 -910 0
-867 -911 0
-867 -912 0
-867 -913 0
-867 -914 0
-867 -915 0
-867 -916 0
-867 -917 0
-867 -918 0
-867 -919 0
-867 -920 0
-867 -921 0
-867 -922 0
-867 -923 0
-867 -924 0
-867 -925 0
-867 -926 0
-867 -927 0
-867 -928 0
-867 -929 0
-867 -930 0
-867 -931 0
-867 -932 0
-867 -933 0
-867 -934 0
-867 -935 0
-867 -936 0
-867 -937 0
-868 -869 0
-868 -870 0
-868 -871 0
-868 -872 0
-868 -873 0
-868 -874 0
-868 -875 0
-868 -876 0
-868 -877 0
-868 -878 0
-868 -879 0
-868 -880 0
-868 -881 0
-868 -882 0
-868 -883 0
-868 -884 0
-868 -885 0
-868 -886 0
-868 -887 0
-868 -888 0
-868 -889 0
-868 -890 0
-868 -891 0
-868 -892 0
-868 -893 0
-868 -894 0
-868 -895 0
-868 -896 0
-868 -897 0
-868 -898 0
-868 -899 0
-868 -900 0
-868 -901 0
-868 -902 0
-868 -903 0
-868 -904 0
-868 -905 0
-868 -906 0
-868 -907 0
-868 -908 0
-868 -909 0
-868 -910 0
-868 -911 0
-868 -912 0
-868 -913 0
-868 -914 0
-868 -915 0
-868 -916 0
-868 -917 0
-868 -918 0
-868 -919 0
-868 -920 0
-868 -921 0
-868 -922 0
-868 -923 0
-868 -924 0
-868 -925 0
-868 -926 0
-868 -927 0
-868 -928 0
-868 -929 0
-868 -930 0
-868 -931 0
-868 -932 0
-868 -933 0
-868 -934 0
-868 -935 0
-868 -936 0
-868 -937 0
-869 -870 0
-869 -871 0
-869 -872 0
-869 -873 0
-869 -874 0
-869 -875 0
-869 -876 0
-869 -877 0
-869 -878 0
-869 -879 0
-869 -880 0
-869 -881 0
-869 -882 0
-869 -883 0
-869 -884 0
-869 -885 0
-869 -886 0
-869 -887 0
-869 -888 0
-869 -889 0
-869 -890 0
-869 -891 0
-869 -892 0
-869 -893 0
-869 -894 0
-869 -895 0
-869 -896 0
-869 -897 0
-869 -898 0
-869 -899 0
-869 -900 0
-869 -901 0
-869 -902 0
-869 -903 0
-869 -904 0
-869 -905 0
-869 -906 0
-869 -907 0
-869 -908 0
-869 -909 0
-869 -910 0
-869 -911 0
-869 -912 0
-869 -913 0
-869 -914 0
-869 -915 0
-869 -916 0
-869 -917 0
-869 -918 0
-869 -919 0
-869 -920 0
-869 -921 0
-869 -922 0
-869 -923 0
-869 -924 0
-869 -925 0
-869 -926 0
-869 -927 0
-869 -928 0
-869 -929 0
-869 -930 0
-869 -931 0
-869 -932 0
-869 -933 0
-869 -934 0
-869 -935 0
-869 -936 0
-869 -937 0
-870 -871 0
-870 -872 0
-870 -873 0
-870 -874 0
-870 -875 0
-870 -876 0
-870 -877 0
-870 -878 0
-870 -879 0
-870 -880 0
-870 -881 0
-870 -882 0
-870 -883 0
-870 -884 0
-870 -885 0
-870 -886 0
-870 -887 0
-870 -888 0
-870 -889 0
-870 -890 0
-870 -891 0
-870 -892 0
-870 -893 0
-870 -894 0
-870 -895 0
-870 -896 0
-870 -897 0
-870 -898 0
-870 -899 0
-870 -900 0
-870 -901 0
-870 -902 0
-870 -903 0
-870 -904 0
-870 -905 0
-870 -906 0
-870 -907 0
-870 -908 0
-870 -909 0
-870 -910 0
-870 -911 0
-870 -912 0
-870 -913 0
-870 -914 0
-870 -915 0
-870 -916 0
-870 -917 0
-870 -918 0
-870 -919 0
-870 -920 0
-870 -921 0
-870 -922 0
-870 -923 0
-870 -924 0
-870 -925 0
-870 -926 0
-870 -927 0
-870 -928 0
-870 -929 0
-870 -930 0
-870 -931 0
-870 -932 0
-870 -933 0
-870 -934 0
-870 -935 0
-870 -936 0
-870 -937 0
-871 -872 0
-871 -873 0
-871 -874 0
-871 -875 0
-871 -876 0
-871 -877 0
-871 -878 0
-871 -879 0
-871 -880 0
-871 -881 0
-871 -882 0
-871 -883 0
-871 -884 0
-871 -885 0
-871 -886 0
-871 -887 0
-871 -888 0
-871 -889 0
-871 -890 0
-871 -891 0
-871 -892 0
-871 -893 0
-871 -894 0
-871 -895 0
-871 -896 0
-871 -897 0
-871 -898 0
-871 -899 0
-871 -900 0
-871 -901 0
-871 -902 0
-871 -903 0
-871 -904 0
-871 -905 0
-871 -906 0
-871 -907 0
-871 -908 0
-871 -909 0
-871 -910 0
-871 -911 0
-871 -912 0
-871 -913 0
-871 -914 0
-871 -915 0
-871 -916 0
-871 -917 0
-871 -918 0
-871 -919 0
-871 -920 0
-871 -921 0
-871 -922 0
-871 -923 0
-871 -924 0
-871 -925 0
-871 -926 0
-871 -927 0
-871 -928 0
-871 -929 0
-871 -930 0
-871 -931 0
-871 -932 0
-871 -933 0
-871 -934 0
-871 -935 0
-871 -936 0
-871 -937 0
-872 -873 0
-872 -874 0
-872 -875 0
-872 -876 0
-872 -877 0
-872 -878 0
-872 -879 0
-872 -880 0
-872 -881 0
-872 -882 0
-872 -883 0
-872 -884 0
-872 -885 0
-872 -886 0
-872 -887 0
-872 -888 0
-872 -889 0
-872 -890 0
-872 -891 0
-872 -892 0
-872 -893 0
-872 -894 0
-872 -895 0
-872 -896 0
-872 -897 0
-872 -898 0
-872 -899 0
-872 -900 0
-872 -901 0
-872 -902 0
-872 -903 0
-872 -904 0
-872 -905 0
-872 -906 0
-872 -907 0
-872 -908 0
-872 -909 0
-872 -910 0
-872 -911 0
-872 -912 0
-872 -913 0
-872 -914 0
-872 -915 0
-872 -916 0
-872 -917 0
-872 -918 0
-872 -919 0
-872 -920 0
-872 -921 0
-872 -922 0
-872 -923 0
-872 -924 0
-872 -925 0
-872 -926 0
-872 -927 0
-872 -928 0
-872 -929 0
-872 -930 0
-872 -931 0
-872 -932 0
-872 -933 0
-872 -934 0
-872 -935 0
-872 -936 0
-872 -937 0
-873 -874 0
-873 -875 0
-873 -876 0
-873 -877 0
-873 -878 0
-873 -879 0
-873 -880 0
-873 -881 0
-873 -882 0
-873 -883 0
-873 -884 0
-873 -885 0
-873 -886 0
-873 -887 0
-873 -888 0
-873 -889 0
-873 -890 0
-873 -891 0
-873 -892 0
-873 -893 0
-873 -894 0
-873 -895 0
-873 -896 0
-873 -897 0
-873 -898 0
-873 -899 0
-873 -900 0
-873 -901 0
-873 -902 0
-873 -903 0
-873 -904 0
-873 -905 0
-873 -906 0
-873 -907 0
-873 -908 0
-873 -909 0
-873 -910 0
-873 -911 0
-873 -912 0
-873 -913 0
-873 -914 0
-873 -915 0
-873 -916 0
-873 -917 0
-873 -918 0
-873 -919 0
-873 -920 0
-873 -921 0
-873 -922 0
-873 -923 0
-873 -924 0
-873 -925 0
-873 -926 0
-873 -927 0
-873 -928 0
-873 -929 0
-873 -930 0
-873 -931 0
-873 -932 0
-873 -933 0
-873 -934 0
-873 -935 0
-873 -936 0
-873 -937 0
-874 -875 0
-874 -876 0
-874 -877 0
-874 -878 0
-874 -879 0
-874 -880 0
-874 -881 0
-874 -882 0
-874 -883 0
-874 -884 0
-874 -885 0
-874 -886 0
-874 -887 0
-874 -888 0
-874 -889 0
-874 -890 0
-874 -891 0
-874 -892 0
-874 -893 0
-874 -894 0
-874 -895 0
-874 -896 0
-874 -897 0
-874 -898 0
-874 -899 0
-874 -900 0
-874 -901 0
-874 -902 0
-874 -903 0
-874 -904 0
-874 -905 0
-874 -906 0
-874 -907 0
-874 -908 0
-874 -909 0
-874 -910 0
-874 -911 0
-874 -912 0
-874 -913 0
-874 -914 0
-874 -915 0
-874 -916 0
-874 -917 0
-874 -918 0
-874 -919 0
-874 -920 0
-874 -921 0
-874 -922 0
-874 -923 0
-874 -924 0
-874 -925 0
-874 -926 0
-874 -927 0
-874 -928 0
-874 -929 0
-874 -930 0
-874 -931 0
-874 -932 0
-874 -933 0
-874 -934 0
-874 -935 0
-874 -936 0
-874 -937 0
-875 -876 0
-875 -877 0
-875 -878 0
-875 -879 0
-875 -880 0
-875 -881 0
-875 -882 0
-875 -883 0
-875 -884 0
-875 -885 0
-875 -886 0
-875 -887 0
-875 -888 0
-875 -889 0
-875 -890 0
-875 -891 0
-875 -892 0
-875 -893 0
-875 -894 0
-875 -895 0
-875 -896 0
-875 -897 0
-875 -898 0
-875 -899 0
-875 -900 0
-875 -901 0
-875 -902 0
-875 -903 0
-875 -904 0
-875 -905 0
-875 -906 0
-875 -907 0
-875 -908 0
-875 -909 0
-875 -910 0
-875 -911 0
-875 -912 0
-875 -913 0
-875 -914 0
-875 -915 0
-875 -916 0
-875 -917 0
-875 -918 0
-875 -919 0
-875 -920 0
-875 -921 0
-875 -922 0
-875 -923 0
-875 -924 0
-875 -925 0
-875 -926 0
-875 -927 0
-875 -928 0
-875 -929 0
-875 -930 0
-875 -931 0
-875 -932 0
-875 -933 0
-875 -934 0
-875 -935 0
-875 -936 0
-875 -937 0
-876 -877 0
-876 -878 0
-876 -879 0
-876 -880 0
-876 -881 0
-876 -882 0
-876 -883 0
-876 -884 0
-876 -885 0
-876 -886 0
-876 -887 0
-876 -888 0
-876 -889 0
-876 -890 0
-876 -891 0
-876 -892 0
-876 -893 0
-876 -894 0
-876 -895 0
-876 -896 0
-876 -897 0
-876 -898 0
-876 -899 0
-876 -900 0
-876 -901 0
-876 -902 0
-876 -903 0
-876 -904 0
-876 -905 0
-876 -906 0
-876 -907 0
-876 -908 0
-876 -909 0
-876 -910 0
-876 -911 0
-876 -912 0
-876 -913 0
-876 -914 0
-876 -915 0
-876 -916 0
-876 -917 0
-876 -918 0
-876 -919 0
-876 -920 0
-876 -921 0
-876 -922 0
-876 -923 0
-876 -924 0
-876 -925 0
-876 -926 0
-876 -927 0
-876 -928 0
-876 -929 0
-876 -930 0
-876 -931 0
-876 -932 0
-876 -933 0
-876 -934 0
-876 -935 0
-876 -936 0
-876 -937 0
-877 -878 0
-877 -879 0
-877 -880 0
-877 -881 0
-877 -882 0
-877 -883 0
-877 -884 0
-877 -885 0
-877 -886 0
-877 -887 0
-877 -888 0
-877 -889 0
-877 -890 0
-877 -891 0
-877 -892 0
-877 -893 0
-877 -894 0
-877 -895 0
-877 -896 0
-877 -897 0
-877 -898 0
-877 -899 0
-877 -900 0
-877 -901 0
-877 -902 0
-877 -903 0
-877 -904 0
-877 -905 0
-877 -906 0
-877 -907 0
-877 -908 0
-877 -909 0
-877 -910 0
-877 -911 0
-877 -912 0
-877 -913 0
-877 -914 0
-877 -915 0
-877 -916 0
-877 -917 0
-877 -918 0
-877 -919 0
-877 -920 0
-877 -921 0
-877 -922 0
-877 -923 0
-877 -924 0
-877 -925 0
-877 -926 0
-877 -927 0
-877 -928 0
-877 -929 0
-877 -930 0
-877 -931 0
-877 -932 0
-877 -933 0
-877 -934 0
-877 -935 0
-877 -936 0
-877 -937 0
-878 -879 0
-878 -880 0
-878 -881 0
-878 -882 0
-878 -883 0
-878 -884 0
-878 -885 0
-878 -886 0
-878 -887 0
-878 -888 0
-878 -889 0
-878 -890 0
-878 -891 0
-878 -892 0
-878 -893 0
-878 -894 0
-878 -895 0
-878 -896 0
-878 -897 0
-878 -898 0
-878 -899 0
-878 -900 0
-878 -901 0
-878 -902 0
-878 -903 0
-878 -904 0
-878 -905 0
-878 -906 0
-878 -907 0
-878 -908 0
-878 -909 0
-878 -910 0
-878 -911 0
-878 -912 0
-878 -913 0
-878 -914 0
-878 -915 0
-878 -916 0
-878 -917 0
-878 -918 0
-878 -919 0
-878 -920 0
-878 -921 0
-878 -922 0
-878 -923 0
-878 -924 0
-878 -925 0
-878 -926 0
-878 -927 0
-878 -928 0
-878 -929 0
-878 -930 0
-878 -931 0
-878 -932 0
-878 -933 0
-878 -934 0
-878 -935 0
-878 -936 0
-878 -937 0
-879 -880 0
-879 -881 0
-879 -882 0
-879 -883 0
-879 -884 0
-879 -885 0
-879 -886 0
-879 -887 0
-879 -888 0
-879 -889 0
-879 -890 0
-879 -891 0
-879 -892 0
-879 -893 0
-879 -894 0
-879 -895 0
-879 -896 0
-879 -897 0
-879 -898 0
-879 -899 0
-879 -900 0
-879 -901 0
-879 -902 0
-879 -903 0
-879 -904 0
-879 -905 0
-879 -906 0
-879 -907 0
-879 -908 0
-879 -909 0
-879 -910 0
-879 -911 0
-879 -912 0
-879 -913 0
-879 -914 0
-879 -915 0
-879 -916 0
-879 -917 0
-879 -918 0
-879 -919 0
-879 -920 0
-879 -921 0
-879 -922 0
-879 -923 0
-879 -924 0
-879 -925 0
-879 -926 0
-879 -927 0
-879 -928 0
-879 -929 0
-879 -930 0
-879 -931 0
-879 -932 0
-879 -933 0
-879 -934 0
-879 -935 0
-879 -936 0
-879 -937 0
-880 -881 0
-880 -882 0
-880 -883 0
-880 -884 0
-880 -885 0
-880 -886 0
-880 -887 0
-880 -888 0
-880 -889 0
-880 -890 0
-880 -891 0
-880 -892 0
-880 -893 0
-880 -894 0
-880 -895 0
-880 -896 0
-880 -897 0
-880 -898 0
-880 -899 0
-880 -900 0
-880 -901 0
-880 -902 0
-880 -903 0
-880 -904 0
-880 -905 0
-880 -906 0
-880 -907 0
-880 -908 0
-880 -909 0
-880 -910 0
-880 -911 0
-880 -912 0
-880 -913 0
-880 -914 0
-880 -915 0
-880 -916 0
-880 -917 0
-880 -918 0
-880 -919 0
-880 -920 0
-880 -921 0
-880 -922 0
-880 -923 0
-880 -924 0
-880 -925 0
-880 -926 0
-880 -927 0
-880 -928 0
-880 -929 0
-880 -930 0
-880 -931 0
-880 -932 0
-880 -933 0
-880 -934 0
-880 -935 0
-880 -936 0
-880 -937 0
-881 -882 0
-881 -883 0
-881 -884 0
-881 -885 0
-881 -886 0
-881 -887 0
-881 -888 0
-881 -889 0
-881 -890 0
-881 -891 0
-881 -892 0
-881 -893 0
-881 -894 0
-881 -895 0
-881 -896 0
-881 -897 0
-881 -898 0
-881 -899 0
-881 -900 0
-881 -901 0
-881 -902 0
-881 -903 0
-881 -904 0
-881 -905 0
-881 -906 0
-881 -907 0
-881 -908 0
-881 -909 0
-881 -910 0
-881 -911 0
-881 -912 0
-881 -913 0
-881 -914 0
-881 -915 0
-881 -916 0
-881 -917 0
-881 -918 0
-881 -919 0
-881 -920 0
-881 -921 0
-881 -922 0
-881 -923 0
-881 -924 0
-881 -925 0
-881 -926 0
-881 -927 0
-881 -928 0
-881 -929 0
-881 -930 0
-881 -931 0
-881 -932 0
-881 -933 0
-881 -934 0
-881 -935 0
-881 -936 0
-881 -937 0
-882 -883 0
-882 -884 0
-882 -885 0
-882 -886 0
-882 -887 0
-882 -888 0
-882 -889 0
-882 -890 0
-882 -891 0
-882 -892 0
-882 -893 0
-882 -894 0
-882 -895 0
-882 -896 0
-882 -897 0
-882 -898 0
-882 -899 0
-882 -900 0
-882 -901 0
-882 -902 0
-882 -903 0
-882 -904 0
-882 -905 0
-882 -906 0
-882 -907 0
-882 -908 0
-882 -909 0
-882 -910 0
-882 -911 0
-882 -912 0
-882 -913 0
-882 -914 0
-882 -915 0
-882 -916 0
-882 -917 0
-882 -918 0
-882 -919 0
-882 -920 0
-882 -921 0
-882 -922 0
-882 -923 0
-882 -924 0
-882 -925 0
-882 -926 0
-882 -927 0
-882 -928 0
-882 -929 0
-882 -930 0
-882 -931 0
-882 -932 0
-882 -933 0
-882 -934 0
-882 -935 0
-882 -936 0
-882 -937 0
-883 -884 0
-883 -885 0
-883 -886 0
-883 -887 0
-883 -888 0
-883 -889 0
-883 -890 0
-883 -891 0
-883 -892 0
-883 -893 0
-883 -894 0
-883 -895 0
-883 -896 0
-883 -897 0
-883 -898 0
-883 -899 0
-883 -900 0
-883 -901 0
-883 -902 0
-883 -903 0
-883 -904 0
-883 -905 0
-883 -906 0
-883 -907 0
-883 -908 0
-883 -909 0
-883 -910 0
-883 -911 0
-883 -912 0
-883 -913 0
-883 -914 0
-883 -915 0
-883 -916 0
-883 -917 0
-883 -918 0
-883 -919 0
-883 -920 0
-883 -921 0
-883 -922 0
-883 -923 0
-883 -924 0
-883 -925 0
-883 -926 0
-883 -927 0
-883 -928 0
-883 -929 0
-883 -930 0
-883 -931 0
-883 -932 0
-883 -933 0
-883 -934 0
-883 -935 0
-883 -936 0
-883 -937 0
-884 -885 0
-884 -886 0
-884 -887 0
-884 -888 0
-884 -889 0
-884 -890 0
-884 -891 0
-884 -892 0
-884 -893 0
-884 -894 0
-884 -895 0
-884 -896 0
-884 -897 0
-884 -898 0
-884 -899 0
-884 -900 0
-884 -901 0
-884 -902 0
-884 -903 0
-884 -904 0
-884 -905 0
-884 -906 0
-884 -907 0
-884 -908 0
-884 -909 0
-884 -910 0
-884 -911 0
-884 -912 0
-884 -913 0
-884 -914 0
-884 -915 0
-884 -916 0
-884 -917 0
-884 -918 0
-884 -919 0
-884 -920 0
-884 -921 0
-884 -922 0
-884 -923 0
-884 -924 0
-884 -925 0
-884 -926 0
-884 -927 0
-884 -928 0
-884 -929 0
-884 -930 0
-884 -931 0
-884 -932 0
-884 -933 0
-884 -934 0
-884 -935 0
-884 -936 0
-884 -937 0
-885 -886 0
-885 -887 0
-885 -888 0
-885 -889 0
-885 -890 0
-885 -891 0
-885 -892 0
-885 -893 0
-885 -894 0
-885 -895 0
-885 -896 0
-885 -897 0
-885 -898 0
-885 -899 0
-885 -900 0
-885 -901 0
-885 -902 0
-885 -903 0
-885 -904 0
-885 -905 0
-885 -906 0
-885 -907 0
-885 -908 0
-885 -909 0
-885 -910 0
-885 -911 0
-885 -912 0
-885 -913 0
-885 -914 0
-885 -915 0
-885 -916 0
-885 -917 0
-885 -918 0
-885 -919 0
-885 -920 0
-885 -921 0
-885 -922 0
-885 -923 0
-885 -924 0
-885 -925 0
-885 -926 0
-885 -927 0
-885 -928 0
-885 -929 0
-885 -930 0
-885 -931 0
-885 -932 0
-885 -933 0
-885 -934 0
-885 -935 0
-885 -936 0
-885 -937 0
-886 -887 0
-886 -888 0
-886 -889 0
-886 -890 0
-886 -891 0
-886 -892 0
-886 -893 0
-886 -894 0
-886 -895 0
-886 -896 0
-886 -897 0
-886 -898 0
-886 -899 0
-886 -900 0
-886 -901 0
-886 -902 0
-886 -903 0
-886 -904 0
-886 -905 0
-886 -906 0
-886 -907 0
-886 -908 0
-886 -909 0
-886 -910 0
-886 -911 0
-886 -912 0
-886 -913 0
-886 -914 0
-886 -915 0
-886 -916 0
-886 -917 0
-886 -918 0
-886 -919 0
-886 -920 0
-886 -921 0
-886 -922 0
-886 -923 0
-886 -924 0
-886 -925 0
-886 -926 0
-886 -927 0
-886 -928 0
-886 -929 0
-886 -930 0
-886 -931 0
-886 -932 0
-886 -933 0
-886 -934 0
-886 -935 0
-886 -936 0
-886 -937 0
-887 -888 0
-887 -889 0
-887 -890 0
-887 -891 0
-887 -892 0
-887 -893 0
-887 -894 0
-887 -895 0
-887 -896 0
-887 -897 0
-887 -898 0
-887 -899 0
-887 -900 0
-887 -901 0
-887 -902 0
-887 -903 0
-887 -904 0
-887 -905 0
-887 -906 0
-887 -907 0
-887 -908 0
-887 -909 0
-887 -910 0
-887 -911 0
-887 -912 0
-887 -913 0
-887 -914 0
-887 -915 0
-887 -916 0
-887 -917 0
-887 -918 0
-887 -919 0
-887 -920 0
-887 -921 0
-887 -922 0
-887 -923 0
-887 -924 0
-887 -925 0
-887 -926 0
-887 -927 0
-887 -928 0
-887 -929 0
-887 -930 0
-887 -931 0
-887 -932 0
-887 -933 0
-887 -934 0
-887 -935 0
-887 -936 0
-887 -937 0
-888 -889 0
-888 -890 0
-888 -891 0
-888 -892 0
-888 -893 0
-888 -894 0
-888 -895 0
-888 -896 0
-888 -897 0
-888 -898 0
-888 -899 0
-888 -900 0
-888 -901 0
-888 -902 0
-888 -903 0
-888 -904 0
-888 -905 0
-888 -906 0
-888 -907 0
-888 -908 0
-888 -909 0
-888 -910 0
-888 -911 0
-888 -912 0
-888 -913 0
-888 -914 0
-888 -915 0
-888 -916 0
-888 -917 0
-888 -918 0
-888 -919 0
-888 -920 0
-888 -921 0
-888 -922 0
-888 -923 0
-888 -924 0
-888 -925 0
-888 -926 0
-888 -927 0
-888 -928 0
-888 -929 0
-888 -930 0
-888 -931 0
-888 -932 0
-888 -933 0
-888 -934 0
-888 -935 0
-888 -936 0
-888 -937 0
-889 -890 0
-889 -891 0
-889 -892 0
-889 -893 0
-889 -894 0
-889 -895 0
-889 -896 0
-889 -897 0
-889 -898 0
-889 -899 0
-889 -900 0
-889 -901 0
-889 -902 0
-889 -903 0
-889 -904 0
-889 -905 0
-889 -906 0
-889 -907 0
-889 -908 0
-889 -909 0
-889 -910 0
-889 -911 0
-889 -912 0
-889 -913 0
-889 -914 0
-889 -915 0
-889 -916 0
-889 -917 0
-889 -918 0
-889 -919 0
-889 -920 0
-889 -921 0
-889 -922 0
-889 -923 0
-889 -924 0
-889 -925 0
-889 -926 0
-889 -927 0
-889 -928 0
-889 -929 0
-889 -930 0
-889 -931 0
-889 -932 0
-889 -933 0
-889 -934 0
-889 -935 0
-889 -936 0
-889 -937 0
-890 -891 0
-890 -892 0
-890 -893 0
-890 -894 0
-890 -895 0
-890 -896 0
-890 -897 0
-890 -898 0
-890 -899 0
-890 -900 0
-890 -901 0
-890 -902 0
-890 -903 0
-890 -904 0
-890 -905 0
-890 -906 0
-890 -907 0
-890 -908 0
-890 -909 0
-890 -910 0
-890 -911 0
-890 -912 0
-890 -913 0
-890 -914 0
-890 -915 0
-890 -916 0
-890 -917 0
-890 -918 0
-890 -919 0
-890 -920 0
-890 -921 0
-890 -922 0
-890 -923 0
-890 -924 0
-890 -925 0
-890 -926 0
-890 -927 0
-890 -928 0
-890 -929 0
-890 -930 0
-890 -931 0
-890 -932 0
-890 -933 0
-890 -934 0
-890 -935 0
-890 -936 0
-890 -937 0
-891 -892 0
-891 -893 0
-891 -894 0
-891 -895 0
-891 -896 0
-891 -897 0
-891 -898 0
-891 -899 0
-891 -900 0
-891 -901 0
-891 -902 0
-891 -903 0
-891 -904 0
-891 -905 0
-891 -906 0
-891 -907 0
-891 -908 0
-891 -909 0
-891 -910 0
-891 -911 0
-891 -912 0
-891 -913 0
-891 -914 0
-891 -915 0
-891 -916 0
-891 -917 0
-891 -918 0
-891 -919 0
-891 -920 0
-891 -921 0
-891 -922 0
-891 -923 0
-891 -924 0
-891 -925 0
-891 -926 0
-891 -927 0
-891 -928 0
-891 -929 0
-891 -930 0
-891 -931 0
-891 -932 0
-891 -933 0
-891 -934 0
-891 -935 0
-891 -936 0
-891 -937 0
-892 -893 0
-892 -894 0
-892 -895 0
-892 -896 0
-892 -897 0
-892 -898 0
-892 -899 0
-892 -900 0
-892 -901 0
-892 -902 0
-892 -903 0
-892 -904 0
-892 -905 0
-892 -906 0
-892 -907 0
-892 -908 0
-892 -909 0
-892 -910 0
-892 -911 0
-892 -912 0
-892 -913 0
-892 -914 0
-892 -915 0
-892 -916 0
-892 -917 0
-892 -918 0
-892 -919 0
-892 -920 0
-892 -921 0
-892 -922 0
-892 -923 0
-892 -924 0
-892 -925 0
-892 -926 0
-892 -927 0
-892 -928 0
-892 -929 0
-892 -930 0
-892 -931 0
-892 -932 0
-892 -933 0
-892 -934 0
-892 -935 0
-892 -936 0
-892 -937 0
-893 -894 0
-893 -895 0
-893 -896 0
-893 -897 0
-893 -898 0
-893 -899 0
-893 -900 0
-893 -901 0
-893 -902 0
-893 -903 0
-893 -904 0
-893 -905 0
-893 -906 0
-893 -907 0
-893 -908 0
-893 -909 0
-893 -910 0
-893 -911 0
-893 -912 0
-893 -913 0
-893 -914 0
-893 -915 0
-893 -916 0
-893 -917 0
-893 -918 0
-893 -919 0
-893 -920 0
-893 -921 0
-893 -922 0
-893 -923 0
-893 -924 0
-893 -925 0
-893 -926 0
-893 -927 0
-893 -928 0
-893 -929 0
-893 -930 0
-893 -931 0
-893 -932 0
-893 -933 0
-893 -934 0
-893 -935 0
-893 -936 0
-893 -937 0
-894 -895 0
-894 -896 0
-894 -897 0
-894 -898 0
-894 -899 0
-894 -900 0
-894 -901 0
-894 -902 0
-894 -903 0
-894 -904 0
-894 -905 0
-894 -906 0
-894 -907 0
-894 -908 0
-894 -909 0
-894 -910 0
-894 -911 0
-894 -912 0
-894 -913 0
-894 -914 0
-894 -915 0
-894 -916 0
-894 -917 0
-894 -918 0
-894 -919 0
-894 -920 0
-894 -921 0
-894 -922 0
-894 -923 0
-894 -924 0
-894 -925 0
-894 -926 0
-894 -927 0
-894 -928 0
-894 -929 0
-894 -930 0
-894 -931 0
-894 -932 0
-894 -933 0
-894 -934 0
-894 -935 0
-894 -936 0
-894 -937 0
-895 -896 0
-895 -897 0
-895 -898 0
-895 -899 0
-895 -900 0
-895 -901 0
-895 -902 0
-895 -903 0
-895 -904 0
-895 -905 0
-895 -906 0
-895 -907 0
-895 -908 0
-895 -909 0
-895 -910 0
-895 -911 0
-895 -912 0
-895 -913 0
-895 -914 0
-895 -915 0
-895 -916 0
-895 -917 0
-895 -918 0
-895 -919 0
-895 -920 0
-895 -921 0
-895 -922 0
-895 -923 0
-895 -924 0
-895 -925 0
-895 -926 0
-895 -927 0
-895 -928 0
-895 -929 0
-895 -930 0
-895 -931 0
-895 -932 0
-895 -933 0
-895 -934 0
-895 -935 0
-895 -936 0
-895 -937 0
-896 -897 0
-896 -898 0
-896 -899 0
-896 -900 0
-896 -901 0
-896 -902 0
-896 -903 0
-896 -904 0
-896 -905 0
-896 -906 0
-896 -907 0
-896 -908 0
-896 -909 0
-896 -910 0
-896 -911 0
-896 -912 0
-896 -913 0
-896 -914 0
-896 -915 0
-896 -916 0
-896 -917 0
-896 -918 0
-896 -919 0
-896 -920 0
-896 -921 0
-896 -922 0
-896 -923 0
-896 -924 0
-896 -925 0
-896 -926 0
-896 -927 0
-896 -928 0
-896 -929 0
-896 -930 0
-896 -931 0
-896 -932 0
-896 -933 0
-896 -934 0
-896 -935 0
-896 -936 0
-896 -937 0
-897 -898 0
-897 -899 0
-897 -900 0
-897 -901 0
-897 -902 0
-897 -903 0
-897 -904 0
-897 -905 0
-897 -906 0
-897 -907 0
-897 -908 0
-897 -909 0
-897 -910 0
-897 -911 0
-897 -912 0
-897 -913 0
-897 -914 0
-897 -915 0
-897 -916 0
-897 -917 0
-897 -918 0
-897 -919 0
-897 -920 0
-897 -921 0
-897 -922 0
-897 -923 0
-897 -924 0
-897 -925 0
-897 -926 0
-897 -927 0
-897 -928 0
-897 -929 0
-897 -930 0
-897 -931 0
-897 -932 0
-897 -933 0
-897 -934 0
-897 -935 0
-897 -936 0
-897 -937 0
-898 -899 0
-898 -900 0
-898 -901 0
-898 -902 0
-898 -903 0
-898 -904 0
-898 -905 0
-898 -906 0
-898 -907 0
-898 -908 0
-898 -909 0
-898 -910 0
-898 -911 0
-898 -912 0
-898 -913 0
-898 -914 0
-898 -915 0
-898 -916 0
-898 -917 0
-898 -918 0
-898 -919 0
-898 -920 0
-898 -921 0
-898 -922 0
-898 -923 0
-898 -924 0
-898 -925 0
-898 -926 0
-898 -927 0
-898 -928 0
-898 -929 0
-898 -930 0
-898 -931 0
-898 -932 0
-898 -933 0
-898 -934 0
-898 -935 0
-898 -936 0
-898 -937 0
-899 -900 0
-899 -901 0
-899 -902 0
-899 -903 0
-899 -904 0
-899 -905 0
-899 -906 0
-899 -907 0
-899 -908 0
-899 -909 0
-899 -910 0
-899 -911 0
-899 -912 0
-899 -913 0
-899 -914 0
-899 -915 0
-899 -916 0
-899 -917 0
-899 -918 0
-899 -919 0
-899 -920 0
-899 -921 0
-899 -922 0
-899 -923 0
-899 -924 0
-899 -925 0
-899 -926 0
-899 -927 0
-899 -928 0
-899 -929 0
-899 -930 0
-899 -931 0
-899 -932 0
-899 -933 0
-899 -934 0
-899 -935 0
-899 -936 0
-899 -937 0
-900 -901 0
-900 -902 0
-900 -903 0
-900 -904 0
-900 -905 0
-900 -906 0
-900 -907 0
-900 -908 0
-900 -909 0
-900 -910 0
-900 -911 0
-900 -912 0
-900 -913 0
-900 -914 0
-900 -915 0
-900 -916 0
-900 -917 0
-900 -918 0
-900 -919 0
-900 -920 0
-900 -921 0
-900 -922 0
-900 -923 0
-900 -924 0
-900 -925 0
-900 -926 0
-900 -927 0
-900 -928 0
-900 -929 0
-900 -930 0
-900 -931 0
-900 -932 0
-900 -933 0
-900 -934 0
-900 -935 0
-900 -936 0
-900 -937 0
-901 -902 0
-901 -903 0
-901 -904 0
-901 -905 0
-901 -906 0
-901 -907 0
-901 -908 0
-901 -909 0
-901 -910 0
-901 -911 0
-901 -912 0
-901 -913 0
-901 -914 0
-901 -915 0
-901 -916 0
-901 -917 0
-901 -918 0
-901 -919 0
-901 -920 0
-901 -921 0
-901 -922 0
-901 -923 0
-901 -924 0
-901 -925 0
-901 -926 0
-901 -927 0
-901 -928 0
-901 -929 0
-901 -930 0
-901 -931 0
-901 -932 0
-901 -933 0
-901 -934 0
-901 -935 0
-901 -936 0
-901 -937 0
-902 -903 0
-902 -904 0
-902 -905 0
-902 -906 0
-902 -907 0
-902 -908 0
-902 -909 0
-902 -910 0
-902 -911 0
-902 -912 0
-902 -913 0
-902 -914 0
-902 -915 0
-902 -916 0
-902 -917 0
-902 -918 0
-902 -919 0
-902 -920 0
-902 -921 0
-902 -922 0
-902 -923 0
-902 -924 0
-902 -925 0
-902 -926 0
-902 -927 0
-902 -928 0
-902 -929 0
-902 -930 0
-902 -931 0
-902 -932 0
-902 -933 0
-902 -934 0
-902 -935 0
-902 -936 0
-902 -937 0
-903 -904 0
-903 -905 0
-903 -906 0
-903 -907 0
-903 -908 0
-903 -909 0
-903 -910 0
-903 -911 0
-903 -912 0
-903 -913 0
-903 -914 0
-903 -915 0
-903 -916 0
-903 -917 0
-903 -918 0
-903 -919 0
-903 -920 0
-903 -921 0
-903 -922 0
-903 -923 0
-903 -924 0
-903 -925 0
-903 -926 0
-903 -927 0
-903 -928 0
-903 -929 0
-903 -930 0
-903 -931 0
-903 -932 0
-903 -933 0
-903 -934 0
-903 -935 0
-903 -936 0
-903 -937 0
-904 -905 0
-904 -906 0
-904 -907 0
-904 -908 0
-904 -909 0
-904 -910 0
-904 -911 0
-904 -912 0
-904 -913 0
-904 -914 0
-904 -915 0
-904 -916 0
-904 -917 0
-904 -918 0
-904 -919 0
-904 -920 0
-904 -921 0
-904 -922 0
-904 -923 0
-904 -924 0
-904 -925 0
-904 -926 0
-904 -927 0
-904 -928 0
-904 -929 0
-904 -930 0
-904 -931 0
-904 -932 0
-904 -933 0
-904 -934 0
-904 -935 0
-904 -936 0
-904 -937 0
-905 -906 0
-905 -907 0
-905 -908 0
-905 -909 0
-905 -910 0
-905 -911 0
-905 -912 0
-905 -913 0
-905 -914 0
-905 -915 0
-905 -916 0
-905 -917 0
-905 -918 0
-905 -919 0
-905 -920 0
-905 -921 0
-905 -922 0
-905 -923 0
-905 -924 0
-905 -925 0
-905 -926 0
-905 -927 0
-905 -928 0
-905 -929 0
-905 -930 0
-905 -931 0
-905 -932 0
-905 -933 0
-905 -934 0
-905 -935 0
-905 -936 0
-905 -937 0
-906 -907 0
-906 -908 0
-906 -909 0
-906 -910 0
-906 -911 0
-906 -912 0
-906 -913 0
-906 -914 0
-906 -915 0
-906 -916 0
-906 -917 0
-906 -918 0
-906 -919 0
-906 -920 0
-906 -921 0
-906 -922 0
-906 -923 0
-906 -924 0
-906 -925 0
-906 -926 0
-906 -927 0
-906 -928 0
-906 -929 0
-906 -930 0
-906 -931 0
-906 -932 0
-906 -933 0
-906 -934 0
-906 -935 0
-906 -936 0
-906 -937 0
-907 -908 0
-907 -909 0
-907 -910 0
-907 -911 0
-907 -912 0
-907 -913 0
-907 -914 0
-907 -915 0
-907 -916 0
-907 -917 0
-907 -918 0
-907 -919 0
-907 -920 0
-907 -921 0
-907 -922 0
-907 -923 0
-907 -924 0
-907 -925 0
-907 -926 0
-907 -927 0
-907 -928 0
-907 -929 0
-907 -930 0
-907 -931 0
-907 -932 0
-907 -933 0
-907 -934 0
-907 -935 0
-907 -936 0
-907 -937 0
-908 -909 0
-908 -910 0
-908 -911 0
-908 -912 0
-908 -913 0
-908 -914 0
-908 -915 0
-908 -916 0
-908 -917 0
-908 -918 0
-908 -919 0
-908 -920 0
-908 -921 0
-908 -922 0
-908 -923 0
-908 -924 0
-908 -925 0
-908 -926 0
-908 -927 0
-908 -928 0
-908 -929 0
-908 -930 0
-908 -931 0
-908 -932 0
-908 -933 0
-908 -934 0
-908 -935 0
-908 -936 0
-908 -937 0
-909 -910 0
-909 -911 0
-909 -912 0
-909 -913 0
-909 -914 0
-909 -915 0
-909 -916 0
-909 -917 0
-909 -918 0
-909 -919 0
-909 -920 0
-909 -921 0
-909 -922 0
-909 -923 0
-909 -924 0
-909 -925 0
-909 -926 0
-909 -927 0
-909 -928 0
-909 -929 0
-909 -930 0
-909 -931 0
-909 -932 0
-909 -933 0
-909 -934 0
-909 -935 0
-909 -936 0
-909 -937 0
-910 -911 0
-910 -912 0
-910 -913 0
-910 -914 0
-910 -915 0
-910 -916 0
-910 -917 0
-910 -918 0
-910 -919 0
-910 -920 0
-910 -921 0
-910 -922 0
-910 -923 0
-910 -924 0
-910 -925 0
-910 -926 0
-910 -927 0
-910 -928 0
-910 -929 0
-910 -930 0
-910 -931 0
-910 -932 0
-910 -933 0
-910 -934 0
-910 -935 0
-910 -936 0
-910 -937 0
-911 -912 0
-911 -913 0
-911 -914 0
-911 -915 0
-911 -916 0
-911 -917 0
-911 -918 0
-911 -919 0
-911 -920 0
-911 -921 0
-911 -922 0
-911 -923 0
-911 -924 0
-911 -925 0
-911 -926 0
-911 -927 0
-911 -928 0
-911 -929 0
-911 -930 0
-911 -931 0
-911 -932 0
-911 -933 0
-911 -934 0
-911 -935 0
-911 -936 0
-911 -937 0
-912 -913 0
-912 -914 0
-912 -915 0
-912 -916 0
-912 -917 0
-912 -918 0
-912 -919 0
-912 -920 0
-912 -921 0
-912 -922 0
-912 -923 0
-912 -924 0
-912 -925 0
-912 -926 0
-912 -927 0
-912 -928 0
-912 -929 0
-912 -930 0
-912 -931 0
-912 -932 0
-912 -933 0
-912 -934 0
-912 -935 0
-912 -936 0
-912 -937 0
-913 -914 0
-913 -915 0
-913 -916 0
-913 -917 0
-913 -918 0
-913 -919 0
-913 -920 0
-913 -921 0
-913 -922 0
-913 -923 0
-913 -924 0
-913 -925 0
-913 -926 0
-913 -927 0
-913 -928 0
-913 -929 0
-913 -930 0
-913 -931 0
-913 -932 0
-913 -933 0
-913 -934 0
-913 -935 0
-913 -936 0
-913 -937 0
-914 -915 0
-914 -916 0
-914 -917 0
-914 -918 0
-914 -919 0
-914 -920 0
-914 -921 0
-914 -922 0
-914 -923 0
-914 -924 0
-914 -925 0
-914 -926 0
-914 -927 0
-914 -928 0
-914 -929 0
-914 -930 0
-914 -931 0
-914 -932 0
-914 -933 0
-914 -934 0
-914 -935 0
-914 -936 0
-914 -937 0
-915 -916 0
-915 -917 0
-915 -918 0
-915 -919 0
-915 -920 0
-915 -921 0
-915 -922 0
-915 -923 0
-915 -924 0
-915 -925 0
-915 -926 0
-915 -927 0
-915 -928 0
-915 -929 0
-915 -930 0
-915 -931 0
-915 -932 0
-915 -933 0
-915 -934 0
-915 -935 0
-915 -936 0
-915 -937 0
-916 -917 0
-916 -918 0
-916 -919 0
-916 -920 0
-916 -921 0
-916 -922 0
-916 -923 0
-916 -924 0
-916 -925 0
-916 -926 0
-916 -927 0
-916 -928 0
-916 -929 0
-916 -930 0
-916 -931 0
-916 -932 0
-916 -933 0
-916 -934 0
-916 -935 0
-916 -936 0
-916 -937 0
-917 -918 0
-917 -919 0
-917 -920 0
-917 -921 0
-917 -922 0
-917 -923 0
-917 -924 0
-917 -925 0
-917 -926 0
-917 -927 0
-917 -928 0
-917 -929 0
-917 -930 0
-917 -931 0
-917 -932 0
-917 -933 0
-917 -934 0
-917 -935 0
-917 -936 0
-917 -937 0
-918 -919 0
-918 -920 0
-918 -921 0
-918 -922 0
-918 -923 0
-918 -924 0
-918 -925 0
-918 -926 0
-918 -927 0
-918 -928 0
-918 -929 0
-918 -930 0
-918 -931 0
-918 -932 0
-918 -933 0
-918 -934 0
-918 -935 0
-918 -936 0
-918 -937 0
-919 -920 0
-919 -921 0
-919 -922 0
-919 -923 0
-919 -924 0
-919 -925 0
-919 -926 0
-919 -927 0
-919 -928 0
-919 -929 0
-919 -930 0
-919 -931 0
-919 -932 0
-919 -933 0
-919 -934 0
-919 -935 0
-919 -936 0
-919 -937 0
-920 -921 0
-920 -922 0
-920 -923 0
-920 -924 0
-920 -925 0
-920 -926 0
-920 -927 0
-920 -928 0
-920 -929 0
-920 -930 0
-920 -931 0
-920 -932 0
-920 -933 0
-920 -934 0
-920 -935 0
-920 -936 0
-920 -937 0
-921 -922 0
-921 -923 0
-921 -924 0
-921 -925 0
-921 -926 0
-921 -927 0
-921 -928 0
-921 -929 0
-921 -930 0
-921 -931 0
-921 -932 0
-921 -933 0
-921 -934 0
-921 -935 0
-921 -936 0
-921 -937 0
-922 -923 0
-922 -924 0
-922 -925 0
-922 -926 0
-922 -927 0
-922 -928 0
-922 -929 0
-922 -930 0
-922 -931 0
-922 -932 0
-922 -933 0
-922 -934 0
-922 -935 0
-922 -936 0
-922 -937 0
-923 -924 0
-923 -925 0
-923 -926 0
-923 -927 0
-923 -928 0
-923 -929 0
-923 -930 0
-923 -931 0
-923 -932 0
-923 -933 0
-923 -934 0
-923 -935 0
-923 -936 0
-923 -937 0
-924 -925 0
-924 -926 0
-924 -927 0
-924 -928 0
-924 -929 0
-924 -930 0
-924 -931 0
-924 -932 0
-924 -933 0
-924 -934 0
-924 -935 0
-924 -936 0
-924 -937 0
-925 -926 0
-925 -927 0
-925 -928 0
-925 -929 0
-925 -930 0
-925 -931 0
-925 -932 0
-925 -933 0
-925 -934 0
-925 -935 0
-925 -936 0
-925 -937 0
-926 -927 0
-926 -928 0
-926 -929 0
-926 -930 0
-926 -931 0
-926 -932 0
-926 -933 0
-926 -934 0
-926 -935 0
-926 -936 0
-926 -937 0
-927 -928 0
-927 -929 0
-927 -930 0
-927 -931 0
-927 -932 0
-927 -933 0
-927 -934 0
-927 -935 0
-927 -936 0
-927 -937 0
-928 -929 0
-928 -930 0
-928 -931 0
-928 -932 0
-928 -933 0
-928 -934 0
-928 -935 0
-928 -936 0
-928 -937 0
-929 -930 0
-929 -931 0
-929 -932 0
-929 -933 0
-929 -934 0
-929 -935 0
-929 -936 0
-929 -937 0
-930 -931 0
-930 -932 0
-930 -933 0
-930 -934 0
-930 -935 0
-930 -936 0
-930 -937 0
-931 -932 0
-931 -933 0
-931 -934 0
-931 -935 0
-931 -936 0
-931 -937 0
-932 -933 0
-932 -934 0
-932 -935 0
-932 -936 0
-932 -937 0
-933 -934 0
-933 -935 0
-933 -936 0
-933 -937 0
-934 -935 0
-934 -936 0
-934 -937 0
-935 -936 0
-935 -937 0
-936 -937 0
-938 198 0
-938 -64 -158 -155 0
-938 -64 -159 -156 0
-938 -64 -160 -157 0
-938 70 0
-938 -70 -158 1105 500 0
-938 -70 -159 1105 506 0
-938 -70 -160 1105 512 0
-938 -158 -524 0
-938 -158 -548 0
-938 -158 -572 0
-938 -158 -530 0
-938 -158 -554 0
-938 -158 -578 0
-938 -158 -536 0
-938 -158 -560 0
-938 -158 -584 0
-938 -159 -530 0
-938 -159 -554 0
-938 -159 -578 0
-938 -159 -536 0
-938 -159 -560 0
-938 -159 -584 0
-938 -160 -536 0
-938 -160 -560 0
-938 -160 -584 0
-938 -161 0
-938 85 0
-938 -158 171 0
-938 -159 172 0
-938 -160 173 0
-938 -203 0
-939 198 0
-939 -65 -158 -155 0
-939 -65 -159 -156 0
-939 -65 -160 -157 0
-939 71 0
-939 -71 -158 1106 501 0
-939 -71 -159 1106 507 0
-939 -71 -160 1106 513 0
-939 -158 -525 0
-939 -158 -549 0
-939 -158 -573 0
-939 -158 -531 0
-939 -158 -555 0
-939 -158 -579 0
-939 -158 -537 0
-939 -158 -561 0
-939 -158 -585 0
-939 -159 -531 0
-939 -159 -555 0
-939 -159 -579 0
-939 -159 -537 0
-939 -159 -561 0
-939 -159 -585 0
-939 -160 -537 0
-939 -160 -561 0
-939 -160 -585 0
-939 -161 0
-939 86 0
-939 -158 171 0
-939 -159 172 0
-939 -160 173 0
-939 -203 0
-940 198 0
-940 -66 -158 -155 0
-940 -66 -159 -156 0
-940 -66 -160 -157 0
-940 72 0
-940 -72 -158 1107 502 0
-940 -72 -159 1107 508 0
-940 -72 -160 1107 514 0
-940 -158 -526 0
-940 -158 -550 0
-940 -158 -574 0
-940 -158 -532 0
-940 -158 -556 0
-940 -158 -580 0
-940 -158 -538 0
-940 -158 -562 0
-940 -158 -586 0
-940 -159 -532 0
-940 -159 -556 0
-940 -159 -580 0
-940 -159 -538 0
-940 -159 -562 0
-940 -159 -586 0
-940 -160 -538 0
-940 -160 -562 0
-940 -160 -586 0
-940 -161 0
-940 87 0
-940 -158 171 0
-940 -159 172 0
-940 -160 173 0
-940 -203 0
-941 198 0
-941 -67 -158 -155 0
-941 -67 -159 -156 0
-941 -67 -160 -157 0
-941 73 0
-941 -73 -158 1108 503 0
-941 -73 -159 1108 509 0
-941 -73 -160 1108 515 0
-941 -158 -527 0
-941 -158 -551 0
-941 -158 -575 0
-941 -158 -533 0
-941 -158 -557 0
-941 -158 -581 0
-941 -158 -539 0
-941 -158 -563 0
-941 -158 -587 0
-941 -159 -533 0
-941 -159 -557 0
-941 -159 -581 0
-941 -159 -539 0
-941 -159 -563 0
-941 -159 -587 0
-941 -160 -539 0
-941 -160 -563 0
-941 -160 -587 0
-941 -161 0
-941 88 0
-941 -158 171 0
-941 -159 172 0
-941 -160 173 0
-941 -203 0
-942 198 0
-942 -68 -158 -155 0
-942 -68 -159 -156 0
-942 -68 -160 -157 0
-942 74 0
-942 -74 -158 1109 504 0
-942 -74 -159 1109 510 0
-942 -74 -160 1109 516 0
-942 -158 -528 0
-942 -158 -552 0
-942 -158 -576 0
-942 -158 -534 0
-942 -158 -558 0
-942 -158 -582 0
-942 -158 -540 0
-942 -158 -564 0
-942 -158 -588 0
-942 -159 -534 0
-942 -159 -558 0
-942 -159 -582 0
-942 -159 -540 0
-942 -159 -564 0
-942 -159 -588 0
-942 -160 -540 0
-942 -160 -564 0
-942 -160 -588 0
-942 -161 0
-942 89 0
-942 -158 171 0
-942 -159 172 0
-942 -160 173 0
-942 -203 0
-943 198 0
-943 -69 -158 -155 0
-943 -69 -159 -156 0
-943 -69 -160 -157 0
-943 75 0
-943 -75 -158 1110 505 0
-943 -75 -159 1110 511 0
-943 -75 -160 1110 517 0
-943 -158 -529 0
-943 -158 -553 0
-943 -158 -577 0
-943 -158 -535 0
-943 -158 -559 0
-943 -158 -583 0
-943 -158 -541 0
-943 -158 -565 0
-943 -158 -589 0
-943 -159 -535 0
-943 -159 -559 0
-943 -159 -583 0
-943 -159 -541 0
-943 -159 -565 0
-943 -159 -589 0
-943 -160 -541 0
-943 -160 -565 0
-943 -160 -589 0
-943 -161 0
-943 90 0
-943 -158 171 0
-943 -159 172 0
-943 -160 173 0
-943 -203 0
-944 198 0
-944 -64 -162 -155 0
-944 -64 -163 -156 0
-944 -64 -164 -157 0
-944 76 0
-944 -76 -162 1111 500 0
-944 -76 -163 1111 506 0
-944 -76 -164 1111 512 0
-944 -162 -524 0
-944 -162 -548 0
-944 -162 -572 0
-944 -162 -530 0
-944 -162 -554 0
-944 -162 -578 0
-944 -162 -536 0
-944 -162 -560 0
-944 -162 -584 0
-944 -163 -530 0
-944 -163 -554 0
-944 -163 -578 0
-944 -163 -536 0
-944 -163 -560 0
-944 -163 -584 0
-944 -164 -536 0
-944 -164 -560 0
-944 -164 -584 0
-944 -165 0
-944 85 0
-944 -162 171 0
-944 -163 172 0
-944 -164 173 0
-944 -204 0
-945 198 0
-945 -65 -162 -155 0
-945 -65 -163 -156 0
-945 -65 -164 -157 0
-945 76 77 0
-945 -76 -162 1112 501 0
-945 -76 -163 1112 507 0
-945 -76 -164 1112 513 0
-945 -77 -162 1112 501 0
-945 -77 -163 1112 507 0
-945 -77 -164 1112 513 0
-945 -162 -525 0
-945 -162 -549 0
-945 -162 -573 0
-945 -162 -531 0
-945 -162 -555 0
-945 -162 -579 0
-945 -162 -537 0
-945 -162 -561 0
-945 -162 -585 0
-945 -163 -531 0
-945 -163 -555 0
-945 -163 -579 0
-945 -163 -537 0
-945 -163 -561 0
-945 -163 -585 0
-945 -164 -537 0
-945 -164 -561 0
-945 -164 -585 0
-945 -165 0
-945 86 0
-945 -162 171 0
-945 -163 172 0
-945 -164 173 0
-945 -204 0
-946 198 0
-946 -66 -162 -155 0
-946 -66 -163 -156 0
-946 -66 -164 -157 0
-946 77 78 0
-946 -77 -162 1113 502 0
-946 -77 -163 1113 508 0
-946 -77 -164 1113 514 0
-946 -78 -162 1113 502 0
-946 -78 -163 1113 508 0
-946 -78 -164 1113 514 0
-946 -162 -526 0
-946 -162 -550 0
-946 -162 -574 0
-946 -162 -532 0
-946 -162 -556 0
-946 -162 -580 0
-946 -162 -538 0
-946 -162 -562 0
-946 -162 -586 0
-946 -163 -532 0
-946 -163 -556 0
-946 -163 -580 0
-946 -163 -538 0
-946 -163 -562 0
-946 -163 -586 0
-946 -164 -538 0
-946 -164 -562 0
-946 -164 -586 0
-946 -165 0
-946 87 0
-946 -162 171 0
-946 -163 172 0
-946 -164 173 0
-946 -204 0
-947 198 0
-947 -67 -162 -155 0
-947 -67 -163 -156 0
-947 -67 -164 -157 0
-947 78 79 0
-947 -78 -162 1114 503 0
-947 -78 -163 1114 509 0
-947 -78 -164 1114 515 0
-947 -79 -162 1114 503 0
-947 -79 -163 1114 509 0
-947 -79 -164 1114 515 0
-947 -162 -527 0
-947 -162 -551 0
-947 -162 -575 0
-947 -162 -533 0
-947 -162 -557 0
-947 -162 -581 0
-947 -162 -539 0
-947 -162 -563 0
-947 -162 -587 0
-947 -163 -533 0
-947 -163 -557 0
-947 -163 -581 0
-947 -163 -539 0
-947 -163 -563 0
-947 -163 -587 0
-947 -164 -539 0
-947 -164 -563 0
-947 -164 -587 0
-947 -165 0
-947 88 0
-947 -162 171 0
-947 -163 172 0
-947 -164 173 0
-947 -204 0
-948 198 0
-948 -68 -162 -155 0
-948 -68 -163 -156 0
-948 -68 -164 -157 0
-948 79 80 0
-948 -79 -162 1115 504 0
-948 -79 -163 1115 510 0
-948 -79 -164 1115 516 0
-948 -80 -162 1115 504 0
-948 -80 -163 1115 510 0
-948 -80 -164 1115 516 0
-948 -162 -528 0
-948 -162 -552 0
-948 -162 -576 0
-948 -162 -534 0
-948 -162 -558 0
-948 -162 -582 0
-948 -162 -540 0
-948 -162 -564 0
-948 -162 -588 0
-948 -163 -534 0
-948 -163 -558 0
-948 -163 -582 0
-948 -163 -540 0
-948 -163 -564 0
-948 -163 -588 0
-948 -164 -540 0
-948 -164 -564 0
-948 -164 -588 0
-948 -165 0
-948 89 0
-948 -162 171 0
-948 -163 172 0
-948 -164 173 0
-948 -204 0
-949 198 0
-949 -69 -162 -155 0
-949 -69 -163 -156 0
-949 -69 -164 -157 0
-949 80 0
-949 -80 -162 1116 505 0
-949 -80 -163 1116 511 0
-949 -80 -164 1116 517 0
-949 -162 -529 0
-949 -162 -553 0
-949 -162 -577 0
-949 -162 -535 0
-949 -162 -559 0
-949 -162 -583 0
-949 -162 -541 0
-949 -162 -565 0
-949 -162 -589 0
-949 -163 -535 0
-949 -163 -559 0
-949 -163 -583 0
-949 -163 -541 0
-949 -163 -565 0
-949 -163 -589 0
-949 -164 -541 0
-949 -164 -565 0
-949 -164 -589 0
-949 -165 0
-949 90 0
-949 -162 171 0
-949 -163 172 0
-949 -164 173 0
-949 -204 0
-950 198 0
-950 -64 -166 -155 0
-950 -64 -167 -156 0
-950 -64 -168 -157 0
-950 81 0
-950 -81 -166 1117 500 0
-950 -81 -167 1117 506 0
-950 -81 -168 1117 512 0
-950 -166 -524 0
-950 -166 -548 0
-950 -166 -572 0
-950 -166 -530 0
-950 -166 -554 0
-950 -166 -578 0
-950 -166 -536 0
-950 -166 -560 0
-950 -166 -584 0
-950 -167 -530 0
-950 -167 -554 0
-950 -167 -578 0
-950 -167 -536 0
-950 -167 -560 0
-950 -167 -584 0
-950 -168 -536 0
-950 -168 -560 0
-950 -168 -584 0
-950 -169 0
-950 85 0
-950 -166 171 0
-950 -167 172 0
-950 -168 173 0
-950 -205 0
-951 198 0
-951 -65 -166 -155 0
-951 -65 -167 -156 0
-951 -65 -168 -157 0
-951 81 82 0
-951 -81 -166 1118 501 0
-951 -81 -167 1118 507 0
-951 -81 -168 1118 513 0
-951 -82 -166 1118 501 0
-951 -82 -167 1118 507 0
-951 -82 -168 1118 513 0
-951 -166 -525 0
-951 -166 -549 0
-951 -166 -573 0
-951 -166 -531 0
-951 -166 -555 0
-951 -166 -579 0
-951 -166 -537 0
-951 -166 -561 0
-951 -166 -585 0
-951 -167 -531 0
-951 -167 -555 0
-951 -167 -579 0
-951 -167 -537 0
-951 -167 -561 0
-951 -167 -585 0
-951 -168 -537 0
-951 -168 -561 0
-951 -168 -585 0
-951 -169 0
-951 86 0
-951 -166 171 0
-951 -167 172 0
-951 -168 173 0
-951 -205 0
-952 198 0
-952 -66 -166 -155 0
-952 -66 -167 -156 0
-952 -66 -168 -157 0
-952 81 82 83 0
-952 -81 -166 1119 502 0
-952 -81 -167 1119 508 0
-952 -81 -168 1119 514 0
-952 -82 -166 1119 502 0
-952 -82 -167 1119 508 0
-952 -82 -168 1119 514 0
-952 -83 -166 1119 502 0
-952 -83 -167 1119 508 0
-952 -83 -168 1119 514 0
-952 -166 -526 0
-952 -166 -550 0
-952 -166 -574 0
-952 -166 -532 0
-952 -166 -556 0
-952 -166 -580 0
-952 -166 -538 0
-952 -166 -562 0
-952 -166 -586 0
-952 -167 -532 0
-952 -167 -556 0
-952 -167 -580 0
-952 -167 -538 0
-952 -167 -562 0
-952 -167 -586 0
-952 -168 -538 0
-952 -168 -562 0
-952 -168 -586 0
-952 -169 0
-952 87 0
-952 -166 171 0
-952 -167 172 0
-952 -168 173 0
-952 -205 0
-953 198 0
-953 -67 -166 -155 0
-953 -67 -167 -156 0
-953 -67 -168 -157 0
-953 82 83 84 0
-953 -82 -166 1120 503 0
-953 -82 -167 1120 509 0
-953 -82 -168 1120 515 0
-953 -83 -166 1120 503 0
-953 -83 -167 1120 509 0
-953 -83 -168 1120 515 0
-953 -84 -166 1120 503 0
-953 -84 -167 1120 509 0
-953 -84 -168 1120 515 0
-953 -166 -527 0
-953 -166 -551 0
-953 -166 -575 0
-953 -166 -533 0
-953 -166 -557 0
-953 -166 -581 0
-953 -166 -539 0
-953 -166 -563 0
-953 -166 -587 0
-953 -167 -533 0
-953 -167 -557 0
-953 -167 -581 0
-953 -167 -539 0
-953 -167 -563 0
-953 -167 -587 0
-953 -168 -539 0
-953 -168 -563 0
-953 -168 -587 0
-953 -169 0
-953 88 0
-953 -166 171 0
-953 -167 172 0
-953 -168 173 0
-953 -205 0
-954 198 0
-954 -68 -166 -155 0
-954 -68 -167 -156 0
-954 -68 -168 -157 0
-954 83 84 0
-954 -83 -166 1121 504 0
-954 -83 -167 1121 510 0
-954 -83 -168 1121 516 0
-954 -84 -166 1121 504 0
-954 -84 -167 1121 510 0
-954 -84 -168 1121 516 0
-954 -166 -528 0
-954 -166 -552 0
-954 -166 -576 0
-954 -166 -534 0
-954 -166 -558 0
-954 -166 -582 0
-954 -166 -540 0
-954 -166 -564 0
-954 -166 -588 0
-954 -167 -534 0
-954 -167 -558 0
-954 -167 -582 0
-954 -167 -540 0
-954 -167 -564 0
-954 -167 -588 0
-954 -168 -540 0
-954 -168 -564 0
-954 -168 -588 0
-954 -169 0
-954 89 0
-954 -166 171 0
-954 -167 172 0
-954 -168 173 0
-954 -205 0
-955 198 0
-955 -69 -166 -155 0
-955 -69 -167 -156 0
-955 -69 -168 -157 0
-955 84 0
-955 -84 -166 1122 505 0
-955 -84 -167 1122 511 0
-955 -84 -168 1122 517 0
-955 -166 -529 0
-955 -166 -553 0
-955 -166 -577 0
-955 -166 -535 0
-955 -166 -559 0
-955 -166 -583 0
-955 -166 -541 0
-955 -166 -565 0
-955 -166 -589 0
-955 -167 -535 0
-955 -167 -559 0
-955 -167 -583 0
-955 -167 -541 0
-955 -167 -565 0
-955 -167 -589 0
-955 -168 -541 0
-955 -168 -565 0
-955 -168 -589 0
-955 -169 0
-955 90 0
-955 -166 171 0
-955 -167 172 0
-955 -168 173 0
-955 -205 0
-956 198 0
-956 -64 -154 0
-956 -518 0
-956 -542 0
-956 -566 0
-956 -524 0
-956 -548 0
-956 -572 0
-956 -530 0
-956 -554 0
-956 -578 0
-956 -536 0
-956 -560 0
-956 -584 0
-956 85 0
-956 170 0
-957 198 0
-957 -65 -154 0
-957 -519 0
-957 -543 0
-957 -567 0
-957 -525 0
-957 -549 0
-957 -573 0
-957 -531 0
-957 -555 0
-957 -579 0
-957 -537 0
-957 -561 0
-957 -585 0
-957 86 0
-957 170 0
-958 198 0
-958 -66 -154 0
-958 -520 0
-958 -544 0
-958 -568 0
-958 -526 0
-958 -550 0
-958 -574 0
-958 -532 0
-958 -556 0
-958 -580 0
-958 -538 0
-958 -562 0
-958 -586 0
-958 87 0
-958 170 0
-959 198 0
-959 -67 -154 0
-959 -521 0
-959 -545 0
-959 -569 0
-959 -527 0
-959 -551 0
-959 -575 0
-959 -533 0
-959 -557 0
-959 -581 0
-959 -539 0
-959 -563 0
-959 -587 0
-959 88 0
-959 170 0
-960 198 0
-960 -68 -154 0
-960 -522 0
-960 -546 0
-960 -570 0
-960 -528 0
-960 -552 0
-960 -576 0
-960 -534 0
-960 -558 0
-960 -582 0
-960 -540 0
-960 -564 0
-960 -588 0
-960 89 0
-960 170 0
-961 198 0
-961 -69 -154 0
-961 -523 0
-961 -547 0
-961 -571 0
-961 -529 0
-961 -553 0
-961 -577 0
-961 -535 0
-961 -559 0
-961 -583 0
-961 -541 0
-961 -565 0
-961 -589 0
-961 90 0
-961 170 0
-962 199 0
-962 -70 -154 -159 0
-962 -70 -155 -160 0
-962 -70 -156 -161 0
-962 64 0
-962 -64 -154 1099 524 0
-962 -64 -155 1099 530 0
-962 -64 -156 1099 536 0
-962 -154 -500 0
-962 -154 -548 0
-962 -154 -572 0
-962 -154 -506 0
-962 -154 -554 0
-962 -154 -578 0
-962 -154 -512 0
-962 -154 -560 0
-962 -154 -584 0
-962 -155 -506 0
-962 -155 -554 0
-962 -155 -578 0
-962 -155 -512 0
-962 -155 -560 0
-962 -155 -584 0
-962 -156 -512 0
-962 -156 -560 0
-962 -156 -584 0
-962 -157 0
-962 91 0
-962 -154 175 0
-962 -155 176 0
-962 -156 177 0
-962 -202 0
-963 199 0
-963 -71 -154 -159 0
-963 -71 -155 -160 0
-963 -71 -156 -161 0
-963 65 0
-963 -65 -154 1100 525 0
-963 -65 -155 1100 531 0
-963 -65 -156 1100 537 0
-963 -154 -501 0
-963 -154 -549 0
-963 -154 -573 0
-963 -154 -507 0
-963 -154 -555 0
-963 -154 -579 0
-963 -154 -513 0
-963 -154 -561 0
-963 -154 -585 0
-963 -155 -507 0
-963 -155 -555 0
-963 -155 -579 0
-963 -155 -513 0
-963 -155 -561 0
-963 -155 -585 0
-963 -156 -513 0
-963 -156 -561 0
-963 -156 -585 0
-963 -157 0
-963 92 0
-963 -154 175 0
-963 -155 176 0
-963 -156 177 0
-963 -202 0
-964 199 0
-964 -72 -154 -159 0
-964 -72 -155 -160 0
-964 -72 -156 -161 0
-964 66 0
-964 -66 -154 1101 526 0
-964 -66 -155 1101 532 0
-964 -66 -156 1101 538 0
-964 -154 -502 0
-964 -154 -550 0
-964 -154 -574 0
-964 -154 -508 0
-964 -154 -556 0
-964 -154 -580 0
-964 -154 -514 0
-964 -154 -562 0
-964 -154 -586 0
-964 -155 -508 0
-964 -155 -556 0
-964 -155 -580 0
-964 -155 -514 0
-964 -155 -562 0
-964 -155 -586 0
-964 -156 -514 0
-964 -156 -562 0
-964 -156 -586 0
-964 -157 0
-964 93 0
-964 -154 175 0
-964 -155 176 0
-964 -156 177 0
-964 -202 0
-965 199 0
-965 -73 -154 -159 0
-965 -73 -155 -160 0
-965 -73 -156 -161 0
-965 67 0
-965 -67 -154 1102 527 0
-965 -67 -155 1102 533 0
-965 -67 -156 1102 539 0
-965 -154 -503 0
-965 -154 -551 0
-965 -154 -575 0
-965 -154 -509 0
-965 -154 -557 0
-965 -154 -581 0
-965 -154 -515 0
-965 -154 -563 0
-965 -154 -587 0
-965 -155 -509 0
-965 -155 -557 0
-965 -155 -581 0
-965 -155 -515 0
-965 -155 -563 0
-965 -155 -587 0
-965 -156 -515 0
-965 -156 -563 0
-965 -156 -587 0
-965 -157 0
-965 94 0
-965 -154 175 0
-965 -155 176 0
-965 -156 177 0
-965 -202 0
-966 199 0
-966 -74 -154 -159 0
-966 -74 -155 -160 0
-966 -74 -156 -161 0
-966 68 0
-966 -68 -154 1103 528 0
-966 -68 -155 1103 534 0
-966 -68 -156 1103 540 0
-966 -154 -504 0
-966 -154 -552 0
-966 -154 -576 0
-966 -154 -510 0
-966 -154 -558 0
-966 -154 -582 0
-966 -154 -516 0
-966 -154 -564 0
-966 -154 -588 0
-966 -155 -510 0
-966 -155 -558 0
-966 -155 -582 0
-966 -155 -516 0
-966 -155 -564 0
-966 -155 -588 0
-966 -156 -516 0
-966 -156 -564 0
-966 -156 -588 0
-966 -157 0
-966 95 0
-966 -154 175 0
-966 -155 176 0
-966 -156 177 0
-966 -202 0
-967 199 0
-967 -75 -154 -159 0
-967 -75 -155 -160 0
-967 -75 -156 -161 0
-967 69 0
-967 -69 -154 1104 529 0
-967 -69 -155 1104 535 0
-967 -69 -156 1104 541 0
-967 -154 -505 0
-967 -154 -553 0
-967 -154 -577 0
-967 -154 -511 0
-967 -154 -559 0
-967 -154 -583 0
-967 -154 -517 0
-967 -154 -565 0
-967 -154 -589 0
-967 -155 -511 0
-967 -155 -559 0
-967 -155 -583 0
-967 -155 -517 0
-967 -155 -565 0
-967 -155 -589 0
-967 -156 -517 0
-967 -156 -565 0
-967 -156 -589 0
-967 -157 0
-967 96 0
-967 -154 175 0
-967 -155 176 0
-967 -156 177 0
-967 -202 0
-968 199 0
-968 -70 -162 -159 0
-968 -70 -163 -160 0
-968 -70 -164 -161 0
-968 76 0
-968 -76 -162 1111 524 0
-968 -76 -163 1111 530 0
-968 -76 -164 1111 536 0
-968 -162 -500 0
-968 -162 -548 0
-968 -162 -572 0
-968 -162 -506 0
-968 -162 -554 0
-968 -162 -578 0
-968 -162 -512 0
-968 -162 -560 0
-968 -162 -584 0
-968 -163 -506 0
-968 -163 -554 0
-968 -163 -578 0
-968 -163 -512 0
-968 -163 -560 0
-968 -163 -584 0
-968 -164 -512 0
-968 -164 -560 0
-968 -164 -584 0
-968 -165 0
-968 91 0
-968 -162 175 0
-968 -163 176 0
-968 -164 177 0
-968 -204 0
-969 199 0
-969 -71 -162 -159 0
-969 -71 -163 -160 0
-969 -71 -164 -161 0
-969 76 77 0
-969 -76 -162 1112 525 0
-969 -76 -163 1112 531 0
-969 -76 -164 1112 537 0
-969 -77 -162 1112 525 0
-969 -77 -163 1112 531 0
-969 -77 -164 1112 537 0
-969 -162 -501 0
-969 -162 -549 0
-969 -162 -573 0
-969 -162 -507 0
-969 -162 -555 0
-969 -162 -579 0
-969 -162 -513 0
-969 -162 -561 0
-969 -162 -585 0
-969 -163 -507 0
-969 -163 -555 0
-969 -163 -579 0
-969 -163 -513 0
-969 -163 -561 0
-969 -163 -585 0
-969 -164 -513 0
-969 -164 -561 0
-969 -164 -585 0
-969 -165 0
-969 92 0
-969 -162 175 0
-969 -163 176 0
-969 -164 177 0
-969 -204 0
-970 199 0
-970 -72 -162 -159 0
-970 -72 -163 -160 0
-970 -72 -164 -161 0
-970 77 78 0
-970 -77 -162 1113 526 0
-970 -77 -163 1113 532 0
-970 -77 -164 1113 538 0
-970 -78 -162 1113 526 0
-970 -78 -163 1113 532 0
-970 -78 -164 1113 538 0
-970 -162 -502 0
-970 -162 -550 0
-970 -162 -574 0
-970 -162 -508 0
-970 -162 -556 0
-970 -162 -580 0
-970 -162 -514 0
-970 -162 -562 0
-970 -162 -586 0
-970 -163 -508 0
-970 -163 -556 0
-970 -163 -580 0
-970 -163 -514 0
-970 -163 -562 0
-970 -163 -586 0
-970 -164 -514 0
-970 -164 -562 0
-970 -164 -586 0
-970 -165 0
-970 93 0
-970 -162 175 0
-970 -163 176 0
-970 -164 177 0
-970 -204 0
-971 199 0
-971 -73 -162 -159 0
-971 -73 -163 -160 0
-971 -73 -164 -161 0
-971 78 79 0
-971 -78 -162 1114 527 0
-971 -78 -163 1114 533 0
-971 -78 -164 1114 539 0
-971 -79 -162 1114 527 0
-971 -79 -163 1114 533 0
-971 -79 -164 1114 539 0
-971 -162 -503 0
-971 -162 -551 0
-971 -162 -575 0
-971 -162 -509 0
-971 -162 -557 0
-971 -162 -581 0
-971 -162 -515 0
-971 -162 -563 0
-971 -162 -587 0
-971 -163 -509 0
-971 -163 -557 0
-971 -163 -581 0
-971 -163 -515 0
-971 -163 -563 0
-971 -163 -587 0
-971 -164 -515 0
-971 -164 -563 0
-971 -164 -587 0
-971 -165 0
-971 94 0
-971 -162 175 0
-971 -163 176 0
-971 -164 177 0
-971 -204 0
-972 199 0
-972 -74 -162 -159 0
-972 -74 -163 -160 0
-972 -74 -164 -161 0
-972 79 80 0
-972 -79 -162 1115 528 0
-972 -79 -163 1115 534 0
-972 -79 -164 1115 540 0
-972 -80 -162 1115 528 0
-972 -80 -163 1115 534 0
-972 -80 -164 1115 540 0
-972 -162 -504 0
-972 -162 -552 0
-972 -162 -576 0
-972 -162 -510 0
-972 -162 -558 0
-972 -162 -582 0
-972 -162 -516 0
-972 -162 -564 0
-972 -162 -588 0
-972 -163 -510 0
-972 -163 -558 0
-972 -163 -582 0
-972 -163 -516 0
-972 -163 -564 0
-972 -163 -588 0
-972 -164 -516 0
-972 -164 -564 0
-972 -164 -588 0
-972 -165 0
-972 95 0
-972 -162 175 0
-972 -163 176 0
-972 -164 177 0
-972 -204 0
-973 199 0
-973 -75 -162 -159 0
-973 -75 -163 -160 0
-973 -75 -164 -161 0
-973 80 0
-973 -80 -162 1116 529 0
-973 -80 -163 1116 535 0
-973 -80 -164 1116 541 0
-973 -162 -505 0
-973 -162 -553 0
-973 -162 -577 0
-973 -162 -511 0
-973 -162 -559 0
-973 -162 -583 0
-973 -162 -517 0
-973 -162 -565 0
-973 -162 -589 0
-973 -163 -511 0
-973 -163 -559 0
-973 -163 -583 0
-973 -163 -517 0
-973 -163 -565 0
-973 -163 -589 0
-973 -164 -517 0
-973 -164 -565 0
-973 -164 -589 0
-973 -165 0
-973 96 0
-973 -162 175 0
-973 -163 176 0
-973 -164 177 0
-973 -204 0
-974 199 0
-974 -70 -166 -159 0
-974 -70 -167 -160 0
-974 -70 -168 -161 0
-974 81 0
-974 -81 -166 1117 524 0
-974 -81 -167 1117 530 0
-974 -81 -168 1117 536 0
-974 -166 -500 0
-974 -166 -548 0
-974 -166 -572 0
-974 -166 -506 0
-974 -166 -554 0
-974 -166 -578 0
-974 -166 -512 0
-974 -166 -560 0
-974 -166 -584 0
-974 -167 -506 0
-974 -167 -554 0
-974 -167 -578 0
-974 -167 -512 0
-974 -167 -560 0
-974 -167 -584 0
-974 -168 -512 0
-974 -168 -560 0
-974 -168 -584 0
-974 -169 0
-974 91 0
-974 -166 175 0
-974 -167 176 0
-974 -168 177 0
-974 -205 0
-975 199 0
-975 -71 -166 -159 0
-975 -71 -167 -160 0
-975 -71 -168 -161 0
-975 81 82 0
-975 -81 -166 1118 525 0
-975 -81 -167 1118 531 0
-975 -81 -168 1118 537 0
-975 -82 -166 1118 525 0
-975 -82 -167 1118 531 0
-975 -82 -168 1118 537 0
-975 -166 -501 0
-975 -166 -549 0
-975 -166 -573 0
-975 -166 -507 0
-975 -166 -555 0
-975 -166 -579 0
-975 -166 -513 0
-975 -166 -561 0
-975 -166 -585 0
-975 -167 -507 0
-975 -167 -555 0
-975 -167 -579 0
-975 -167 -513 0
-975 -167 -561 0
-975 -167 -585 0
-975 -168 -513 0
-975 -168 -561 0
-975 -168 -585 0
-975 -169 0
-975 92 0
-975 -166 175 0
-975 -167 176 0
-975 -168 177 0
-975 -205 0
-976 199 0
-976 -72 -166 -159 0
-976 -72 -167 -160 0
-976 -72 -168 -161 0
-976 81 82 83 0
-976 -81 -166 1119 526 0
-976 -81 -167 1119 532 0
-976 -81 -168 1119 538 0
-976 -82 -166 1119 526 0
-976 -82 -167 1119 532 0
-976 -82 -168 1119 538 0
-976 -83 -166 1119 526 0
-976 -83 -167 1119 532 0
-976 -83 -168 1119 538 0
-976 -166 -502 0
-976 -166 -550 0
-976 -166 -574 0
-976 -166 -508 0
-976 -166 -556 0
-976 -166 -580 0
-976 -166 -514 0
-976 -166 -562 0
-976 -166 -586 0
-976 -167 -508 0
-976 -167 -556 0
-976 -167 -580 0
-976 -167 -514 0
-976 -167 -562 0
-976 -167 -586 0
-976 -168 -514 0
-976 -168 -562 0
-976 -168 -586 0
-976 -169 0
-976 93 0
-976 -166 175 0
-976 -167 176 0
-976 -168 177 0
-976 -205 0
-977 199 0
-977 -73 -166 -159 0
-977 -73 -167 -160 0
-977 -73 -168 -161 0
-977 82 83 84 0
-977 -82 -166 1120 527 0
-977 -82 -167 1120 533 0
-977 -82 -168 1120 539 0
-977 -83 -166 1120 527 0
-977 -83 -167 1120 533 0
-977 -83 -168 1120 539 0
-977 -84 -166 1120 527 0
-977 -84 -167 1120 533 0
-977 -84 -168 1120 539 0
-977 -166 -503 0
-977 -166 -551 0
-977 -166 -575 0
-977 -166 -509 0
-977 -166 -557 0
-977 -166 -581 0
-977 -166 -515 0
-977 -166 -563 0
-977 -166 -587 0
-977 -167 -509 0
-977 -167 -557 0
-977 -167 -581 0
-977 -167 -515 0
-977 -167 -563 0
-977 -167 -587 0
-977 -168 -515 0
-977 -168 -563 0
-977 -168 -587 0
-977 -169 0
-977 94 0
-977 -166 175 0
-977 -167 176 0
-977 -168 177 0
-977 -205 0
-978 199 0
-978 -74 -166 -159 0
-978 -74 -167 -160 0
-978 -74 -168 -161 0
-978 83 84 0
-978 -83 -166 1121 528 0
-978 -83 -167 1121 534 0
-978 -83 -168 1121 540 0
-978 -84 -166 1121 528 0
-978 -84 -167 1121 534 0
-978 -84 -168 1121 540 0
-978 -166 -504 0
-978 -166 -552 0
-978 -166 -576 0
-978 -166 -510 0
-978 -166 -558 0
-978 -166 -582 0
-978 -166 -516 0
-978 -166 -564 0
-978 -166 -588 0
-978 -167 -510 0
-978 -167 -558 0
-978 -167 -582 0
-978 -167 -516 0
-978 -167 -564 0
-978 -167 -588 0
-978 -168 -516 0
-978 -168 -564 0
-978 -168 -588 0
-978 -169 0
-978 95 0
-978 -166 175 0
-978 -167 176 0
-978 -168 177 0
-978 -205 0
-979 199 0
-979 -75 -166 -159 0
-979 -75 -167 -160 0
-979 -75 -168 -161 0
-979 84 0
-979 -84 -166 1122 529 0
-979 -84 -167 1122 535 0
-979 -84 -168 1122 541 0
-979 -166 -505 0
-979 -166 -553 0
-979 -166 -577 0
-979 -166 -511 0
-979 -166 -559 0
-979 -166 -583 0
-979 -166 -517 0
-979 -166 -565 0
-979 -166 -589 0
-979 -167 -511 0
-979 -167 -559 0
-979 -167 -583 0
-979 -167 -517 0
-979 -167 -565 0
-979 -167 -589 0
-979 -168 -517 0
-979 -168 -565 0
-979 -168 -589 0
-979 -169 0
-979 96 0
-979 -166 175 0
-979 -167 176 0
-979 -168 177 0
-979 -205 0
-980 199 0
-980 -70 -158 0
-980 -494 0
-980 -542 0
-980 -566 0
-980 -500 0
-980 -548 0
-980 -572 0
-980 -506 0
-980 -554 0
-980 -578 0
-980 -512 0
-980 -560 0
-980 -584 0
-980 91 0
-980 174 0
-981 199 0
-981 -71 -158 0
-981 -495 0
-981 -543 0
-981 -567 0
-981 -501 0
-981 -549 0
-981 -573 0
-981 -507 0
-981 -555 0
-981 -579 0
-981 -513 0
-981 -561 0
-981 -585 0
-981 92 0
-981 174 0
-982 199 0
-982 -72 -158 0
-982 -496 0
-982 -544 0
-982 -568 0
-982 -502 0
-982 -550 0
-982 -574 0
-982 -508 0
-982 -556 0
-982 -580 0
-982 -514 0
-982 -562 0
-982 -586 0
-982 93 0
-982 174 0
-983 199 0
-983 -73 -158 0
-983 -497 0
-983 -545 0
-983 -569 0
-983 -503 0
-983 -551 0
-983 -575 0
-983 -509 0
-983 -557 0
-983 -581 0
-983 -515 0
-983 -563 0
-983 -587 0
-983 94 0
-983 174 0
-984 199 0
-984 -74 -158 0
-984 -498 0
-984 -546 0
-984 -570 0
-984 -504 0
-984 -552 0
-984 -576 0
-984 -510 0
-984 -558 0
-984 -582 0
-984 -516 0
-984 -564 0
-984 -588 0
-984 95 0
-984 174 0
-985 199 0
-985 -75 -158 0
-985 -499 0
-985 -547 0
-985 -571 0
-985 -505 0
-985 -553 0
-985 -577 0
-985 -511 0
-985 -559 0
-985 -583 0
-985 -517 0
-985 -565 0
-985 -589 0
-985 96 0
-985 174 0
-986 200 0
-986 -76 -154 -163 0
-986 -76 -155 -164 0
-986 -76 -156 -165 0
-986 64 65 0
-986 -64 -154 1099 548 0
-986 -64 -155 1099 554 0
-986 -64 -156 1099 560 0
-986 -65 -154 1100 549 0
-986 -65 -155 1100 555 0
-986 -65 -156 1100 561 0
-986 -154 -500 0
-986 -154 -524 0
-986 -154 -572 0
-986 -154 -506 0
-986 -154 -530 0
-986 -154 -578 0
-986 -154 -512 0
-986 -154 -536 0
-986 -154 -584 0
-986 -154 -501 0
-986 -154 -525 0
-986 -154 -573 0
-986 -154 -507 0
-986 -154 -531 0
-986 -154 -579 0
-986 -154 -513 0
-986 -154 -537 0
-986 -154 -585 0
-986 -155 -506 0
-986 -155 -530 0
-986 -155 -578 0
-986 -155 -512 0
-986 -155 -536 0
-986 -155 -584 0
-986 -155 -507 0
-986 -155 -531 0
-986 -155 -579 0
-986 -155 -513 0
-986 -155 -537 0
-986 -155 -585 0
-986 -156 -512 0
-986 -156 -536 0
-986 -156 -584 0
-986 -156 -513 0
-986 -156 -537 0
-986 -156 -585 0
-986 -157 0
-986 97 0
-986 -154 179 0
-986 -155 180 0
-986 -156 181 0
-986 -202 0
-987 200 0
-987 -77 -154 -163 0
-987 -77 -155 -164 0
-987 -77 -156 -165 0
-987 65 66 0
-987 -65 -154 1100 549 0
-987 -65 -155 1100 555 0
-987 -65 -156 1100 561 0
-987 -66 -154 1101 550 0
-987 -66 -155 1101 556 0
-987 -66 -156 1101 562 0
-987 -154 -501 0
-987 -154 -525 0
-987 -154 -573 0
-987 -154 -507 0
-987 -154 -531 0
-987 -154 -579 0
-987 -154 -513 0
-987 -154 -537 0
-987 -154 -585 0
-987 -154 -502 0
-987 -154 -526 0
-987 -154 -574 0
-987 -154 -508 0
-987 -154 -532 0
-987 -154 -580 0
-987 -154 -514 0
-987 -154 -538 0
-987 -154 -586 0
-987 -155 -507 0
-987 -155 -531 0
-987 -155 -579 0
-987 -155 -513 0
-987 -155 -537 0
-987 -155 -585 0
-987 -155 -508 0
-987 -155 -532 0
-987 -155 -580 0
-987 -155 -514 0
-987 -155 -538 0
-987 -155 -586 0
-987 -156 -513 0
-987 -156 -537 0
-987 -156 -585 0
-987 -156 -514 0
-987 -156 -538 0
-987 -156 -586 0
-987 -157 0
-987 98 0
-987 -154 179 0
-987 -155 180 0
-987 -156 181 0
-987 -202 0
-988 200 0
-988 -78 -154 -163 0
-988 -78 -155 -164 0
-988 -78 -156 -165 0
-988 66 67 0
-988 -66 -154 1101 550 0
-988 -66 -155 1101 556 0
-988 -66 -156 1101 562 0
-988 -67 -154 1102 551 0
-988 -67 -155 1102 557 0
-988 -67 -156 1102 563 0
-988 -154 -502 0
-988 -154 -526 0
-988 -154 -574 0
-988 -154 -508 0
-988 -154 -532 0
-988 -154 -580 0
-988 -154 -514 0
-988 -154 -538 0
-988 -154 -586 0
-988 -154 -503 0
-988 -154 -527 0
-988 -154 -575 0
-988 -154 -509 0
-988 -154 -533 0
-988 -154 -581 0
-988 -154 -515 0
-988 -154 -539 0
-988 -154 -587 0
-988 -155 -508 0
-988 -155 -532 0
-988 -155 -580 0
-988 -155 -514 0
-988 -155 -538 0
-988 -155 -586 0
-988 -155 -509 0
-988 -155 -533 0
-988 -155 -581 0
-988 -155 -515 0
-988 -155 -539 0
-988 -155 -587 0
-988 -156 -514 0
-988 -156 -538 0
-988 -156 -586 0
-988 -156 -515 0
-988 -156 -539 0
-988 -156 -587 0
-988 -157 0
-988 99 0
-988 -154 179 0
-988 -155 180 0
-988 -156 181 0
-988 -202 0
-989 200 0
-989 -79 -154 -163 0
-989 -79 -155 -164 0
-989 -79 -156 -165 0
-989 67 68 0
-989 -67 -154 1102 551 0
-989 -67 -155 1102 557 0
-989 -67 -156 1102 563 0
-989 -68 -154 1103 552 0
-989 -68 -155 1103 558 0
-989 -68 -156 1103 564 0
-989 -154 -503 0
-989 -154 -527 0
-989 -154 -575 0
-989 -154 -509 0
-989 -154 -533 0
-989 -154 -581 0
-989 -154 -515 0
-989 -154 -539 0
-989 -154 -587 0
-989 -154 -504 0
-989 -154 -528 0
-989 -154 -576 0
-989 -154 -510 0
-989 -154 -534 0
-989 -154 -582 0
-989 -154 -516 0
-989 -154 -540 0
-989 -154 -588 0
-989 -155 -509 0
-989 -155 -533 0
-989 -155 -581 0
-989 -155 -515 0
-989 -155 -539 0
-989 -155 -587 0
-989 -155 -510 0
-989 -155 -534 0
-989 -155 -582 0
-989 -155 -516 0
-989 -155 -540 0
-989 -155 -588 0
-989 -156 -515 0
-989 -156 -539 0
-989 -156 -587 0
-989 -156 -516 0
-989 -156 -540 0
-989 -156 -588 0
-989 -157 0
-989 100 0
-989 -154 179 0
-989 -155 180 0
-989 -156 181 0
-989 -202 0
-990 200 0
-990 -80 -154 -163 0
-990 -80 -155 -164 0
-990 -80 -156 -165 0
-990 68 69 0
-990 -68 -154 1103 552 0
-990 -68 -155 1103 558 0
-990 -68 -156 1103 564 0
-990 -69 -154 1104 553 0
-990 -69 -155 1104 559 0
-990 -69 -156 1104 565 0
-990 -154 -504 0
-990 -154 -528 0
-990 -154 -576 0
-990 -154 -510 0
-990 -154 -534 0
-990 -154 -582 0
-990 -154 -516 0
-990 -154 -540 0
-990 -154 -588 0
-990 -154 -505 0
-990 -154 -529 0
-990 -154 -577 0
-990 -154 -511 0
-990 -154 -535 0
-990 -154 -583 0
-990 -154 -517 0
-990 -154 -541 0
-990 -154 -589 0
-990 -155 -510 0
-990 -155 -534 0
-990 -155 -582 0
-990 -155 -516 0
-990 -155 -540 0
-990 -155 -588 0
-990 -155 -511 0
-990 -155 -535 0
-990 -155 -583 0
-990 -155 -517 0
-990 -155 -541 0
-990 -155 -589 0
-990 -156 -516 0
-990 -156 -540 0
-990 -156 -588 0
-990 -156 -517 0
-990 -156 -541 0
-990 -156 -589 0
-990 -157 0
-990 101 0
-990 -154 179 0
-990 -155 180 0
-990 -156 181 0
-990 -202 0
-991 200 0
-991 -76 -158 -163 0
-991 -76 -159 -164 0
-991 -76 -160 -165 0
-991 70 71 0
-991 -70 -158 1105 548 0
-991 -70 -159 1105 554 0
-991 -70 -160 1105 560 0
-991 -71 -158 1106 549 0
-991 -71 -159 1106 555 0
-991 -71 -160 1106 561 0
-991 -158 -500 0
-991 -158 -524 0
-991 -158 -572 0
-991 -158 -506 0
-991 -158 -530 0
-991 -158 -578 0
-991 -158 -512 0
-991 -158 -536 0
-991 -158 -584 0
-991 -158 -501 0
-991 -158 -525 0
-991 -158 -573 0
-991 -158 -507 0
-991 -158 -531 0
-991 -158 -579 0
-991 -158 -513 0
-991 -158 -537 0
-991 -158 -585 0
-991 -159 -506 0
-991 -159 -530 0
-991 -159 -578 0
-991 -159 -512 0
-991 -159 -536 0
-991 -159 -584 0
-991 -159 -507 0
-991 -159 -531 0
-991 -159 -579 0
-991 -159 -513 0
-991 -159 -537 0
-991 -159 -585 0
-991 -160 -512 0
-991 -160 -536 0
-991 -160 -584 0
-991 -160 -513 0
-991 -160 -537 0
-991 -160 -585 0
-991 -161 0
-991 97 0
-991 -158 179 0
-991 -159 180 0
-991 -160 181 0
-991 -203 0
-992 200 0
-992 -77 -158 -163 0
-992 -77 -159 -164 0
-992 -77 -160 -165 0
-992 71 72 0
-992 -71 -158 1106 549 0
-992 -71 -159 1106 555 0
-992 -71 -160 1106 561 0
-992 -72 -158 1107 550 0
-992 -72 -159 1107 556 0
-992 -72 -160 1107 562 0
-992 -158 -501 0
-992 -158 -525 0
-992 -158 -573 0
-992 -158 -507 0
-992 -158 -531 0
-992 -158 -579 0
-992 -158 -513 0
-992 -158 -537 0
-992 -158 -585 0
-992 -158 -502 0
-992 -158 -526 0
-992 -158 -574 0
-992 -158 -508 0
-992 -158 -532 0
-992 -158 -580 0
-992 -158 -514 0
-992 -158 -538 0
-992 -158 -586 0
-992 -159 -507 0
-992 -159 -531 0
-992 -159 -579 0
-992 -159 -513 0
-992 -159 -537 0
-992 -159 -585 0
-992 -159 -508 0
-992 -159 -532 0
-992 -159 -580 0
-992 -159 -514 0
-992 -159 -538 0
-992 -159 -586 0
-992 -160 -513 0
-992 -160 -537 0
-992 -160 -585 0
-992 -160 -514 0
-992 -160 -538 0
-992 -160 -586 0
-992 -161 0
-992 98 0
-992 -158 179 0
-992 -159 180 0
-992 -160 181 0
-992 -203 0
-993 200 0
-993 -78 -158 -163 0
-993 -78 -159 -164 0
-993 -78 -160 -165 0
-993 72 73 0
-993 -72 -158 1107 550 0
-993 -72 -159 1107 556 0
-993 -72 -160 1107 562 0
-993 -73 -158 1108 551 0
-993 -73 -159 1108 557 0
-993 -73 -160 1108 563 0
-993 -158 -502 0
-993 -158 -526 0
-993 -158 -574 0
-993 -158 -508 0
-993 -158 -532 0
-993 -158 -580 0
-993 -158 -514 0
-993 -158 -538 0
-993 -158 -586 0
-993 -158 -503 0
-993 -158 -527 0
-993 -158 -575 0
-993 -158 -509 0
-993 -158 -533 0
-993 -158 -581 0
-993 -158 -515 0
-993 -158 -539 0
-993 -158 -587 0
-993 -159 -508 0
-993 -159 -532 0
-993 -159 -580 0
-993 -159 -514 0
-993 -159 -538 0
-993 -159 -586 0
-993 -159 -509 0
-993 -159 -533 0
-993 -159 -581 0
-993 -159 -515 0
-993 -159 -539 0
-993 -159 -587 0
-993 -160 -514 0
-993 -160 -538 0
-993 -160 -586 0
-993 -160 -515 0
-993 -160 -539 0
-993 -160 -587 0
-993 -161 0
-993 99 0
-993 -158 179 0
-993 -159 180 0
-993 -160 181 0
-993 -203 0
-994 200 0
-994 -79 -158 -163 0
-994 -79 -159 -164 0
-994 -79 -160 -165 0
-994 73 74 0
-994 -73 -158 1108 551 0
-994 -73 -159 1108 557 0
-994 -73 -160 1108 563 0
-994 -74 -158 1109 552 0
-994 -74 -159 1109 558 0
-994 -74 -160 1109 564 0
-994 -158 -503 0
-994 -158 -527 0
-994 -158 -575 0
-994 -158 -509 0
-994 -158 -533 0
-994 -158 -581 0
-994 -158 -515 0
-994 -158 -539 0
-994 -158 -587 0
-994 -158 -504 0
-994 -158 -528 0
-994 -158 -576 0
-994 -158 -510 0
-994 -158 -534 0
-994 -158 -582 0
-994 -158 -516 0
-994 -158 -540 0
-994 -158 -588 0
-994 -159 -509 0
-994 -159 -533 0
-994 -159 -581 0
-994 -159 -515 0
-994 -159 -539 0
-994 -159 -587 0
-994 -159 -510 0
-994 -159 -534 0
-994 -159 -582 0
-994 -159 -516 0
-994 -159 -540 0
-994 -159 -588 0
-994 -160 -515 0
-994 -160 -539 0
-994 -160 -587 0
-994 -160 -516 0
-994 -160 -540 0
-994 -160 -588 0
-994 -161 0
-994 100 0
-994 -158 179 0
-994 -159 180 0
-994 -160 181 0
-994 -203 0
-995 200 0
-995 -80 -158 -163 0
-995 -80 -159 -164 0
-995 -80 -160 -165 0
-995 74 75 0
-995 -74 -158 1109 552 0
-995 -74 -159 1109 558 0
-995 -74 -160 1109 564 0
-995 -75 -158 1110 553 0
-995 -75 -159 1110 559 0
-995 -75 -160 1110 565 0
-995 -158 -504 0
-995 -158 -528 0
-995 -158 -576 0
-995 -158 -510 0
-995 -158 -534 0
-995 -158 -582 0
-995 -158 -516 0
-995 -158 -540 0
-995 -158 -588 0
-995 -158 -505 0
-995 -158 -529 0
-995 -158 -577 0
-995 -158 -511 0
-995 -158 -535 0
-995 -158 -583 0
-995 -158 -517 0
-995 -158 -541 0
-995 -158 -589 0
-995 -159 -510 0
-995 -159 -534 0
-995 -159 -582 0
-995 -159 -516 0
-995 -159 -540 0
-995 -159 -588 0
-995 -159 -511 0
-995 -159 -535 0
-995 -159 -583 0
-995 -159 -517 0
-995 -159 -541 0
-995 -159 -589 0
-995 -160 -516 0
-995 -160 -540 0
-995 -160 -588 0
-995 -160 -517 0
-995 -160 -541 0
-995 -160 -589 0
-995 -161 0
-995 101 0
-995 -158 179 0
-995 -159 180 0
-995 -160 181 0
-995 -203 0
-996 200 0
-996 -76 -166 -163 0
-996 -76 -167 -164 0
-996 -76 -168 -165 0
-996 81 82 0
-996 -81 -166 1117 548 0
-996 -81 -167 1117 554 0
-996 -81 -168 1117 560 0
-996 -81 -166 1118 549 0
-996 -81 -167 1118 555 0
-996 -81 -168 1118 561 0
-996 -82 -166 1118 549 0
-996 -82 -167 1118 555 0
-996 -82 -168 1118 561 0
-996 -166 -500 0
-996 -166 -524 0
-996 -166 -572 0
-996 -166 -506 0
-996 -166 -530 0
-996 -166 -578 0
-996 -166 -512 0
-996 -166 -536 0
-996 -166 -584 0
-996 -166 -501 0
-996 -166 -525 0
-996 -166 -573 0
-996 -166 -507 0
-996 -166 -531 0
-996 -166 -579 0
-996 -166 -513 0
-996 -166 -537 0
-996 -166 -585 0
-996 -167 -506 0
-996 -167 -530 0
-996 -167 -578 0
-996 -167 -512 0
-996 -167 -536 0
-996 -167 -584 0
-996 -167 -507 0
-996 -167 -531 0
-996 -167 -579 0
-996 -167 -513 0
-996 -167 -537 0
-996 -167 -585 0
-996 -168 -512 0
-996 -168 -536 0
-996 -168 -584 0
-996 -168 -513 0
-996 -168 -537 0
-996 -168 -585 0
-996 -169 0
-996 97 0
-996 -166 179 0
-996 -167 180 0
-996 -168 181 0
-996 -205 0
-997 200 0
-997 -77 -166 -163 0
-997 -77 -167 -164 0
-997 -77 -168 -165 0
-997 81 82 83 0
-997 -81 -166 1118 549 0
-997 -81 -167 1118 555 0
-997 -81 -168 1118 561 0
-997 -81 -166 1119 550 0
-997 -81 -167 1119 556 0
-997 -81 -168 1119 562 0
-997 -82 -166 1118 549 0
-997 -82 -167 1118 555 0
-997 -82 -168 1118 561 0
-997 -82 -166 1119 550 0
-997 -82 -167 1119 556 0
-997 -82 -168 1119 562 0
-997 -83 -166 1119 550 0
-997 -83 -167 1119 556 0
-997 -83 -168 1119 562 0
-997 -166 -501 0
-997 -166 -525 0
-997 -166 -573 0
-997 -166 -507 0
-997 -166 -531 0
-997 -166 -579 0
-997 -166 -513 0
-997 -166 -537 0
-997 -166 -585 0
-997 -166 -502 0
-997 -166 -526 0
-997 -166 -574 0
-997 -166 -508 0
-997 -166 -532 0
-997 -166 -580 0
-997 -166 -514 0
-997 -166 -538 0
-997 -166 -586 0
-997 -167 -507 0
-997 -167 -531 0
-997 -167 -579 0
-997 -167 -513 0
-997 -167 -537 0
-997 -167 -585 0
-997 -167 -508 0
-997 -167 -532 0
-997 -167 -580 0
-997 -167 -514 0
-997 -167 -538 0
-997 -167 -586 0
-997 -168 -513 0
-997 -168 -537 0
-997 -168 -585 0
-997 -168 -514 0
-997 -168 -538 0
-997 -168 -586 0
-997 -169 0
-997 98 0
-997 -166 179 0
-997 -167 180 0
-997 -168 181 0
-997 -205 0
-998 200 0
-998 -78 -166 -163 0
-998 -78 -167 -164 0
-998 -78 -168 -165 0
-998 81 82 83 84 0
-998 -81 -166 1119 550 0
-998 -81 -167 1119 556 0
-998 -81 -168 1119 562 0
-998 -82 -166 1119 550 0
-998 -82 -167 1119 556 0
-998 -82 -168 1119 562 0
-998 -82 -166 1120 551 0
-998 -82 -167 1120 557 0
-998 -82 -168 1120 563 0
-998 -83 -166 1119 550 0
-998 -83 -167 1119 556 0
-998 -83 -168 1119 562 0
-998 -83 -166 1120 551 0
-998 -83 -167 1120 557 0
-998 -83 -168 1120 563 0
-998 -84 -166 1120 551 0
-998 -84 -167 1120 557 0
-998 -84 -168 1120 563 0
-998 -166 -502 0
-998 -166 -526 0
-998 -166 -574 0
-998 -166 -508 0
-998 -166 -532 0
-998 -166 -580 0
-998 -166 -514 0
-998 -166 -538 0
-998 -166 -586 0
-998 -166 -503 0
-998 -166 -527 0
-998 -166 -575 0
-998 -166 -509 0
-998 -166 -533 0
-998 -166 -581 0
-998 -166 -515 0
-998 -166 -539 0
-998 -166 -587 0
-998 -167 -508 0
-998 -167 -532 0
-998 -167 -580 0
-998 -167 -514 0
-998 -167 -538 0
-998 -167 -586 0
-998 -167 -509 0
-998 -167 -533 0
-998 -167 -581 0
-998 -167 -515 0
-998 -167 -539 0
-998 -167 -587 0
-998 -168 -514 0
-998 -168 -538 0
-998 -168 -586 0
-998 -168 -515 0
-998 -168 -539 0
-998 -168 -587 0
-998 -169 0
-998 99 0
-998 -166 179 0
-998 -167 180 0
-998 -168 181 0
-998 -205 0
-999 200 0
-999 -79 -166 -163 0
-999 -79 -167 -164 0
-999 -79 -168 -165 0
-999 82 83 84 0
-999 -82 -166 1120 551 0
-999 -82 -167 1120 557 0
-999 -82 -168 1120 563 0
-999 -83 -166 1120 551 0
-999 -83 -167 1120 557 0
-999 -83 -168 1120 563 0
-999 -83 -166 1121 552 0
-999 -83 -167 1121 558 0
-999 -83 -168 1121 564 0
-999 -84 -166 1120 551 0
-999 -84 -167 1120 557 0
-999 -84 -168 1120 563 0
-999 -84 -166 1121 552 0
-999 -84 -167 1121 558 0
-999 -84 -168 1121 564 0
-999 -166 -503 0
-999 -166 -527 0
-999 -166 -575 0
-999 -166 -509 0
-999 -166 -533 0
-999 -166 -581 0
-999 -166 -515 0
-999 -166 -539 0
-999 -166 -587 0
-999 -166 -504 0
-999 -166 -528 0
-999 -166 -576 0
-999 -166 -510 0
-999 -166 -534 0
-999 -166 -582 0
-999 -166 -516 0
-999 -166 -540 0
-999 -166 -588 0
-999 -167 -509 0
-999 -167 -533 0
-999 -167 -581 0
-999 -167 -515 0
-999 -167 -539 0
-999 -167 -587 0
-999 -167 -510 0
-999 -167 -534 0
-999 -167 -582 0
-999 -167 -516 0
-999 -167 -540 0
-999 -167 -588 0
-999 -168 -515 0
-999 -168 -539 0
-999 -168 -587 0
-999 -168 -516 0
-999 -168 -540 0
-999 -168 -588 0
-999 -169 0
-999 100 0
-999 -166 179 0
-999 -167 180 0
-999 -168 181 0
-999 -205 0
-1000 200 0
-1000 -80 -166 -163 0
-1000 -80 -167 -164 0
-1000 -80 -168 -165 0
-1000 83 84 0
-1000 -83 -166 1121 552 0
-1000 -83 -167 1121 558 0
-1000 -83 -168 1121 564 0
-1000 -84 -166 1121 552 0
-1000 -84 -167 1121 558 0
-1000 -84 -168 1121 564 0
-1000 -84 -166 1122 553 0
-1000 -84 -167 1122 559 0
-1000 -84 -168 1122 565 0
-1000 -166 -504 0
-1000 -166 -528 0
-1000 -166 -576 0
-1000 -166 -510 0
-1000 -166 -534 0
-1000 -166 -582 0
-1000 -166 -516 0
-1000 -166 -540 0
-1000 -166 -588 0
-1000 -166 -505 0
-1000 -166 -529 0
-1000 -166 -577 0
-1000 -166 -511 0
-1000 -166 -535 0
-1000 -166 -583 0
-1000 -166 -517 0
-1000 -166 -541 0
-1000 -166 -589 0
-1000 -167 -510 0
-1000 -167 -534 0
-1000 -167 -582 0
-1000 -167 -516 0
-1000 -167 -540 0
-1000 -167 -588 0
-1000 -167 -511 0
-1000 -167 -535 0
-1000 -167 -583 0
-1000 -167 -517 0
-1000 -167 -541 0
-1000 -167 -589 0
-1000 -168 -516 0
-1000 -168 -540 0
-1000 -168 -588 0
-1000 -168 -517 0
-1000 -168 -541 0
-1000 -168 -589 0
-1000 -169 0
-1000 101 0
-1000 -166 179 0
-1000 -167 180 0
-1000 -168 181 0
-1000 -205 0
-1001 200 0
-1001 -76 -162 0
-1001 -494 0
-1001 -518 0
-1001 -566 0
-1001 -500 0
-1001 -524 0
-1001 -572 0
-1001 -506 0
-1001 -530 0
-1001 -578 0
-1001 -512 0
-1001 -536 0
-1001 -584 0
-1001 -495 0
-1001 -519 0
-1001 -567 0
-1001 -501 0
-1001 -525 0
-1001 -573 0
-1001 -507 0
-1001 -531 0
-1001 -579 0
-1001 -513 0
-1001 -537 0
-1001 -585 0
-1001 97 0
-1001 178 0
-1002 200 0
-1002 -77 -162 0
-1002 -495 0
-1002 -519 0
-1002 -567 0
-1002 -501 0
-1002 -525 0
-1002 -573 0
-1002 -507 0
-1002 -531 0
-1002 -579 0
-1002 -513 0
-1002 -537 0
-1002 -585 0
-1002 -496 0
-1002 -520 0
-1002 -568 0
-1002 -502 0
-1002 -526 0
-1002 -574 0
-1002 -508 0
-1002 -532 0
-1002 -580 0
-1002 -514 0
-1002 -538 0
-1002 -586 0
-1002 98 0
-1002 178 0
-1003 200 0
-1003 -78 -162 0
-1003 -496 0
-1003 -520 0
-1003 -568 0
-1003 -502 0
-1003 -526 0
-1003 -574 0
-1003 -508 0
-1003 -532 0
-1003 -580 0
-1003 -514 0
-1003 -538 0
-1003 -586 0
-1003 -497 0
-1003 -521 0
-1003 -569 0
-1003 -503 0
-1003 -527 0
-1003 -575 0
-1003 -509 0
-1003 -533 0
-1003 -581 0
-1003 -515 0
-1003 -539 0
-1003 -587 0
-1003 99 0
-1003 178 0
-1004 200 0
-1004 -79 -162 0
-1004 -497 0
-1004 -521 0
-1004 -569 0
-1004 -503 0
-1004 -527 0
-1004 -575 0
-1004 -509 0
-1004 -533 0
-1004 -581 0
-1004 -515 0
-1004 -539 0
-1004 -587 0
-1004 -498 0
-1004 -522 0
-1004 -570 0
-1004 -504 0
-1004 -528 0
-1004 -576 0
-1004 -510 0
-1004 -534 0
-1004 -582 0
-1004 -516 0
-1004 -540 0
-1004 -588 0
-1004 100 0
-1004 178 0
-1005 200 0
-1005 -80 -162 0
-1005 -498 0
-1005 -522 0
-1005 -570 0
-1005 -504 0
-1005 -528 0
-1005 -576 0
-1005 -510 0
-1005 -534 0
-1005 -582 0
-1005 -516 0
-1005 -540 0
-1005 -588 0
-1005 -499 0
-1005 -523 0
-1005 -571 0
-1005 -505 0
-1005 -529 0
-1005 -577 0
-1005 -511 0
-1005 -535 0
-1005 -583 0
-1005 -517 0
-1005 -541 0
-1005 -589 0
-1005 101 0
-1005 178 0
-1006 201 0
-1006 -81 -154 -167 0
-1006 -81 -155 -168 0
-1006 -81 -156 -169 0
-1006 64 65 66 0
-1006 -64 -154 1099 572 0
-1006 -64 -155 1099 578 0
-1006 -64 -156 1099 584 0
-1006 -65 -154 1100 573 0
-1006 -65 -155 1100 579 0
-1006 -65 -156 1100 585 0
-1006 -66 -154 1101 574 0
-1006 -66 -155 1101 580 0
-1006 -66 -156 1101 586 0
-1006 -154 -500 0
-1006 -154 -524 0
-1006 -154 -548 0
-1006 -154 -506 0
-1006 -154 -530 0
-1006 -154 -554 0
-1006 -154 -512 0
-1006 -154 -536 0
-1006 -154 -560 0
-1006 -154 -501 0
-1006 -154 -525 0
-1006 -154 -549 0
-1006 -154 -507 0
-1006 -154 -531 0
-1006 -154 -555 0
-1006 -154 -513 0
-1006 -154 -537 0
-1006 -154 -561 0
-1006 -154 -502 0
-1006 -154 -526 0
-1006 -154 -550 0
-1006 -154 -508 0
-1006 -154 -532 0
-1006 -154 -556 0
-1006 -154 -514 0
-1006 -154 -538 0
-1006 -154 -562 0
-1006 -155 -506 0
-1006 -155 -530 0
-1006 -155 -554 0
-1006 -155 -512 0
-1006 -155 -536 0
-1006 -155 -560 0
-1006 -155 -507 0
-1006 -155 -531 0
-1006 -155 -555 0
-1006 -155 -513 0
-1006 -155 -537 0
-1006 -155 -561 0
-1006 -155 -508 0
-1006 -155 -532 0
-1006 -155 -556 0
-1006 -155 -514 0
-1006 -155 -538 0
-1006 -155 -562 0
-1006 -156 -512 0
-1006 -156 -536 0
-1006 -156 -560 0
-1006 -156 -513 0
-1006 -156 -537 0
-1006 -156 -561 0
-1006 -156 -514 0
-1006 -156 -538 0
-1006 -156 -562 0
-1006 -157 0
-1006 102 0
-1006 -154 183 0
-1006 -155 184 0
-1006 -156 185 0
-1006 -202 0
-1007 201 0
-1007 -82 -154 -167 0
-1007 -82 -155 -168 0
-1007 -82 -156 -169 0
-1007 65 66 67 0
-1007 -65 -154 1100 573 0
-1007 -65 -155 1100 579 0
-1007 -65 -156 1100 585 0
-1007 -66 -154 1101 574 0
-1007 -66 -155 1101 580 0
-1007 -66 -156 1101 586 0
-1007 -67 -154 1102 575 0
-1007 -67 -155 1102 581 0
-1007 -67 -156 1102 587 0
-1007 -154 -501 0
-1007 -154 -525 0
-1007 -154 -549 0
-1007 -154 -507 0
-1007 -154 -531 0
-1007 -154 -555 0
-1007 -154 -513 0
-1007 -154 -537 0
-1007 -154 -561 0
-1007 -154 -502 0
-1007 -154 -526 0
-1007 -154 -550 0
-1007 -154 -508 0
-1007 -154 -532 0
-1007 -154 -556 0
-1007 -154 -514 0
-1007 -154 -538 0
-1007 -154 -562 0
-1007 -154 -503 0
-1007 -154 -527 0
-1007 -154 -551 0
-1007 -154 -509 0
-1007 -154 -533 0
-1007 -154 -557 0
-1007 -154 -515 0
-1007 -154 -539 0
-1007 -154 -563 0
-1007 -155 -507 0
-1007 -155 -531 0
-1007 -155 -555 0
-1007 -155 -513 0
-1007 -155 -537 0
-1007 -155 -561 0
-1007 -155 -508 0
-1007 -155 -532 0
-1007 -155 -556 0
-1007 -155 -514 0
-1007 -155 -538 0
-1007 -155 -562 0
-1007 -155 -509 0
-1007 -155 -533 0
-1007 -155 -557 0
-1007 -155 -515 0
-1007 -155 -539 0
-1007 -155 -563 0
-1007 -156 -513 0
-1007 -156 -537 0
-1007 -156 -561 0
-1007 -156 -514 0
-1007 -156 -538 0
-1007 -156 -562 0
-1007 -156 -515 0
-1007 -156 -539 0
-1007 -156 -563 0
-1007 -157 0
-1007 103 0
-1007 -154 183 0
-1007 -155 184 0
-1007 -156 185 0
-1007 -202 0
-1008 201 0
-1008 -83 -154 -167 0
-1008 -83 -155 -168 0
-1008 -83 -156 -169 0
-1008 66 67 68 0
-1008 -66 -154 1101 574 0
-1008 -66 -155 1101 580 0
-1008 -66 -156 1101 586 0
-1008 -67 -154 1102 575 0
-1008 -67 -155 1102 581 0
-1008 -67 -156 1102 587 0
-1008 -68 -154 1103 576 0
-1008 -68 -155 1103 582 0
-1008 -68 -156 1103 588 0
-1008 -154 -502 0
-1008 -154 -526 0
-1008 -154 -550 0
-1008 -154 -508 0
-1008 -154 -532 0
-1008 -154 -556 0
-1008 -154 -514 0
-1008 -154 -538 0
-1008 -154 -562 0
-1008 -154 -503 0
-1008 -154 -527 0
-1008 -154 -551 0
-1008 -154 -509 0
-1008 -154 -533 0
-1008 -154 -557 0
-1008 -154 -515 0
-1008 -154 -539 0
-1008 -154 -563 0
-1008 -154 -504 0
-1008 -154 -528 0
-1008 -154 -552 0
-1008 -154 -510 0
-1008 -154 -534 0
-1008 -154 -558 0
-1008 -154 -516 0
-1008 -154 -540 0
-1008 -154 -564 0
-1008 -155 -508 0
-1008 -155 -532 0
-1008 -155 -556 0
-1008 -155 -514 0
-1008 -155 -538 0
-1008 -155 -562 0
-1008 -155 -509 0
-1008 -155 -533 0
-1008 -155 -557 0
-1008 -155 -515 0
-1008 -155 -539 0
-1008 -155 -563 0
-1008 -155 -510 0
-1008 -155 -534 0
-1008 -155 -558 0
-1008 -155 -516 0
-1008 -155 -540 0
-1008 -155 -564 0
-1008 -156 -514 0
-1008 -156 -538 0
-1008 -156 -562 0
-1008 -156 -515 0
-1008 -156 -539 0
-1008 -156 -563 0
-1008 -156 -516 0
-1008 -156 -540 0
-1008 -156 -564 0
-1008 -157 0
-1008 104 0
-1008 -154 183 0
-1008 -155 184 0
-1008 -156 185 0
-1008 -202 0
-1009 201 0
-1009 -84 -154 -167 0
-1009 -84 -155 -168 0
-1009 -84 -156 -169 0
-1009 67 68 69 0
-1009 -67 -154 1102 575 0
-1009 -67 -155 1102 581 0
-1009 -67 -156 1102 587 0
-1009 -68 -154 1103 576 0
-1009 -68 -155 1103 582 0
-1009 -68 -156 1103 588 0
-1009 -69 -154 1104 577 0
-1009 -69 -155 1104 583 0
-1009 -69 -156 1104 589 0
-1009 -154 -503 0
-1009 -154 -527 0
-1009 -154 -551 0
-1009 -154 -509 0
-1009 -154 -533 0
-1009 -154 -557 0
-1009 -154 -515 0
-1009 -154 -539 0
-1009 -154 -563 0
-1009 -154 -504 0
-1009 -154 -528 0
-1009 -154 -552 0
-1009 -154 -510 0
-1009 -154 -534 0
-1009 -154 -558 0
-1009 -154 -516 0
-1009 -154 -540 0
-1009 -154 -564 0
-1009 -154 -505 0
-1009 -154 -529 0
-1009 -154 -553 0
-1009 -154 -511 0
-1009 -154 -535 0
-1009 -154 -559 0
-1009 -154 -517 0
-1009 -154 -541 0
-1009 -154 -565 0
-1009 -155 -509 0
-1009 -155 -533 0
-1009 -155 -557 0
-1009 -155 -515 0
-1009 -155 -539 0
-1009 -155 -563 0
-1009 -155 -510 0
-1009 -155 -534 0
-1009 -155 -558 0
-1009 -155 -516 0
-1009 -155 -540 0
-1009 -155 -564 0
-1009 -155 -511 0
-1009 -155 -535 0
-1009 -155 -559 0
-1009 -155 -517 0
-1009 -155 -541 0
-1009 -155 -565 0
-1009 -156 -515 0
-1009 -156 -539 0
-1009 -156 -563 0
-1009 -156 -516 0
-1009 -156 -540 0
-1009 -156 -564 0
-1009 -156 -517 0
-1009 -156 -541 0
-1009 -156 -565 0
-1009 -157 0
-1009 105 0
-1009 -154 183 0
-1009 -155 184 0
-1009 -156 185 0
-1009 -202 0
-1010 201 0
-1010 -81 -158 -167 0
-1010 -81 -159 -168 0
-1010 -81 -160 -169 0
-1010 70 71 72 0
-1010 -70 -158 1105 572 0
-1010 -70 -159 1105 578 0
-1010 -70 -160 1105 584 0
-1010 -71 -158 1106 573 0
-1010 -71 -159 1106 579 0
-1010 -71 -160 1106 585 0
-1010 -72 -158 1107 574 0
-1010 -72 -159 1107 580 0
-1010 -72 -160 1107 586 0
-1010 -158 -500 0
-1010 -158 -524 0
-1010 -158 -548 0
-1010 -158 -506 0
-1010 -158 -530 0
-1010 -158 -554 0
-1010 -158 -512 0
-1010 -158 -536 0
-1010 -158 -560 0
-1010 -158 -501 0
-1010 -158 -525 0
-1010 -158 -549 0
-1010 -158 -507 0
-1010 -158 -531 0
-1010 -158 -555 0
-1010 -158 -513 0
-1010 -158 -537 0
-1010 -158 -561 0
-1010 -158 -502 0
-1010 -158 -526 0
-1010 -158 -550 0
-1010 -158 -508 0
-1010 -158 -532 0
-1010 -158 -556 0
-1010 -158 -514 0
-1010 -158 -538 0
-1010 -158 -562 0
-1010 -159 -506 0
-1010 -159 -530 0
-1010 -159 -554 0
-1010 -159 -512 0
-1010 -159 -536 0
-1010 -159 -560 0
-1010 -159 -507 0
-1010 -159 -531 0
-1010 -159 -555 0
-1010 -159 -513 0
-1010 -159 -537 0
-1010 -159 -561 0
-1010 -159 -508 0
-1010 -159 -532 0
-1010 -159 -556 0
-1010 -159 -514 0
-1010 -159 -538 0
-1010 -159 -562 0
-1010 -160 -512 0
-1010 -160 -536 0
-1010 -160 -560 0
-1010 -160 -513 0
-1010 -160 -537 0
-1010 -160 -561 0
-1010 -160 -514 0
-1010 -160 -538 0
-1010 -160 -562 0
-1010 -161 0
-1010 102 0
-1010 -158 183 0
-1010 -159 184 0
-1010 -160 185 0
-1010 -203 0
-1011 201 0
-1011 -82 -158 -167 0
-1011 -82 -159 -168 0
-1011 -82 -160 -169 0
-1011 71 72 73 0
-1011 -71 -158 1106 573 0
-1011 -71 -159 1106 579 0
-1011 -71 -160 1106 585 0
-1011 -72 -158 1107 574 0
-1011 -72 -159 1107 580 0
-1011 -72 -160 1107 586 0
-1011 -73 -158 1108 575 0
-1011 -73 -159 1108 581 0
-1011 -73 -160 1108 587 0
-1011 -158 -501 0
-1011 -158 -525 0
-1011 -158 -549 0
-1011 -158 -507 0
-1011 -158 -531 0
-1011 -158 -555 0
-1011 -158 -513 0
-1011 -158 -537 0
-1011 -158 -561 0
-1011 -158 -502 0
-1011 -158 -526 0
-1011 -158 -550 0
-1011 -158 -508 0
-1011 -158 -532 0
-1011 -158 -556 0
-1011 -158 -514 0
-1011 -158 -538 0
-1011 -158 -562 0
-1011 -158 -503 0
-1011 -158 -527 0
-1011 -158 -551 0
-1011 -158 -509 0
-1011 -158 -533 0
-1011 -158 -557 0
-1011 -158 -515 0
-1011 -158 -539 0
-1011 -158 -563 0
-1011 -159 -507 0
-1011 -159 -531 0
-1011 -159 -555 0
-1011 -159 -513 0
-1011 -159 -537 0
-1011 -159 -561 0
-1011 -159 -508 0
-1011 -159 -532 0
-1011 -159 -556 0
-1011 -159 -514 0
-1011 -159 -538 0
-1011 -159 -562 0
-1011 -159 -509 0
-1011 -159 -533 0
-1011 -159 -557 0
-1011 -159 -515 0
-1011 -159 -539 0
-1011 -159 -563 0
-1011 -160 -513 0
-1011 -160 -537 0
-1011 -160 -561 0
-1011 -160 -514 0
-1011 -160 -538 0
-1011 -160 -562 0
-1011 -160 -515 0
-1011 -160 -539 0
-1011 -160 -563 0
-1011 -161 0
-1011 103 0
-1011 -158 183 0
-1011 -159 184 0
-1011 -160 185 0
-1011 -203 0
-1012 201 0
-1012 -83 -158 -167 0
-1012 -83 -159 -168 0
-1012 -83 -160 -169 0
-1012 72 73 74 0
-1012 -72 -158 1107 574 0
-1012 -72 -159 1107 580 0
-1012 -72 -160 1107 586 0
-1012 -73 -158 1108 575 0
-1012 -73 -159 1108 581 0
-1012 -73 -160 1108 587 0
-1012 -74 -158 1109 576 0
-1012 -74 -159 1109 582 0
-1012 -74 -160 1109 588 0
-1012 -158 -502 0
-1012 -158 -526 0
-1012 -158 -550 0
-1012 -158 -508 0
-1012 -158 -532 0
-1012 -158 -556 0
-1012 -158 -514 0
-1012 -158 -538 0
-1012 -158 -562 0
-1012 -158 -503 0
-1012 -158 -527 0
-1012 -158 -551 0
-1012 -158 -509 0
-1012 -158 -533 0
-1012 -158 -557 0
-1012 -158 -515 0
-1012 -158 -539 0
-1012 -158 -563 0
-1012 -158 -504 0
-1012 -158 -528 0
-1012 -158 -552 0
-1012 -158 -510 0
-1012 -158 -534 0
-1012 -158 -558 0
-1012 -158 -516 0
-1012 -158 -540 0
-1012 -158 -564 0
-1012 -159 -508 0
-1012 -159 -532 0
-1012 -159 -556 0
-1012 -159 -514 0
-1012 -159 -538 0
-1012 -159 -562 0
-1012 -159 -509 0
-1012 -159 -533 0
-1012 -159 -557 0
-1012 -159 -515 0
-1012 -159 -539 0
-1012 -159 -563 0
-1012 -159 -510 0
-1012 -159 -534 0
-1012 -159 -558 0
-1012 -159 -516 0
-1012 -159 -540 0
-1012 -159 -564 0
-1012 -160 -514 0
-1012 -160 -538 0
-1012 -160 -562 0
-1012 -160 -515 0
-1012 -160 -539 0
-1012 -160 -563 0
-1012 -160 -516 0
-1012 -160 -540 0
-1012 -160 -564 0
-1012 -161 0
-1012 104 0
-1012 -158 183 0
-1012 -159 184 0
-1012 -160 185 0
-1012 -203 0
-1013 201 0
-1013 -84 -158 -167 0
-1013 -84 -159 -168 0
-1013 -84 -160 -169 0
-1013 73 74 75 0
-1013 -73 -158 1108 575 0
-1013 -73 -159 1108 581 0
-1013 -73 -160 1108 587 0
-1013 -74 -158 1109 576 0
-1013 -74 -159 1109 582 0
-1013 -74 -160 1109 588 0
-1013 -75 -158 1110 577 0
-1013 -75 -159 1110 583 0
-1013 -75 -160 1110 589 0
-1013 -158 -503 0
-1013 -158 -527 0
-1013 -158 -551 0
-1013 -158 -509 0
-1013 -158 -533 0
-1013 -158 -557 0
-1013 -158 -515 0
-1013 -158 -539 0
-1013 -158 -563 0
-1013 -158 -504 0
-1013 -158 -528 0
-1013 -158 -552 0
-1013 -158 -510 0
-1013 -158 -534 0
-1013 -158 -558 0
-1013 -158 -516 0
-1013 -158 -540 0
-1013 -158 -564 0
-1013 -158 -505 0
-1013 -158 -529 0
-1013 -158 -553 0
-1013 -158 -511 0
-1013 -158 -535 0
-1013 -158 -559 0
-1013 -158 -517 0
-1013 -158 -541 0
-1013 -158 -565 0
-1013 -159 -509 0
-1013 -159 -533 0
-1013 -159 -557 0
-1013 -159 -515 0
-1013 -159 -539 0
-1013 -159 -563 0
-1013 -159 -510 0
-1013 -159 -534 0
-1013 -159 -558 0
-1013 -159 -516 0
-1013 -159 -540 0
-1013 -159 -564 0
-1013 -159 -511 0
-1013 -159 -535 0
-1013 -159 -559 0
-1013 -159 -517 0
-1013 -159 -541 0
-1013 -159 -565 0
-1013 -160 -515 0
-1013 -160 -539 0
-1013 -160 -563 0
-1013 -160 -516 0
-1013 -160 -540 0
-1013 -160 -564 0
-1013 -160 -517 0
-1013 -160 -541 0
-1013 -160 -565 0
-1013 -161 0
-1013 105 0
-1013 -158 183 0
-1013 -159 184 0
-1013 -160 185 0
-1013 -203 0
-1014 201 0
-1014 -81 -162 -167 0
-1014 -81 -163 -168 0
-1014 -81 -164 -169 0
-1014 76 77 78 0
-1014 -76 -162 1111 572 0
-1014 -76 -163 1111 578 0
-1014 -76 -164 1111 584 0
-1014 -76 -162 1112 573 0
-1014 -76 -163 1112 579 0
-1014 -76 -164 1112 585 0
-1014 -77 -162 1112 573 0
-1014 -77 -163 1112 579 0
-1014 -77 -164 1112 585 0
-1014 -77 -162 1113 574 0
-1014 -77 -163 1113 580 0
-1014 -77 -164 1113 586 0
-1014 -78 -162 1113 574 0
-1014 -78 -163 1113 580 0
-1014 -78 -164 1113 586 0
-1014 -162 -500 0
-1014 -162 -524 0
-1014 -162 -548 0
-1014 -162 -506 0
-1014 -162 -530 0
-1014 -162 -554 0
-1014 -162 -512 0
-1014 -162 -536 0
-1014 -162 -560 0
-1014 -162 -501 0
-1014 -162 -525 0
-1014 -162 -549 0
-1014 -162 -507 0
-1014 -162 -531 0
-1014 -162 -555 0
-1014 -162 -513 0
-1014 -162 -537 0
-1014 -162 -561 0
-1014 -162 -502 0
-1014 -162 -526 0
-1014 -162 -550 0
-1014 -162 -508 0
-1014 -162 -532 0
-1014 -162 -556 0
-1014 -162 -514 0
-1014 -162 -538 0
-1014 -162 -562 0
-1014 -163 -506 0
-1014 -163 -530 0
-1014 -163 -554 0
-1014 -163 -512 0
-1014 -163 -536 0
-1014 -163 -560 0
-1014 -163 -507 0
-1014 -163 -531 0
-1014 -163 -555 0
-1014 -163 -513 0
-1014 -163 -537 0
-1014 -163 -561 0
-1014 -163 -508 0
-1014 -163 -532 0
-1014 -163 -556 0
-1014 -163 -514 0
-1014 -163 -538 0
-1014 -163 -562 0
-1014 -164 -512 0
-1014 -164 -536 0
-1014 -164 -560 0
-1014 -164 -513 0
-1014 -164 -537 0
-1014 -164 -561 0
-1014 -164 -514 0
-1014 -164 -538 0
-1014 -164 -562 0
-1014 -165 0
-1014 102 0
-1014 -162 183 0
-1014 -163 184 0
-1014 -164 185 0
-1014 -204 0
-1015 201 0
-1015 -82 -162 -167 0
-1015 -82 -163 -168 0
-1015 -82 -164 -169 0
-1015 76 77 78 79 0
-1015 -76 -162 1112 573 0
-1015 -76 -163 1112 579 0
-1015 -76 -164 1112 585 0
-1015 -77 -162 1112 573 0
-1015 -77 -163 1112 579 0
-1015 -77 -164 1112 585 0
-1015 -77 -162 1113 574 0
-1015 -77 -163 1113 580 0
-1015 -77 -164 1113 586 0
-1015 -78 -162 1113 574 0
-1015 -78 -163 1113 580 0
-1015 -78 -164 1113 586 0
-1015 -78 -162 1114 575 0
-1015 -78 -163 1114 581 0
-1015 -78 -164 1114 587 0
-1015 -79 -162 1114 575 0
-1015 -79 -163 1114 581 0
-1015 -79 -164 1114 587 0
-1015 -162 -501 0
-1015 -162 -525 0
-1015 -162 -549 0
-1015 -162 -507 0
-1015 -162 -531 0
-1015 -162 -555 0
-1015 -162 -513 0
-1015 -162 -537 0
-1015 -162 -561 0
-1015 -162 -502 0
-1015 -162 -526 0
-1015 -162 -550 0
-1015 -162 -508 0
-1015 -162 -532 0
-1015 -162 -556 0
-1015 -162 -514 0
-1015 -162 -538 0
-1015 -162 -562 0
-1015 -162 -503 0
-1015 -162 -527 0
-1015 -162 -551 0
-1015 -162 -509 0
-1015 -162 -533 0
-1015 -162 -557 0
-1015 -162 -515 0
-1015 -162 -539 0
-1015 -162 -563 0
-1015 -163 -507 0
-1015 -163 -531 0
-1015 -163 -555 0
-1015 -163 -513 0
-1015 -163 -537 0
-1015 -163 -561 0
-1015 -163 -508 0
-1015 -163 -532 0
-1015 -163 -556 0
-1015 -163 -514 0
-1015 -163 -538 0
-1015 -163 -562 0
-1015 -163 -509 0
-1015 -163 -533 0
-1015 -163 -557 0
-1015 -163 -515 0
-1015 -163 -539 0
-1015 -163 -563 0
-1015 -164 -513 0
-1015 -164 -537 0
-1015 -164 -561 0
-1015 -164 -514 0
-1015 -164 -538 0
-1015 -164 -562 0
-1015 -164 -515 0
-1015 -164 -539 0
-1015 -164 -563 0
-1015 -165 0
-1015 103 0
-1015 -162 183 0
-1015 -163 184 0
-1015 -164 185 0
-1015 -204 0
-1016 201 0
-1016 -83 -162 -167 0
-1016 -83 -163 -168 0
-1016 -83 -164 -169 0
-1016 77 78 79 80 0
-1016 -77 -162 1113 574 0
-1016 -77 -163 1113 580 0
-1016 -77 -164 1113 586 0
-1016 -78 -162 1113 574 0
-1016 -78 -163 1113 580 0
-1016 -78 -164 1113 586 0
-1016 -78 -162 1114 575 0
-1016 -78 -163 1114 581 0
-1016 -78 -164 1114 587 0
-1016 -79 -162 1114 575 0
-1016 -79 -163 1114 581 0
-1016 -79 -164 1114 587 0
-1016 -79 -162 1115 576 0
-1016 -79 -163 1115 582 0
-1016 -79 -164 1115 588 0
-1016 -80 -162 1115 576 0
-1016 -80 -163 1115 582 0
-1016 -80 -164 1115 588 0
-1016 -162 -502 0
-1016 -162 -526 0
-1016 -162 -550 0
-1016 -162 -508 0
-1016 -162 -532 0
-1016 -162 -556 0
-1016 -162 -514 0
-1016 -162 -538 0
-1016 -162 -562 0
-1016 -162 -503 0
-1016 -162 -527 0
-1016 -162 -551 0
-1016 -162 -509 0
-1016 -162 -533 0
-1016 -162 -557 0
-1016 -162 -515 0
-1016 -162 -539 0
-1016 -162 -563 0
-1016 -162 -504 0
-1016 -162 -528 0
-1016 -162 -552 0
-1016 -162 -510 0
-1016 -162 -534 0
-1016 -162 -558 0
-1016 -162 -516 0
-1016 -162 -540 0
-1016 -162 -564 0
-1016 -163 -508 0
-1016 -163 -532 0
-1016 -163 -556 0
-1016 -163 -514 0
-1016 -163 -538 0
-1016 -163 -562 0
-1016 -163 -509 0
-1016 -163 -533 0
-1016 -163 -557 0
-1016 -163 -515 0
-1016 -163 -539 0
-1016 -163 -563 0
-1016 -163 -510 0
-1016 -163 -534 0
-1016 -163 -558 0
-1016 -163 -516 0
-1016 -163 -540 0
-1016 -163 -564 0
-1016 -164 -514 0
-1016 -164 -538 0
-1016 -164 -562 0
-1016 -164 -515 0
-1016 -164 -539 0
-1016 -164 -563 0
-1016 -164 -516 0
-1016 -164 -540 0
-1016 -164 -564 0
-1016 -165 0
-1016 104 0
-1016 -162 183 0
-1016 -163 184 0
-1016 -164 185 0
-1016 -204 0
-1017 201 0
-1017 -84 -162 -167 0
-1017 -84 -163 -168 0
-1017 -84 -164 -169 0
-1017 78 79 80 0
-1017 -78 -162 1114 575 0
-1017 -78 -163 1114 581 0
-1017 -78 -164 1114 587 0
-1017 -79 -162 1114 575 0
-1017 -79 -163 1114 581 0
-1017 -79 -164 1114 587 0
-1017 -79 -162 1115 576 0
-1017 -79 -163 1115 582 0
-1017 -79 -164 1115 588 0
-1017 -80 -162 1115 576 0
-1017 -80 -163 1115 582 0
-1017 -80 -164 1115 588 0
-1017 -80 -162 1116 577 0
-1017 -80 -163 1116 583 0
-1017 -80 -164 1116 589 0
-1017 -162 -503 0
-1017 -162 -527 0
-1017 -162 -551 0
-1017 -162 -509 0
-1017 -162 -533 0
-1017 -162 -557 0
-1017 -162 -515 0
-1017 -162 -539 0
-1017 -162 -563 0
-1017 -162 -504 0
-1017 -162 -528 0
-1017 -162 -552 0
-1017 -162 -510 0
-1017 -162 -534 0
-1017 -162 -558 0
-1017 -162 -516 0
-1017 -162 -540 0
-1017 -162 -564 0
-1017 -162 -505 0
-1017 -162 -529 0
-1017 -162 -553 0
-1017 -162 -511 0
-1017 -162 -535 0
-1017 -162 -559 0
-1017 -162 -517 0
-1017 -162 -541 0
-1017 -162 -565 0
-1017 -163 -509 0
-1017 -163 -533 0
-1017 -163 -557 0
-1017 -163 -515 0
-1017 -163 -539 0
-1017 -163 -563 0
-1017 -163 -510 0
-1017 -163 -534 0
-1017 -163 -558 0
-1017 -163 -516 0
-1017 -163 -540 0
-1017 -163 -564 0
-1017 -163 -511 0
-1017 -163 -535 0
-1017 -163 -559 0
-1017 -163 -517 0
-1017 -163 -541 0
-1017 -163 -565 0
-1017 -164 -515 0
-1017 -164 -539 0
-1017 -164 -563 0
-1017 -164 -516 0
-1017 -164 -540 0
-1017 -164 -564 0
-1017 -164 -517 0
-1017 -164 -541 0
-1017 -164 -565 0
-1017 -165 0
-1017 105 0
-1017 -162 183 0
-1017 -163 184 0
-1017 -164 185 0
-1017 -204 0
-1018 201 0
-1018 -81 -166 0
-1018 -494 0
-1018 -518 0
-1018 -542 0
-1018 -500 0
-1018 -524 0
-1018 -548 0
-1018 -506 0
-1018 -530 0
-1018 -554 0
-1018 -512 0
-1018 -536 0
-1018 -560 0
-1018 -495 0
-1018 -519 0
-1018 -543 0
-1018 -501 0
-1018 -525 0
-1018 -549 0
-1018 -507 0
-1018 -531 0
-1018 -555 0
-1018 -513 0
-1018 -537 0
-1018 -561 0
-1018 -496 0
-1018 -520 0
-1018 -544 0
-1018 -502 0
-1018 -526 0
-1018 -550 0
-1018 -508 0
-1018 -532 0
-1018 -556 0
-1018 -514 0
-1018 -538 0
-1018 -562 0
-1018 102 0
-1018 182 0
-1019 201 0
-1019 -82 -166 0
-1019 -495 0
-1019 -519 0
-1019 -543 0
-1019 -501 0
-1019 -525 0
-1019 -549 0
-1019 -507 0
-1019 -531 0
-1019 -555 0
-1019 -513 0
-1019 -537 0
-1019 -561 0
-1019 -496 0
-1019 -520 0
-1019 -544 0
-1019 -502 0
-1019 -526 0
-1019 -550 0
-1019 -508 0
-1019 -532 0
-1019 -556 0
-1019 -514 0
-1019 -538 0
-1019 -562 0
-1019 -497 0
-1019 -521 0
-1019 -545 0
-1019 -503 0
-1019 -527 0
-1019 -551 0
-1019 -509 0
-1019 -533 0
-1019 -557 0
-1019 -515 0
-1019 -539 0
-1019 -563 0
-1019 103 0
-1019 182 0
-1020 201 0
-1020 -83 -166 0
-1020 -496 0
-1020 -520 0
-1020 -544 0
-1020 -502 0
-1020 -526 0
-1020 -550 0
-1020 -508 0
-1020 -532 0
-1020 -556 0
-1020 -514 0
-1020 -538 0
-1020 -562 0
-1020 -497 0
-1020 -521 0
-1020 -545 0
-1020 -503 0
-1020 -527 0
-1020 -551 0
-1020 -509 0
-1020 -533 0
-1020 -557 0
-1020 -515 0
-1020 -539 0
-1020 -563 0
-1020 -498 0
-1020 -522 0
-1020 -546 0
-1020 -504 0
-1020 -528 0
-1020 -552 0
-1020 -510 0
-1020 -534 0
-1020 -558 0
-1020 -516 0
-1020 -540 0
-1020 -564 0
-1020 104 0
-1020 182 0
-1021 201 0
-1021 -84 -166 0
-1021 -497 0
-1021 -521 0
-1021 -545 0
-1021 -503 0
-1021 -527 0
-1021 -551 0
-1021 -509 0
-1021 -533 0
-1021 -557 0
-1021 -515 0
-1021 -539 0
-1021 -563 0
-1021 -498 0
-1021 -522 0
-1021 -546 0
-1021 -504 0
-1021 -528 0
-1021 -552 0
-1021 -510 0
-1021 -534 0
-1021 -558 0
-1021 -516 0
-1021 -540 0
-1021 -564 0
-1021 -499 0
-1021 -523 0
-1021 -547 0
-1021 -505 0
-1021 -529 0
-1021 -553 0
-1021 -511 0
-1021 -535 0
-1021 -559 0
-1021 -517 0
-1021 -541 0
-1021 -565 0
-1021 105 0
-1021 182 0
64 -85 938 939 940 941 942 943 944 945 946 947 948 949 950 951 952 953 954 955 956 957 958 959 960 961 0
-64 85 938 939 940 941 942 943 944 945 946 947 948 949 950 951 952 953 954 955 956 957 958 959 960 961 0
65 -86 938 939 940 941 942 943 944 945 946 947 948 949 950 951 952 953 954 955 956 957 958 959 960 961 0
-65 86 938 939 940 941 942 943 944 945 946 947 948 949 950 951 952 953 954 955 956 957 958 959 960 961 0
66 -87 938 939 940 941 942 943 944 945 946 947 948 949 950 951 952 953 954 955 956 957 958 959 960 961 0
-66 87 938 939 940 941 942 943 944 945 946 947 948 949 950 951 952 953 954 955 956 957 958 959 960 961 0
67 -88 938 939 940 941 942 943 944 945 946 947 948 949 950 951 952 953 954 955 956 957 958 959 960 961 0
-67 88 938 939 940 941 942 943 944 945 946 947 948 949 950 951 952 953 954 955 956 957 958 959 960 961 0
68 -89 938 939 940 941 942 943 944 945 946 947 948 949 950 951 952 953 954 955 956 957 958 959 960 961 0
-68 89 938 939 940 941 942 943 944 945 946 947 948 949 950 951 952 953 954 955 956 957 958 959 960 961 0
69 -90 938 939 940 941 942 943 944 945 946 947 948 949 950 951 952 953 954 955 956 957 958 959 960 961 0
-69 90 938 939 940 941 942 943 944 945 946 947 948 949 950 951 952 953 954 955 956 957 958 959 960 961 0
154 -170 938 939 940 941 942 943 944 945 946 947 948 949 950 951 952 953 954 955 956 957 958 959 960 961 0
-154 170 938 939 940 941 942 943 944 945 946 947 948 949 950 951 952 953 954 955 956 957 958 959 960 961 0
155 -171 938 939 940 941 942 943 944 945 946 947 948 949 950 951 952 953 954 955 956 957 958 959 960 961 0
-155 171 938 939 940 941 942 943 944 945 946 947 948 949 950 951 952 953 954 955 956 957 958 959 960 961 0
156 -172 938 939 940 941 942 943 944 945 946 947 948 949 950 951 952 953 954 955 956 957 958 959 960 961 0
-156 172 938 939 940 941 942 943 944 945 946 947 948 949 950 951 952 953 954 955 956 957 958 959 960 961 0
157 -173 938 939 940 941 942 943 944 945 946 947 948 949 950 951 952 953 954 955 956 957 958 959 960 961 0
-157 173 938 939 940 941 942 943 944 945 946 947 948 949 950 951 952 953 954 955 956 957 958 959 960 961 0
70 -91 962 963 964 965 966 967 968 969 970 971 972 973 974 975 976 977 978 979 980 981 982 983 984 985 0
-70 91 962 963 964 965 966 967 968 969 970 971 972 973 974 975 976 977 978 979 980 981 982 983 984 985 0
71 -92 962 963 964 965 966 967 968 969 970 971 972 973 974 975 976 977 978 979 980 981 982 983 984 985 0
-71 92 962 963 964 965 966 967 968 969 970 971 972 973 974 975 976 977 978 979 980 981 982 983 984 985 0
72 -93 962 963 964 965 966 967 968 969 970 971 972 973 974 975 976 977 978 979 980 981 982 983 984 985 0
-72 93 962 963 964 965 966 967 968 969 970 971 972 973 974 975 976 977 978 979 980 981 982 983 984 985 0
73 -94 962 963 964 965 966 967 968 969 970 971 972 973 974 975 976 977 978 979 980 981 982 983 984 985 0
-73 94 962 963 964 965 966 967 968 969 970 971 972 973 974 975 976 977 978 979 980 981 982 983 984 985 0
74 -95 962 963 964 965 966 967 968 969 970 971 972 973 974 975 976 977 978 979 980 981 982 983 984 985 0
-74 95 962 963 964 965 966 967 968 969 970 971 972 973 974 975 976 977 978 979 980 981 982 983 984 985 0
75 -96 962 963 964 965 966 967 968 969 970 971 972 973 974 975 976 977 978 979 980 981 982 983 984 985 0
-75 96 962 963 964 965 966 967 968 969 970 971 972 973 974 975 976 977 978 979 980 981 982 983 984 985 0
158 -174 962 963 964 965 966 967 968 969 970 971 972 973 974 975 976 977 978 979 980 981 982 983 984 985 0
-158 174 962 963 964 965 966 967 968 969 970 971 972 973 974 975 976 977 978 979 980 981 982 983 984 985 0
159 -175 962 963 964 965 966 967 968 969 970 971 972 973 974 975 976 977 978 979 980 981 982 983 984 985 0
-159 175 962 963 964 965 966 967 968 969 970 971 972 973 974 975 976 977 978 979 980 981 982 983 984 985 0
160 -176 962 963 964 965 966 967 968 969 970 971 972 973 974 975 976 977 978 979 980 981 982 983 984 985 0
-160 176 962 963 964 965 966 967 968 969 970 971 972 973 974 975 976 977 978 979 980 981 982 983 984 985 0
161 -177 962 963 964 965 966 967 968 969 970 971 972 973 974 975 976 977 978 979 980 981 982 983 984 985 0
-161 177 962 963 964 965 966 967 968 969 970 971 972 973 974 975 976 977 978 979 980 981 982 983 984 985 0
76 -97 986 987 988 989 990 991 992 993 994 995 996 997 998 999 1000 1001 1002 1003 1004 1005 0
-76 97 986 987 988 989 990 991 992 993 994 995 996 997 998 999 1000 1001 1002 1003 1004 1005 0
77 -98 986 987 988 989 990 991 992 993 994 995 996 997 998 999 1000 1001 1002 1003 1004 1005 0
-77 98 986 987 988 989 990 991 992 993 994 995 996 997 998 999 1000 1001 1002 1003 1004 1005 0
78 -99 986 987 988 989 990 991 992 993 994 995 996 997 998 999 1000 1001 1002 1003 1004 1005 0
-78 99 986 987 988 989 990 991 992 993 994 995 996 997 998 999 1000 1001 1002 1003 1004 1005 0
79 -100 986 987 988 989 990 991 992 993 994 995 996 997 998 999 1000 1001 1002 1003 1004 1005 0
-79 100 986 987 988 989 990 991 992 993 994 995 996 997 998 999 1000 1001 1002 1003 1004 1005 0
80 -101 986 987 988 989 990 991 992 993 994 995 996 997 998 999 1000 1001 1002 1003 1004 1005 0
-80 101 986 987 988 989 990 991 992 993 994 995 996 997 998 999 1000 1001 1002 1003 1004 1005 0
162 -178 986 987 988 989 990 991 992 993 994 995 996 997 998 999 1000 1001 1002 1003 1004 1005 0
-162 178 986 987 988 989 990 991 992 993 994 995 996 997 998 999 1000 1001 1002 1003 1004 1005 0
163 -179 986 987 988 989 990 991 992 993 994 995 996 997 998 999 1000 1001 1002 1003 1004 1005 0
-163 179 986 987 988 989 990 991 992 993 994 995 996 997 998 999 1000 1001 1002 1003 1004 1005 0
164 -180 986 987 988 989 990 991 992 993 994 995 996 997 998 999 1000 1001 1002 1003 1004 1005 0
-164 180 986 987 988 989 990 991 992 993 994 995 996 997 998 999 1000 1001 1002 1003 1004 1005 0
165 -181 986 987 988 989 990 991 992 993 994 995 996 997 998 999 1000 1001 1002 1003 1004 1005 0
-165 181 986 987 988 989 990 991 992 993 994 995 996 997 998 999 1000 1001 1002 1003 1004 1005 0
81 -102 1006 1007 1008 1009 1010 1011 1012 1013 1014 1015 1016 1017 1018 1019 1020 1021 0
-81 102 1006 1007 1008 1009 1010 1011 1012 1013 1014 1015 1016 1017 1018 1019 1020 1021 0
82 -103 1006 1007 1008 1009 1010 1011 1012 1013 1014 1015 1016 1017 1018 1019 1020 1021 0
-82 103 1006 1007 1008 1009 1010 1011 1012 1013 1014 1015 1016 1017 1018 1019 1020 1021 0
83 -104 1006 1007 1008 1009 1010 1011 1012 1013 1014 1015 1016 1017 1018 1019 1020 1021 0
-83 104 1006 1007 1008 1009 1010 1011 1012 1013 1014 1015 1016 1017 1018 1019 1020 1021 0
84 -105 1006 1007 1008 1009 1010 1011 1012 1013 1014 1015 1016 1017 1018 1019 1020 1021 0
-84 105 1006 1007 1008 1009 1010 1011 1012 1013 1014 1015 1016 1017 1018 1019 1020 1021 0
166 -182 1006 1007 1008 1009 1010 1011 1012 1013 1014 1015 1016 1017 1018 1019 1020 1021 0
-166 182 1006 1007 1008 1009 1010 1011 1012 1013 1014 1015 1016 1017 1018 1019 1020 1021 0
167 -183 1006 1007 1008 1009 1010 1011 1012 1013 1014 1015 1016 1017 1018 1019 1020 1021 0
-167 183 1006 1007 1008 1009 1010 1011 1012 1013 1014 1015 1016 1017 1018 1019 1020 1021 0
168 -184 1006 1007 1008 1009 1010 1011 1012 1013 1014 1015 1016 1017 1018 1019 1020 1021 0
-168 184 1006 1007 1008 1009 1010 1011 1012 1013 1014 1015 1016 1017 1018 1019 1020 1021 0
169 -185 1006 1007 1008 1009 1010 1011 1012 1013 1014 1015 1016 1017 1018 1019 1020 1021 0
-169 185 1006 1007 1008 1009 1010 1011 1012 1013 1014 1015 1016 1017 1018 1019 1020 1021 0
938 939 940 941 942 943 944 945 946 947 948 949 950 951 952 953 954 955 956 957 958 959 960 961 962 963 964 965 966 967 968 969 970 971 972 973 974 975 976 977 978 979 980 981 982 983 984 985 986 987 988 989 990 991 992 993 994 995 996 997 998 999 1000 1001 1002 1003 1004 1005 1006 1007 1008 1009 1010 1011 1012 1013 1014 1015 1016 1017 1018 1019 1020 1021 0
-938 -939 0
-938 -940 0
-938 -941 0
-938 -942 0
-938 -943 0
-938 -944 0
-938 -945 0
-938 -946 0
-938 -947 0
-938 -948 0
-938 -949 0
-938 -950 0
-938 -951 0
-938 -952 0
-938 -953 0
-938 -954 0
-938 -955 0
-938 -956 0
-938 -957 0
-938 -958 0
-938 -959 0
-938 -960 0
-938 -961 0
-938 -962 0
-938 -963 0
-938 -964 0
-938 -965 0
-938 -966 0
-938 -967 0
-938 -968 0
-938 -969 0
-938 -970 0
-938 -971 0
-938 -972 0
-938 -973 0
-938 -974 0
-938 -975 0
-938 -976 0
-938 -977 0
-938 -978 0
-938 -979 0
-938 -980 0
-938 -981 0
-938 -982 0
-938 -983 0
-938 -984 0
-938 -985 0
-938 -986 0
-938 -987 0
-938 -988 0
-938 -989 0
-938 -990 0
-938 -991 0
-938 -992 0
-938 -993 0
-938 -994 0
-938 -995 0
-938 -996 0
-938 -997 0
-938 -998 0
-938 -999 0
-938 -1000 0
-938 -1001 0
-938 -1002 0
-938 -1003 0
-938 -1004 0
-938 -1005 0
-938 -1006 0
-938 -1007 0
-938 -1008 0
-938 -1009 0
-938 -1010 0
-938 -1011 0
-938 -1012 0
-938 -1013 0
-938 -1014 0
-938 -1015 0
-938 -1016 0
-938 -1017 0
-938 -1018 0
-938 -1019 0
-938 -1020 0
-938 -1021 0
-939 -940 0
-939 -941 0
-939 -942 0
-939 -943 0
-939 -944 0
-939 -945 0
-939 -946 0
-939 -947 0
-939 -948 0
-939 -949 0
-939 -950 0
-939 -951 0
-939 -952 0
-939 -953 0
-939 -954 0
-939 -955 0
-939 -956 0
-939 -957 0
-939 -958 0
-939 -959 0
-939 -960 0
-939 -961 0
-939 -962 0
-939 -963 0
-939 -964 0
-939 -965 0
-939 -966 0
-939 -967 0
-939 -968 0
-939 -969 0
-939 -970 0
-939 -971 0
-939 -972 0
-939 -973 0
-939 -974 0
-939 -975 0
-939 -976 0
-939 -977 0
-939 -978 0
-939 -979 0
-939 -980 0
-939 -981 0
-939 -982 0
-939 -983 0
-939 -984 0
-939 -985 0
-939 -986 0
-939 -987 0
-939 -988 0
-939 -989 0
-939 -990 0
-939 -991 0
-939 -992 0
-939 -993 0
-939 -994 0
-939 -995 0
-939 -996 0
-939 -997 0
-939 -998 0
-939 -999 0
-939 -1000 0
-939 -1001 0
-939 -1002 0
-939 -1003 0
-939 -1004 0
-939 -1005 0
-939 -1006 0
-939 -1007 0
-939 -1008 0
-939 -1009 0
-939 -1010 0
-939 -1011 0
-939 -1012 0
-939 -1013 0
-939 -1014 0
-939 -1015 0
-939 -1016 0
-939 -1017 0
-939 -1018 0
-939 -1019 0
-939 -1020 0
-939 -1021 0
-940 -941 0
-940 -942 0
-940 -943 0
-940 -944 0
-940 -945 0
-940 -946 0
-940 -947 0
-940 -948 0
-940 -949 0
-940 -950 0
-940 -951 0
-940 -952 0
-940 -953 0
-940 -954 0
-940 -955 0
-940 -956 0
-940 -957 0
-940 -958 0
-940 -959 0
-940 -960 0
-940 -961 0
-940 -962 0
-940 -963 0
-940 -964 0
-940 -965 0
-940 -966 0
-940 -967 0
-940 -968 0
-940 -969 0
-940 -970 0
-940 -971 0
-940 -972 0
-940 -973 0
-940 -974 0
-940 -975 0
-940 -976 0
-940 -977 0
-940 -978 0
-940 -979 0
-940 -980 0
-940 -981 0
-940 -982 0
-940 -983 0
-940 -984 0
-940 -985 0
-940 -986 0
-940 -987 0
-940 -988 0
-940 -989 0
-940 -990 0
-940 -991 0
-940 -992 0
-940 -993 0
-940 -994 0
-940 -995 0
-940 -996 0
-940 -997 0
-940 -998 0
-940 -999 0
-940 -1000 0
-940 -1001 0
-940 -1002 0
-940 -1003 0
-940 -1004 0
-940 -1005 0
-940 -1006 0
-940 -1007 0
-940 -1008 0
-940 -1009 0
-940 -1010 0
-940 -1011 0
-940 -1012 0
-940 -1013 0
-940 -1014 0
-940 -1015 0
-940 -1016 0
-940 -1017 0
-940 -1018 0
-940 -1019 0
-940 -1020 0
-940 -1021 0
-941 -942 0
-941 -943 0
-941 -944 0
-941 -945 0
-941 -946 0
-941 -947 0
-941 -948 0
-941 -949 0
-941 -950 0
-941 -951 0
-941 -952 0
-941 -953 0
-941 -954 0
-941 -955 0
-941 -956 0
-941 -957 0
-941 -958 0
-941 -959 0
-941 -960 0
-941 -961 0
-941 -962 0
-941 -963 0
-941 -964 0
-941 -965 0
-941 -966 0
-941 -967 0
-941 -968 0
-941 -969 0
-941 -970 0
-941 -971 0
-941 -972 0
-941 -973 0
-941 -974 0
-941 -975 0
-941 -976 0
-941 -977 0
-941 -978 0
-941 -979 0
-941 -980 0
-941 -981 0
-941 -982 0
-941 -983 0
-941 -984 0
-941 -985 0
-941 -986 0
-941 -987 0
-941 -988 0
-941 -989 0
-941 -990 0
-941 -991 0
-941 -992 0
-941 -993 0
-941 -994 0
-941 -995 0
-941 -996 0
-941 -997 0
-941 -998 0
-941 -999 0
-941 -1000 0
-941 -1001 0
-941 -1002 0
-941 -1003 0
-941 -1004 0
-941 -1005 0
-941 -1006 0
-941 -1007 0
-941 -1008 0
-941 -1009 0
-941 -1010 0
-941 -1011 0
-941 -1012 0
-941 -1013 0
-941 -1014 0
-941 -1015 0
-941 -1016 0
-941 -1017 0
-941 -1018 0
-941 -1019 0
-941 -1020 0
-941 -1021 0
-942 -943 0
-942 -944 0
-942 -945 0
-942 -946 0
-942 -947 0
-942 -948 0
-942 -949 0
-942 -950 0
-942 -951 0
-942 -952 0
-942 -953 0
-942 -954 0
-942 -955 0
-942 -956 0
-942 -957 0
-942 -958 0
-942 -959 0
-942 -960 0
-942 -961 0
-942 -962 0
-942 -963 0
-942 -964 0
-942 -965 0
-942 -966 0
-942 -967 0
-942 -968 0
-942 -969 0
-942 -970 0
-942 -971 0
-942 -972 0
-942 -973 0
-942 -974 0
-942 -975 0
-942 -976 0
-942 -977 0
-942 -978 0
-942 -979 0
-942 -980 0
-942 -981 0
-942 -982 0
-942 -983 0
-942 -984 0
-942 -985 0
-942 -986 0
-942 -987 0
-942 -988 0
-942 -989 0
-942 -990 0
-942 -991 0
-942 -992 0
-942 -993 0
-942 -994 0
-942 -995 0
-942 -996 0
-942 -997 0
-942 -998 0
-942 -999 0
-942 -1000 0
-942 -1001 0
-942 -1002 0
-942 -1003 0
-942 -1004 0
-942 -1005 0
-942 -1006 0
-942 -1007 0
-942 -1008 0
-942 -1009 0
-942 -1010 0
-942 -1011 0
-942 -1012 0
-942 -1013 0
-942 -1014 0
-942 -1015 0
-942 -1016 0
-942 -1017 0
-942 -1018 0
-942 -1019 0
-942 -1020 0
-942 -1021 0
-943 -944 0
-943 -945 0
-943 -946 0
-943 -947 0
-943 -948 0
-943 -949 0
-943 -950 0
-943 -951 0
-943 -952 0
-943 -953 0
-943 -954 0
-943 -955 0
-943 -956 0
-943 -957 0
-943 -958 0
-943 -959 0
-943 -960 0
-943 -961 0
-943 -962 0
-943 -963 0
-943 -964 0
-943 -965 0
-943 -966 0
-943 -967 0
-943 -968 0
-943 -969 0
-943 -970 0
-943 -971 0
-943 -972 0
-943 -973 0
-943 -974 0
-943 -975 0
-943 -976 0
-943 -977 0
-943 -978 0
-943 -979 0
-943 -980 0
-943 -981 0
-943 -982 0
-943 -983 0
-943 -984 0
-943 -985 0
-943 -986 0
-943 -987 0
-943 -988 0
-943 -989 0
-943 -990 0
-943 -991 0
-943 -992 0
-943 -993 0
-943 -994 0
-943 -995 0
-943 -996 0
-943 -997 0
-943 -998 0
-943 -999 0
-943 -1000 0
-943 -1001 0
-943 -1002 0
-943 -1003 0
-943 -1004 0
-943 -1005 0
-943 -1006 0
-943 -1007 0
-943 -1008 0
-943 -1009 0
-943 -1010 0
-943 -1011 0
-943 -1012 0
-943 -1013 0
-943 -1014 0
-943 -1015 0
-943 -1016 0
-943 -1017 0
-943 -1018 0
-943 -1019 0
-943 -1020 0
-943 -1021 0
-944 -945 0
-944 -946 0
-944 -947 0
-944 -948 0
-944 -949 0
-944 -950 0
-944 -951 0
-944 -952 0
-944 -953 0
-944 -954 0
-944 -955 0
-944 -956 0
-944 -957 0
-944 -958 0
-944 -959 0
-944 -960 0
-944 -961 0
-944 -962 0
-944 -963 0
-944 -964 0
-944 -965 0
-944 -966 0
-944 -967 0
-944 -968 0
-944 -969 0
-944 -970 0
-944 -971 0
-944 -972 0
-944 -973 0
-944 -974 0
-944 -975 0
-944 -976 0
-944 -977 0
-944 -978 0
-944 -979 0
-944 -980 0
-944 -981 0
-944 -982 0
-944 -983 0
-944 -984 0
-944 -985 0
-944 -986 0
-944 -987 0
-944 -988 0
-944 -989 0
-944 -990 0
-944 -991 0
-944 -992 0
-944 -993 0
-944 -994 0
-944 -995 0
-944 -996 0
-944 -997 0
-944 -998 0
-944 -999 0
-944 -1000 0
-944 -1001 0
-944 -1002 0
-944 -1003 0
-944 -1004 0
-944 -1005 0
-944 -1006 0
-944 -1007 0
-944 -1008 0
-944 -1009 0
-944 -1010 0
-944 -1011 0
-944 -1012 0
-944 -1013 0
-944 -1014 0
-944 -1015 0
-944 -1016 0
-944 -1017 0
-944 -1018 0
-944 -1019 0
-944 -1020 0
-944 -1021 0
-945 -946 0
-945 -947 0
-945 -948 0
-945 -949 0
-945 -950 0
-945 -951 0
-945 -952 0
-945 -953 0
-945 -954 0
-945 -955 0
-945 -956 0
-945 -957 0
-945 -958 0
-945 -959 0
-945 -960 0
-945 -961 0
-945 -962 0
-945 -963 0
-945 -964 0
-945 -965 0
-945 -966 0
-945 -967 0
-945 -968 0
-945 -969 0
-945 -970 0
-945 -971 0
-945 -972 0
-945 -973 0
-945 -974 0
-945 -975 0
-945 -976 0
-945 -977 0
-945 -978 0
-945 -979 0
-945 -980 0
-945 -981 0
-945 -982 0
-945 -983 0
-945 -984 0
-945 -985 0
-945 -986 0
-945 -987 0
-945 -988 0
-945 -989 0
-945 -990 0
-945 -991 0
-945 -992 0
-945 -993 0
-945 -994 0
-945 -995 0
-945 -996 0
-945 -997 0
-945 -998 0
-945 -999 0
-945 -1000 0
-945 -1001 0
-945 -1002 0
-945 -1003 0
-945 -1004 0
-945 -1005 0
-945 -1006 0
-945 -1007 0
-945 -1008 0
-945 -1009 0
-945 -1010 0
-945 -1011 0
-945 -1012 0
-945 -1013 0
-945 -1014 0
-945 -1015 0
-945 -1016 0
-945 -1017 0
-945 -1018 0
-945 -1019 0
-945 -1020 0
-945 -1021 0
-946 -947 0
-946 -948 0
-946 -949 0
-946 -950 0
-946 -951 0
-946 -952 0
-946 -953 0
-946 -954 0
-946 -955 0
-946 -956 0
-946 -957 0
-946 -958 0
-946 -959 0
-946 -960 0
-946 -961 0
-946 -962 0
-946 -963 0
-946 -964 0
-946 -965 0
-946 -966 0
-946 -967 0
-946 -968 0
-946 -969 0
-946 -970 0
-946 -971 0
-946 -972 0
-946 -973 0
-946 -974 0
-946 -975 0
-946 -976 0
-946 -977 0
-946 -978 0
-946 -979 0
-946 -980 0
-946 -981 0
-946 -982 0
-946 -983 0
-946 -984 0
-946 -985 0
-946 -986 0
-946 -987 0
-946 -988 0
-946 -989 0
-946 -990 0
-946 -991 0
-946 -992 0
-946 -993 0
-946 -994 0
-946 -995 0
-946 -996 0
-946 -997 0
-946 -998 0
-946 -999 0
-946 -1000 0
-946 -1001 0
-946 -1002 0
-946 -1003 0
-946 -1004 0
-946 -1005 0
-946 -1006 0
-946 -1007 0
-946 -1008 0
-946 -1009 0
-946 -1010 0
-946 -1011 0
-946 -1012 0
-946 -1013 0
-946 -1014 0
-946 -1015 0
-946 -1016 0
-946 -1017 0
-946 -1018 0
-946 -1019 0
-946 -1020 0
-946 -1021 0
-947 -948 0
-947 -949 0
-947 -950 0
-947 -951 0
-947 -952 0
-947 -953 0
-947 -954 0
-947 -955 0
-947 -956 0
-947 -957 0
-947 -958 0
-947 -959 0
-947 -960 0
-947 -961 0
-947 -962 0
-947 -963 0
-947 -964 0
-947 -965 0
-947 -966 0
-947 -967 0
-947 -968 0
-947 -969 0
-947 -970 0
-947 -971 0
-947 -972 0
-947 -973 0
-947 -974 0
-947 -975 0
-947 -976 0
-947 -977 0
-947 -978 0
-947 -979 0
-947 -980 0
-947 -981 0
-947 -982 0
-947 -983 0
-947 -984 0
-947 -985 0
-947 -986 0
-947 -987 0
-947 -988 0
-947 -989 0
-947 -990 0
-947 -991 0
-947 -992 0
-947 -993 0
-947 -994 0
-947 -995 0
-947 -996 0
-947 -997 0
-947 -998 0
-947 -999 0
-947 -1000 0
-947 -1001 0
-947 -1002 0
-947 -1003 0
-947 -1004 0
-947 -1005 0
-947 -1006 0
-947 -1007 0
-947 -1008 0
-947 -1009 0
-947 -1010 0
-947 -1011 0
-947 -1012 0
-947 -1013 0
-947 -1014 0
-947 -1015 0
-947 -1016 0
-947 -1017 0
-947 -1018 0
-947 -1019 0
-947 -1020 0
-947 -1021 0
-948 -949 0
-948 -950 0
-948 -951 0
-948 -952 0
-948 -953 0
-948 -954 0
-948 -955 0
-948 -956 0
-948 -957 0
-948 -958 0
-948 -959 0
-948 -960 0
-948 -961 0
-948 -962 0
-948 -963 0
-948 -964 0
-948 -965 0
-948 -966 0
-948 -967 0
-948 -968 0
-948 -969 0
-948 -970 0
-948 -971 0
-948 -972 0
-948 -973 0
-948 -974 0
-948 -975 0
-948 -976 0
-948 -977 0
-948 -978 0
-948 -979 0
-948 -980 0
-948 -981 0
-948 -982 0
-948 -983 0
-948 -984 0
-948 -985 0
-948 -986 0
-948 -987 0
-948 -988 0
-948 -989 0
-948 -990 0
-948 -991 0
-948 -992 0
-948 -993 0
-948 -994 0
-948 -995 0
-948 -996 0
-948 -997 0
-948 -998 0
-948 -999 0
-948 -1000 0
-948 -1001 0
-948 -1002 0
-948 -1003 0
-948 -1004 0
-948 -1005 0
-948 -1006 0
-948 -1007 0
-948 -1008 0
-948 -1009 0
-948 -1010 0
-948 -1011 0
-948 -1012 0
-948 -1013 0
-948 -1014 0
-948 -1015 0
-948 -1016 0
-948 -1017 0
-948 -1018 0
-948 -1019 0
-948 -1020 0
-948 -1021 0
-949 -950 0
-949 -951 0
-949 -952 0
-949 -953 0
-949 -954 0
-949 -955 0
-949 -956 0
-949 -957 0
-949 -958 0
-949 -959 0
-949 -960 0
-949 -961 0
-949 -962 0
-949 -963 0
-949 -964 0
-949 -965 0
-949 -966 0
-949 -967 0
-949 -968 0
-949 -969 0
-949 -970 0
-949 -971 0
-949 -972 0
-949 -973 0
-949 -974 0
-949 -975 0
-949 -976 0
-949 -977 0
-949 -978 0
-949 -979 0
-949 -980 0
-949 -981 0
-949 -982 0
-949 -983 0
-949 -984 0
-949 -985 0
-949 -986 0
-949 -987 0
-949 -988 0
-949 -989 0
-949 -990 0
-949 -991 0
-949 -992 0
-949 -993 0
-949 -994 0
-949 -995 0
-949 -996 0
-949 -997 0
-949 -998 0
-949 -999 0
-949 -1000 0
-949 -1001 0
-949 -1002 0
-949 -1003 0
-949 -1004 0
-949 -1005 0
-949 -1006 0
-949 -1007 0
-949 -1008 0
-949 -1009 0
-949 -1010 0
-949 -1011 0
-949 -1012 0
-949 -1013 0
-949 -1014 0
-949 -1015 0
-949 -1016 0
-949 -1017 0
-949 -1018 0
-949 -1019 0
-949 -1020 0
-949 -1021 0
-950 -951 0
-950 -952 0
-950 -953 0
-950 -954 0
-950 -955 0
-950 -956 0
-950 -957 0
-950 -958 0
-950 -959 0
-950 -960 0
-950 -961 0
-950 -962 0
-950 -963 0
-950 -964 0
-950 -965 0
-950 -966 0
-950 -967 0
-950 -968 0
-950 -969 0
-950 -970 0
-950 -971 0
-950 -972 0
-950 -973 0
-950 -974 0
-950 -975 0
-950 -976 0
-950 -977 0
-950 -978 0
-950 -979 0
-950 -980 0
-950 -981 0
-950 -982 0
-950 -983 0
-950 -984 0
-950 -985 0
-950 -986 0
-950 -987 0
-950 -988 0
-950 -989 0
-950 -990 0
-950 -991 0
-950 -992 0
-950 -993 0
-950 -994 0
-950 -995 0
-950 -996 0
-950 -997 0
-950 -998 0
-950 -999 0
-950 -1000 0
-950 -1001 0
-950 -1002 0
-950 -1003 0
-950 -1004 0
-950 -1005 0
-950 -1006 0
-950 -1007 0
-950 -1008 0
-950 -1009 0
-950 -1010 0
-950 -1011 0
-950 -1012 0
-950 -1013 0
-950 -1014 0
-950 -1015 0
-950 -1016 0
-950 -1017 0
-950 -1018 0
-950 -1019 0
-950 -1020 0
-950 -1021 0
-951 -952 0
-951 -953 0
-951 -954 0
-951 -955 0
-951 -956 0
-951 -957 0
-951 -958 0
-951 -959 0
-951 -960 0
-951 -961 0
-951 -962 0
-951 -963 0
-951 -964 0
-951 -965 0
-951 -966 0
-951 -967 0
-951 -968 0
-951 -969 0
-951 -970 0
-951 -971 0
-951 -972 0
-951 -973 0
-951 -974 0
-951 -975 0
-951 -976 0
-951 -977 0
-951 -978 0
-951 -979 0
-951 -980 0
-951 -981 0
-951 -982 0
-951 -983 0
-951 -984 0
-951 -985 0
-951 -986 0
-951 -987 0
-951 -988 0
-951 -989 0
-951 -990 0
-951 -991 0
-951 -992 0
-951 -993 0
-951 -994 0
-951 -995 0
-951 -996 0
-951 -997 0
-951 -998 0
-951 -999 0
-951 -1000 0
-951 -1001 0
-951 -1002 0
-951 -1003 0
-951 -1004 0
-951 -1005 0
-951 -1006 0
-951 -1007 0
-951 -1008 0
-951 -1009 0
-951 -1010 0
-951 -1011 0
-951 -1012 0
-951 -1013 0
-951 -1014 0
-951 -1015 0
-951 -1016 0
-951 -1017 0
-951 -1018 0
-951 -1019 0
-951 -1020 0
-951 -1021 0
-952 -953 0
-952 -954 0
-952 -955 0
-952 -956 0
-952 -957 0
-952 -958 0
-952 -959 0
-952 -960 0
-952 -961 0
-952 -962 0
-952 -963 0
-952 -964 0
-952 -965 0
-952 -966 0
-952 -967 0
-952 -968 0
-952 -969 0
-952 -970 0
-952 -971 0
-952 -972 0
-952 -973 0
-952 -974 0
-952 -975 0
-952 -976 0
-952 -977 0
-952 -978 0
-952 -979 0
-952 -980 0
-952 -981 0
-952 -982 0
-952 -983 0
-952 -984 0
-952 -985 0
-952 -986 0
-952 -987 0
-952 -988 0
-952 -989 0
-952 -990 0
-952 -991 0
-952 -992 0
-952 -993 0
-952 -994 0
-952 -995 0
-952 -996 0
-952 -997 0
-952 -998 0
-952 -999 0
-952 -1000 0
-952 -1001 0
-952 -1002 0
-952 -1003 0
-952 -1004 0
-952 -1005 0
-952 -1006 0
-952 -1007 0
-952 -1008 0
-952 -1009 0
-952 -1010 0
-952 -1011 0
-952 -1012 0
-952 -1013 0
-952 -1014 0
-952 -1015 0
-952 -1016 0
-952 -1017 0
-952 -1018 0
-952 -1019 0
-952 -1020 0
-952 -1021 0
-953 -954 0
-953 -955 0
-953 -956 0
-953 -957 0
-953 -958 0
-953 -959 0
-953 -960 0
-953 -961 0
-953 -962 0
-953 -963 0
-953 -964 0
-953 -965 0
-953 -966 0
-953 -967 0
-953 -968 0
-953 -969 0
-953 -970 0
-953 -971 0
-953 -972 0
-953 -973 0
-953 -974 0
-953 -975 0
-953 -976 0
-953 -977 0
-953 -978 0
-953 -979 0
-953 -980 0
-953 -981 0
-953 -982 0
-953 -983 0
-953 -984 0
-953 -985 0
-953 -986 0
-953 -987 0
-953 -988 0
-953 -989 0
-953 -990 0
-953 -991 0
-953 -992 0
-953 -993 0
-953 -994 0
-953 -995 0
-953 -996 0
-953 -997 0
-953 -998 0
-953 -999 0
-953 -1000 0
-953 -1001 0
-953 -1002 0
-953 -1003 0
-953 -1004 0
-953 -1005 0
-953 -1006 0
-953 -1007 0
-953 -1008 0
-953 -1009 0
-953 -1010 0
-953 -1011 0
-953 -1012 0
-953 -1013 0
-953 -1014 0
-953 -1015 0
-953 -1016 0
-953 -1017 0
-953 -1018 0
-953 -1019 0
-953 -1020 0
-953 -1021 0
-954 -955 0
-954 -956 0
-954 -957 0
-954 -958 0
-954 -959 0
-954 -960 0
-954 -961 0
-954 -962 0
-954 -963 0
-954 -964 0
-954 -965 0
-954 -966 0
-954 -967 0
-954 -968 0
-954 -969 0
-954 -970 0
-954 -971 0
-954 -972 0
-954 -973 0
-954 -974 0
-954 -975 0
-954 -976 0
-954 -977 0
-954 -978 0
-954 -979 0
-954 -980 0
-954 -981 0
-954 -982 0
-954 -983 0
-954 -984 0
-954 -985 0
-954 -986 0
-954 -987 0
-954 -988 0
-954 -989 0
-954 -990 0
-954 -991 0
-954 -992 0
-954 -993 0
-954 -994 0
-954 -995 0
-954 -996 0
-954 -997 0
-954 -998 0
-954 -999 0
-954 -1000 0
-954 -1001 0
-954 -1002 0
-954 -1003 0
-954 -1004 0
-954 -1005 0
-954 -1006 0
-954 -1007 0
-954 -1008 0
-954 -1009 0
-954 -1010 0
-954 -1011 0
-954 -1012 0
-954 -1013 0
-954 -1014 0
-954 -1015 0
-954 -1016 0
-954 -1017 0
-954 -1018 0
-954 -1019 0
-954 -1020 0
-954 -1021 0
-955 -956 0
-955 -957 0
-955 -958 0
-955 -959 0
-955 -960 0
-955 -961 0
-955 -962 0
-955 -963 0
-955 -964 0
-955 -965 0
-955 -966 0
-955 -967 0
-955 -968 0
-955 -969 0
-955 -970 0
-955 -971 0
-955 -972 0
-955 -973 0
-955 -974 0
-955 -975 0
-955 -976 0
-955 -977 0
-955 -978 0
-955 -979 0
-955 -980 0
-955 -981 0
-955 -982 0
-955 -983 0
-955 -984 0
-955 -985 0
-955 -986 0
-955 -987 0
-955 -988 0
-955 -989 0
-955 -990 0
-955 -991 0
-955 -992 0
-955 -993 0
-955 -994 0
-955 -995 0
-955 -996 0
-955 -997 0
-955 -998 0
-955 -999 0
-955 -1000 0
-955 -1001 0
-955 -1002 0
-955 -1003 0
-955 -1004 0
-955 -1005 0
-955 -1006 0
-955 -1007 0
-955 -1008 0
-955 -1009 0
-955 -1010 0
-955 -1011 0
-955 -1012 0
-955 -1013 0
-955 -1014 0
-955 -1015 0
-955 -1016 0
-955 -1017 0
-955 -1018 0
-955 -1019 0
-955 -1020 0
-955 -1021 0
-956 -957 0
-956 -958 0
-956 -959 0
-956 -960 0
-956 -961 0
-956 -962 0
-956 -963 0
-956 -964 0
-956 -965 0
-956 -966 0
-956 -967 0
-956 -968 0
-956 -969 0
-956 -970 0
-956 -971 0
-956 -972 0
-956 -973 0
-956 -974 0
-956 -975 0
-956 -976 0
-956 -977 0
-956 -978 0
-956 -979 0
-956 -980 0
-956 -981 0
-956 -982 0
-956 -983 0
-956 -984 0
-956 -985 0
-956 -986 0
-956 -987 0
-956 -988 0
-956 -989 0
-956 -990 0
-956 -991 0
-956 -992 0
-956 -993 0
-956 -994 0
-956 -995 0
-956 -996 0
-956 -997 0
-956 -998 0
-956 -999 0
-956 -1000 0
-956 -1001 0
-956 -1002 0
-956 -1003 0
-956 -1004 0
-956 -1005 0
-956 -1006 0
-956 -1007 0
-956 -1008 0
-956 -1009 0
-956 -1010 0
-956 -1011 0
-956 -1012 0
-956 -1013 0
-956 -1014 0
-956 -1015 0
-956 -1016 0
-956 -1017 0
-956 -1018 0
-956 -1019 0
-956 -1020 0
-956 -1021 0
-957 -958 0
-957 -959 0
-957 -960 0
-957 -961 0
-957 -962 0
-957 -963 0
-957 -964 0
-957 -965 0
-957 -966 0
-957 -967 0
-957 -968 0
-957 -969 0
-957 -970 0
-957 -971 0
-957 -972 0
-957 -973 0
-957 -974 0
-957 -975 0
-957 -976 0
-957 -977 0
-957 -978 0
-957 -979 0
-957 -980 0
-957 -981 0
-957 -982 0
-957 -983 0
-957 -984 0
-957 -985 0
-957 -986 0
-957 -987 0
-957 -988 0
-957 -989 0
-957 -990 0
-957 -991 0
-957 -992 0
-957 -993 0
-957 -994 0
-957 -995 0
-957 -996 0
-957 -997 0
-957 -998 0
-957 -999 0
-957 -1000 0
-957 -1001 0
-957 -1002 0
-957 -1003 0
-957 -1004 0
-957 -1005 0
-957 -1006 0
-957 -1007 0
-957 -1008 0
-957 -1009 0
-957 -1010 0
-957 -1011 0
-957 -1012 0
-957 -1013 0
-957 -1014 0
-957 -1015 0
-957 -1016 0
-957 -1017 0
-957 -1018 0
-957 -1019 0
-957 -1020 0
-957 -1021 0
-958 -959 0
-958 -960 0
-958 -961 0
-958 -962 0
-958 -963 0
-958 -964 0
-958 -965 0
-958 -966 0
-958 -967 0
-958 -968 0
-958 -969 0
-958 -970 0
-958 -971 0
-958 -972 0
-958 -973 0
-958 -974 0
-958 -975 0
-958 -976 0
-958 -977 0
-958 -978 0
-958 -979 0
-958 -980 0
-958 -981 0
-958 -982 0
-958 -983 0
-958 -984 0
-958 -985 0
-958 -986 0
-958 -987 0
-958 -988 0
-958 -989 0
-958 -990 0
-958 -991 0
-958 -992 0
-958 -993 0
-958 -994 0
-958 -995 0
-958 -996 0
-958 -997 0
-958 -998 0
-958 -999 0
-958 -1000 0
-958 -1001 0
-958 -1002 0
-958 -1003 0
-958 -1004 0
-958 -1005 0
-958 -1006 0
-958 -1007 0
-958 -1008 0
-958 -1009 0
-958 -1010 0
-958 -1011 0
-958 -1012 0
-958 -1013 0
-958 -1014 0
-958 -1015 0
-958 -1016 0
-958 -1017 0
-958 -1018 0
-958 -1019 0
-958 -1020 0
-958 -1021 0
-959 -960 0
-959 -961 0
-959 -962 0
-959 -963 0
-959 -964 0
-959 -965 0
-959 -966 0
-959 -967 0
-959 -968 0
-959 -969 0
-959 -970 0
-959 -971 0
-959 -972 0
-959 -973 0
-959 -974 0
-959 -975 0
-959 -976 0
-959 -977 0
-959 -978 0
-959 -979 0
-959 -980 0
-959 -981 0
-959 -982 0
-959 -983 0
-959 -984 0
-959 -985 0
-959 -986 0
-959 -987 0
-959 -988 0
-959 -989 0
-959 -990 0
-959 -991 0
-959 -992 0
-959 -993 0
-959 -994 0
-959 -995 0
-959 -996 0
-959 -997 0
-959 -998 0
-959 -999 0
-959 -1000 0
-959 -1001 0
-959 -1002 0
-959 -1003 0
-959 -1004 0
-959 -1005 0
-959 -1006 0
-959 -1007 0
-959 -1008 0
-959 -1009 0
-959 -1010 0
-959 -1011 0
-959 -1012 0
-959 -1013 0
-959 -1014 0
-959 -1015 0
-959 -1016 0
-959 -1017 0
-959 -1018 0
-959 -1019 0
-959 -1020 0
-959 -1021 0
-960 -961 0
-960 -962 0
-960 -963 0
-960 -964 0
-960 -965 0
-960 -966 0
-960 -967 0
-960 -968 0
-960 -969 0
-960 -970 0
-960 -971 0
-960 -972 0
-960 -973 0
-960 -974 0
-960 -975 0
-960 -976 0
-960 -977 0
-960 -978 0
-960 -979 0
-960 -980 0
-960 -981 0
-960 -982 0
-960 -983 0
-960 -984 0
-960 -985 0
-960 -986 0
-960 -987 0
-960 -988 0
-960 -989 0
-960 -990 0
-960 -991 0
-960 -992 0
-960 -993 0
-960 -994 0
-960 -995 0
-960 -996 0
-960 -997 0
-960 -998 0
-960 -999 0
-960 -1000 0
-960 -1001 0
-960 -1002 0
-960 -1003 0
-960 -1004 0
-960 -1005 0
-960 -1006 0
-960 -1007 0
-960 -1008 0
-960 -1009 0
-960 -1010 0
-960 -1011 0
-960 -1012 0
-960 -1013 0
-960 -1014 0
-960 -1015 0
-960 -1016 0
-960 -1017 0
-960 -1018 0
-960 -1019 0
-960 -1020 0
-960 -1021 0
-961 -962 0
-961 -963 0
-961 -964 0
-961 -965 0
-961 -966 0
-961 -967 0
-961 -968 0
-961 -969 0
-961 -970 0
-961 -971 0
-961 -972 0
-961 -973 0
-961 -974 0
-961 -975 0
-961 -976 0
-961 -977 0
-961 -978 0
-961 -979 0
-961 -980 0
-961 -981 0
-961 -982 0
-961 -983 0
-961 -984 0
-961 -985 0
-961 -986 0
-961 -987 0
-961 -988 0
-961 -989 0
-961 -990 0
-961 -991 0
-961 -992 0
-961 -993 0
-961 -994 0
-961 -995 0
-961 -996 0
-961 -997 0
-961 -998 0
-961 -999 0
-961 -1000 0
-961 -1001 0
-961 -1002 0
-961 -1003 0
-961 -1004 0
-961 -1005 0
-961 -1006 0
-961 -1007 0
-961 -1008 0
-961 -1009 0
-961 -1010 0
-961 -1011 0
-961 -1012 0
-961 -1013 0
-961 -1014 0
-961 -1015 0
-961 -1016 0
-961 -1017 0
-961 -1018 0
-961 -1019 0
-961 -1020 0
-961 -1021 0
-962 -963 0
-962 -964 0
-962 -965 0
-962 -966 0
-962 -967 0
-962 -968 0
-962 -969 0
-962 -970 0
-962 -971 0
-962 -972 0
-962 -973 0
-962 -974 0
-962 -975 0
-962 -976 0
-962 -977 0
-962 -978 0
-962 -979 0
-962 -980 0
-962 -981 0
-962 -982 0
-962 -983 0
-962 -984 0
-962 -985 0
-962 -986 0
-962 -987 0
-962 -988 0
-962 -989 0
-962 -990 0
-962 -991 0
-962 -992 0
-962 -993 0
-962 -994 0
-962 -995 0
-962 -996 0
-962 -997 0
-962 -998 0
-962 -999 0
-962 -1000 0
-962 -1001 0
-962 -1002 0
-962 -1003 0
-962 -1004 0
-962 -1005 0
-962 -1006 0
-962 -1007 0
-962 -1008 0
-962 -1009 0
-962 -1010 0
-962 -1011 0
-962 -1012 0
-962 -1013 0
-962 -1014 0
-962 -1015 0
-962 -1016 0
-962 -1017 0
-962 -1018 0
-962 -1019 0
-962 -1020 0
-962 -1021 0
-963 -964 0
-963 -965 0
-963 -966 0
-963 -967 0
-963 -968 0
-963 -969 0
-963 -970 0
-963 -971 0
-963 -972 0
-963 -973 0
-963 -974 0
-963 -975 0
-963 -976 0
-963 -977 0
-963 -978 0
-963 -979 0
-963 -980 0
-963 -981 0
-963 -982 0
-963 -983 0
-963 -984 0
-963 -985 0
-963 -986 0
-963 -987 0
-963 -988 0
-963 -989 0
-963 -990 0
-963 -991 0
-963 -992 0
-963 -993 0
-963 -994 0
-963 -995 0
-963 -996 0
-963 -997 0
-963 -998 0
-963 -999 0
-963 -1000 0
-963 -1001 0
-963 -1002 0
-963 -1003 0
-963 -1004 0
-963 -1005 0
-963 -1006 0
-963 -1007 0
-963 -1008 0
-963 -1009 0
-963 -1010 0
-963 -1011 0
-963 -1012 0
-963 -1013 0
-963 -1014 0
-963 -1015 0
-963 -1016 0
-963 -1017 0
-963 -1018 0
-963 -1019 0
-963 -1020 0
-963 -1021 0
-964 -965 0
-964 -966 0
-964 -967 0
-964 -968 0
-964 -969 0
-964 -970 0
-964 -971 0
-964 -972 0
-964 -973 0
-964 -974 0
-964 -975 0
-964 -976 0
-964 -977 0
-964 -978 0
-964 -979 0
-964 -980 0
-964 -981 0
-964 -982 0
-964 -983 0
-964 -984 0
-964 -985 0
-964 -986 0
-964 -987 0
-964 -988 0
-964 -989 0
-964 -990 0
-964 -991 0
-964 -992 0
-964 -993 0
-964 -994 0
-964 -995 0
-964 -996 0
-964 -997 0
-964 -998 0
-964 -999 0
-964 -1000 0
-964 -1001 0
-964 -1002 0
-964 -1003 0
-964 -1004 0
-964 -1005 0
-964 -1006 0
-964 -1007 0
-964 -1008 0
-964 -1009 0
-964 -1010 0
-964 -1011 0
-964 -1012 0
-964 -1013 0
-964 -1014 0
-964 -1015 0
-964 -1016 0
-964 -1017 0
-964 -1018 0
-964 -1019 0
-964 -1020 0
-964 -1021 0
-965 -966 0
-965 -967 0
-965 -968 0
-965 -969 0
-965 -970 0
-965 -971 0
-965 -972 0
-965 -973 0
-965 -974 0
-965 -975 0
-965 -976 0
-965 -977 0
-965 -978 0
-965 -979 0
-965 -980 0
-965 -981 0
-965 -982 0
-965 -983 0
-965 -984 0
-965 -985 0
-965 -986 0
-965 -987 0
-965 -988 0
-965 -989 0
-965 -990 0
-965 -991 0
-965 -992 0
-965 -993 0
-965 -994 0
-965 -995 0
-965 -996 0
-965 -997 0
-965 -998 0
-965 -999 0
-965 -1000 0
-965 -1001 0
-965 -1002 0
-965 -1003 0
-965 -1004 0
-965 -1005 0
-965 -1006 0
-965 -1007 0
-965 -1008 0
-965 -1009 0
-965 -1010 0
-965 -1011 0
-965 -1012 0
-965 -1013 0
-965 -1014 0
-965 -1015 0
-965 -1016 0
-965 -1017 0
-965 -1018 0
-965 -1019 0
-965 -1020 0
-965 -1021 0
-966 -967 0
-966 -968 0
-966 -969 0
-966 -970 0
-966 -971 0
-966 -972 0
-966 -973 0
-966 -974 0
-966 -975 0
-966 -976 0
-966 -977 0
-966 -978 0
-966 -979 0
-966 -980 0
-966 -981 0
-966 -982 0
-966 -983 0
-966 -984 0
-966 -985 0
-966 -986 0
-966 -987 0
-966 -988 0
-966 -989 0
-966 -990 0
-966 -991 0
-966 -992 0
-966 -993 0
-966 -994 0
-966 -995 0
-966 -996 0
-966 -997 0
-966 -998 0
-966 -999 0
-966 -1000 0
-966 -1001 0
-966 -1002 0
-966 -1003 0
-966 -1004 0
-966 -1005 0
-966 -1006 0
-966 -1007 0
-966 -1008 0
-966 -1009 0
-966 -1010 0
-966 -1011 0
-966 -1012 0
-966 -1013 0
-966 -1014 0
-966 -1015 0
-966 -1016 0
-966 -1017 0
-966 -1018 0
-966 -1019 0
-966 -1020 0
-966 -1021 0
-967 -968 0
-967 -969 0
-967 -970 0
-967 -971 0
-967 -972 0
-967 -973 0
-967 -974 0
-967 -975 0
-967 -976 0
-967 -977 0
-967 -978 0
-967 -979 0
-967 -980 0
-967 -981 0
-967 -982 0
-967 -983 0
-967 -984 0
-967 -985 0
-967 -986 0
-967 -987 0
-967 -988 0
-967 -989 0
-967 -990 0
-967 -991 0
-967 -992 0
-967 -993 0
-967 -994 0
-967 -995 0
-967 -996 0
-967 -997 0
-967 -998 0
-967 -999 0
-967 -1000 0
-967 -1001 0
-967 -1002 0
-967 -1003 0
-967 -1004 0
-967 -1005 0
-967 -1006 0
-967 -1007 0
-967 -1008 0
-967 -1009 0
-967 -1010 0
-967 -1011 0
-967 -1012 0
-967 -1013 0
-967 -1014 0
-967 -1015 0
-967 -1016 0
-967 -1017 0
-967 -1018 0
-967 -1019 0
-967 -1020 0
-967 -1021 0
-968 -969 0
-968 -970 0
-968 -971 0
-968 -972 0
-968 -973 0
-968 -974 0
-968 -975 0
-968 -976 0
-968 -977 0
-968 -978 0
-968 -979 0
-968 -980 0
-968 -981 0
-968 -982 0
-968 -983 0
-968 -984 0
-968 -985 0
-968 -986 0
-968 -987 0
-968 -988 0
-968 -989 0
-968 -990 0
-968 -991 0
-968 -992 0
-968 -993 0
-968 -994 0
-968 -995 0
-968 -996 0
-968 -997 0
-968 -998 0
-968 -999 0
-968 -1000 0
-968 -1001 0
-968 -1002 0
-968 -1003 0
-968 -1004 0
-968 -1005 0
-968 -1006 0
-968 -1007 0
-968 -1008 0
-968 -1009 0
-968 -1010 0
-968 -1011 0
-968 -1012 0
-968 -1013 0
-968 -1014 0
-968 -1015 0
-968 -1016 0
-968 -1017 0
-968 -1018 0
-968 -1019 0
-968 -1020 0
-968 -1021 0
-969 -970 0
-969 -971 0
-969 -972 0
-969 -973 0
-969 -974 0
-969 -975 0
-969 -976 0
-969 -977 0
-969 -978 0
-969 -979 0
-969 -980 0
-969 -981 0
-969 -982 0
-969 -983 0
-969 -984 0
-969 -985 0
-969 -986 0
-969 -987 0
-969 -988 0
-969 -989 0
-969 -990 0
-969 -991 0
-969 -992 0
-969 -993 0
-969 -994 0
-969 -995 0
-969 -996 0
-969 -997 0
-969 -998 0
-969 -999 0
-969 -1000 0
-969 -1001 0
-969 -1002 0
-969 -1003 0
-969 -1004 0
-969 -1005 0
-969 -1006 0
-969 -1007 0
-969 -1008 0
-969 -1009 0
-969 -1010 0
-969 -1011 0
-969 -1012 0
-969 -1013 0
-969 -1014 0
-969 -1015 0
-969 -1016 0
-969 -1017 0
-969 -1018 0
-969 -1019 0
-969 -1020 0
-969 -1021 0
-970 -971 0
-970 -972 0
-970 -973 0
-970 -974 0
-970 -975 0
-970 -976 0
-970 -977 0
-970 -978 0
-970 -979 0
-970 -980 0
-970 -981 0
-970 -982 0
-970 -983 0
-970 -984 0
-970 -985 0
-970 -986 0
-970 -987 0
-970 -988 0
-970 -989 0
-970 -990 0
-970 -991 0
-970 -992 0
-970 -993 0
-970 -994 0
-970 -995 0
-970 -996 0
-970 -997 0
-970 -998 0
-970 -999 0
-970 -1000 0
-970 -1001 0
-970 -1002 0
-970 -1003 0
-970 -1004 0
-970 -1005 0
-970 -1006 0
-970 -1007 0
-970 -1008 0
-970 -1009 0
-970 -1010 0
-970 -1011 0
-970 -1012 0
-970 -1013 0
-970 -1014 0
-970 -1015 0
-970 -1016 0
-970 -1017 0
-970 -1018 0
-970 -1019 0
-970 -1020 0
-970 -1021 0
-971 -972 0
-971 -973 0
-971 -974 0
-971 -975 0
-971 -976 0
-971 -977 0
-971 -978 0
-971 -979 0
-971 -980 0
-971 -981 0
-971 -982 0
-971 -983 0
-971 -984 0
-971 -985 0
-971 -986 0
-971 -987 0
-971 -988 0
-971 -989 0
-971 -990 0
-971 -991 0
-971 -992 0
-971 -993 0
-971 -994 0
-971 -995 0
-971 -996 0
-971 -997 0
-971 -998 0
-971 -999 0
-971 -1000 0
-971 -1001 0
-971 -1002 0
-971 -1003 0
-971 -1004 0
-971 -1005 0
-971 -1006 0
-971 -1007 0
-971 -1008 0
-971 -1009 0
-971 -1010 0
-971 -1011 0
-971 -1012 0
-971 -1013 0
-971 -1014 0
-971 -1015 0
-971 -1016 0
-971 -1017 0
-971 -1018 0
-971 -1019 0
-971 -1020 0
-971 -1021 0
-972 -973 0
-972 -974 0
-972 -975 0
-972 -976 0
-972 -977 0
-972 -978 0
-972 -979 0
-972 -980 0
-972 -981 0
-972 -982 0
-972 -983 0
-972 -984 0
-972 -985 0
-972 -986 0
-972 -987 0
-972 -988 0
-972 -989 0
-972 -990 0
-972 -991 0
-972 -992 0
-972 -993 0
-972 -994 0
-972 -995 0
-972 -996 0
-972 -997 0
-972 -998 0
-972 -999 0
-972 -1000 0
-972 -1001 0
-972 -1002 0
-972 -1003 0
-972 -1004 0
-972 -1005 0
-972 -1006 0
-972 -1007 0
-972 -1008 0
-972 -1009 0
-972 -1010 0
-972 -1011 0
-972 -1012 0
-972 -1013 0
-972 -1014 0
-972 -1015 0
-972 -1016 0
-972 -1017 0
-972 -1018 0
-972 -1019 0
-972 -1020 0
-972 -1021 0
-973 -974 0
-973 -975 0
-973 -976 0
-973 -977 0
-973 -978 0
-973 -979 0
-973 -980 0
-973 -981 0
-973 -982 0
-973 -983 0
-973 -984 0
-973 -985 0
-973 -986 0
-973 -987 0
-973 -988 0
-973 -989 0
-973 -990 0
-973 -991 0
-973 -992 0
-973 -993 0
-973 -994 0
-973 -995 0
-973 -996 0
-973 -997 0
-973 -998 0
-973 -999 0
-973 -1000 0
-973 -1001 0
-973 -1002 0
-973 -1003 0
-973 -1004 0
-973 -1005 0
-973 -1006 0
-973 -1007 0
-973 -1008 0
-973 -1009 0
-973 -1010 0
-973 -1011 0
-973 -1012 0
-973 -1013 0
-973 -1014 0
-973 -1015 0
-973 -1016 0
-973 -1017 0
-973 -1018 0
-973 -1019 0
-973 -1020 0
-973 -1021 0
-974 -975 0
-974 -976 0
-974 -977 0
-974 -978 0
-974 -979 0
-974 -980 0
-974 -981 0
-974 -982 0
-974 -983 0
-974 -984 0
-974 -985 0
-974 -986 0
-974 -987 0
-974 -988 0
-974 -989 0
-974 -990 0
-974 -991 0
-974 -992 0
-974 -993 0
-974 -994 0
-974 -995 0
-974 -996 0
-974 -997 0
-974 -998 0
-974 -999 0
-974 -1000 0
-974 -1001 0
-974 -1002 0
-974 -1003 0
-974 -1004 0
-974 -1005 0
-974 -1006 0
-974 -1007 0
-974 -1008 0
-974 -1009 0
-974 -1010 0
-974 -1011 0
-974 -1012 0
-974 -1013 0
-974 -1014 0
-974 -1015 0
-974 -1016 0
-974 -1017 0
-974 -1018 0
-974 -1019 0
-974 -1020 0
-974 -1021 0
-975 -976 0
-975 -977 0
-975 -978 0
-975 -979 0
-975 -980 0
-975 -981 0
-975 -982 0
-975 -983 0
-975 -984 0
-975 -985 0
-975 -986 0
-975 -987 0
-975 -988 0
-975 -989 0
-975 -990 0
-975 -991 0
-975 -992 0
-975 -993 0
-975 -994 0
-975 -995 0
-975 -996 0
-975 -997 0
-975 -998 0
-975 -999 0
-975 -1000 0
-975 -1001 0
-975 -1002 0
-975 -1003 0
-975 -1004 0
-975 -1005 0
-975 -1006 0
-975 -1007 0
-975 -1008 0
-975 -1009 0
-975 -1010 0
-975 -1011 0
-975 -1012 0
-975 -1013 0
-975 -1014 0
-975 -1015 0
-975 -1016 0
-975 -1017 0
-975 -1018 0
-975 -1019 0
-975 -1020 0
-975 -1021 0
-976 -977 0
-976 -978 0
-976 -979 0
-976 -980 0
-976 -981 0
-976 -982 0
-976 -983 0
-976 -984 0
-976 -985 0
-976 -986 0
-976 -987 0
-976 -988 0
-976 -989 0
-976 -990 0
-976 -991 0
-976 -992 0
-976 -993 0
-976 -994 0
-976 -995 0
-976 -996 0
-976 -997 0
-976 -998 0
-976 -999 0
-976 -1000 0
-976 -1001 0
-976 -1002 0
-976 -1003 0
-976 -1004 0
-976 -1005 0
-976 -1006 0
-976 -1007 0
-976 -1008 0
-976 -1009 0
-976 -1010 0
-976 -1011 0
-976 -1012 0
-976 -1013 0
-976 -1014 0
-976 -1015 0
-976 -1016 0
-976 -1017 0
-976 -1018 0
-976 -1019 0
-976 -1020 0
-976 -1021 0
-977 -978 0
-977 -979 0
-977 -980 0
-977 -981 0
-977 -982 0
-977 -983 0
-977 -984 0
-977 -985 0
-977 -986 0
-977 -987 0
-977 -988 0
-977 -989 0
-977 -990 0
-977 -991 0
-977 -992 0
-977 -993 0
-977 -994 0
-977 -995 0
-977 -996 0
-977 -997 0
-977 -998 0
-977 -999 0
-977 -1000 0
-977 -1001 0
-977 -1002 0
-977 -1003 0
-977 -1004 0
-977 -1005 0
-977 -1006 0
-977 -1007 0
-977 -1008 0
-977 -1009 0
-977 -1010 0
-977 -1011 0
-977 -1012 0
-977 -1013 0
-977 -1014 0
-977 -1015 0
-977 -1016 0
-977 -1017 0
-977 -1018 0
-977 -1019 0
-977 -1020 0
-977 -1021 0
-978 -979 0
-978 -980 0
-978 -981 0
-978 -982 0
-978 -983 0
-978 -984 0
-978 -985 0
-978 -986 0
-978 -987 0
-978 -988 0
-978 -989 0
-978 -990 0
-978 -991 0
-978 -992 0
-978 -993 0
-978 -994 0
-978 -995 0
-978 -996 0
-978 -997 0
-978 -998 0
-978 -999 0
-978 -1000 0
-978 -1001 0
-978 -1002 0
-978 -1003 0
-978 -1004 0
-978 -1005 0
-978 -1006 0
-978 -1007 0
-978 -1008 0
-978 -1009 0
-978 -1010 0
-978 -1011 0
-978 -1012 0
-978 -1013 0
-978 -1014 0
-978 -1015 0
-978 -1016 0
-978 -1017 0
-978 -1018 0
-978 -1019 0
-978 -1020 0
-978 -1021 0
-979 -980 0
-979 -981 0
-979 -982 0
-979 -983 0
-979 -984 0
-979 -985 0
-979 -986 0
-979 -987 0
-979 -988 0
-979 -989 0
-979 -990 0
-979 -991 0
-979 -992 0
-979 -993 0
-979 -994 0
-979 -995 0
-979 -996 0
-979 -997 0
-979 -998 0
-979 -999 0
-979 -1000 0
-979 -1001 0
-979 -1002 0
-979 -1003 0
-979 -1004 0
-979 -1005 0
-979 -1006 0
-979 -1007 0
-979 -1008 0
-979 -1009 0
-979 -1010 0
-979 -1011 0
-979 -1012 0
-979 -1013 0
-979 -1014 0
-979 -1015 0
-979 -1016 0
-979 -1017 0
-979 -1018 0
-979 -1019 0
-979 -1020 0
-979 -1021 0
-980 -981 0
-980 -982 0
-980 -983 0
-980 -984 0
-980 -985 0
-980 -986 0
-980 -987 0
-980 -988 0
-980 -989 0
-980 -990 0
-980 -991 0
-980 -992 0
-980 -993 0
-980 -994 0
-980 -995 0
-980 -996 0
-980 -997 0
-980 -998 0
-980 -999 0
-980 -1000 0
-980 -1001 0
-980 -1002 0
-980 -1003 0
-980 -1004 0
-980 -1005 0
-980 -1006 0
-980 -1007 0
-980 -1008 0
-980 -1009 0
-980 -1010 0
-980 -1011 0
-980 -1012 0
-980 -1013 0
-980 -1014 0
-980 -1015 0
-980 -1016 0
-980 -1017 0
-980 -1018 0
-980 -1019 0
-980 -1020 0
-980 -1021 0
-981 -982 0
-981 -983 0
-981 -984 0
-981 -985 0
-981 -986 0
-981 -987 0
-981 -988 0
-981 -989 0
-981 -990 0
-981 -991 0
-981 -992 0
-981 -993 0
-981 -994 0
-981 -995 0
-981 -996 0
-981 -997 0
-981 -998 0
-981 -999 0
-981 -1000 0
-981 -1001 0
-981 -1002 0
-981 -1003 0
-981 -1004 0
-981 -1005 0
-981 -1006 0
-981 -1007 0
-981 -1008 0
-981 -1009 0
-981 -1010 0
-981 -1011 0
-981 -1012 0
-981 -1013 0
-981 -1014 0
-981 -1015 0
-981 -1016 0
-981 -1017 0
-981 -1018 0
-981 -1019 0
-981 -1020 0
-981 -1021 0
-982 -983 0
-982 -984 0
-982 -985 0
-982 -986 0
-982 -987 0
-982 -988 0
-982 -989 0
-982 -990 0
-982 -991 0
-982 -992 0
-982 -993 0
-982 -994 0
-982 -995 0
-982 -996 0
-982 -997 0
-982 -998 0
-982 -999 0
-982 -1000 0
-982 -1001 0
-982 -1002 0
-982 -1003 0
-982 -1004 0
-982 -1005 0
-982 -1006 0
-982 -1007 0
-982 -1008 0
-982 -1009 0
-982 -1010 0
-982 -1011 0
-982 -1012 0
-982 -1013 0
-982 -1014 0
-982 -1015 0
-982 -1016 0
-982 -1017 0
-982 -1018 0
-982 -1019 0
-982 -1020 0
-982 -1021 0
-983 -984 0
-983 -985 0
-983 -986 0
-983 -987 0
-983 -988 0
-983 -989 0
-983 -990 0
-983 -991 0
-983 -992 0
-983 -993 0
-983 -994 0
-983 -995 0
-983 -996 0
-983 -997 0
-983 -998 0
-983 -999 0
-983 -1000 0
-983 -1001 0
-983 -1002 0
-983 -1003 0
-983 -1004 0
-983 -1005 0
-983 -1006 0
-983 -1007 0
-983 -1008 0
-983 -1009 0
-983 -1010 0
-983 -1011 0
-983 -1012 0
-983 -1013 0
-983 -1014 0
-983 -1015 0
-983 -1016 0
-983 -1017 0
-983 -1018 0
-983 -1019 0
-983 -1020 0
-983 -1021 0
-984 -985 0
-984 -986 0
-984 -987 0
-984 -988 0
-984 -989 0
-984 -990 0
-984 -991 0
-984 -992 0
-984 -993 0
-984 -994 0
-984 -995 0
-984 -996 0
-984 -997 0
-984 -998 0
-984 -999 0
-984 -1000 0
-984 -1001 0
-984 -1002 0
-984 -1003 0
-984 -1004 0
-984 -1005 0
-984 -1006 0
-984 -1007 0
-984 -1008 0
-984 -1009 0
-984 -1010 0
-984 -1011 0
-984 -1012 0
-984 -1013 0
-984 -1014 0
-984 -1015 0
-984 -1016 0
-984 -1017 0
-984 -1018 0
-984 -1019 0
-984 -1020 0
-984 -1021 0
-985 -986 0
-985 -987 0
-985 -988 0
-985 -989 0
-985 -990 0
-985 -991 0
-985 -992 0
-985 -993 0
-985 -994 0
-985 -995 0
-985 -996 0
-985 -997 0
-985 -998 0
-985 -999 0
-985 -1000 0
-985 -1001 0
-985 -1002 0
-985 -1003 0
-985 -1004 0
-985 -1005 0
-985 -1006 0
-985 -1007 0
-985 -1008 0
-985 -1009 0
-985 -1010 0
-985 -1011 0
-985 -1012 0
-985 -1013 0
-985 -1014 0
-985 -1015 0
-985 -1016 0
-985 -1017 0
-985 -1018 0
-985 -1019 0
-985 -1020 0
-985 -1021 0
-986 -987 0
-986 -988 0
-986 -989 0
-986 -990 0
-986 -991 0
-986 -992 0
-986 -993 0
-986 -994 0
-986 -995 0
-986 -996 0
-986 -997 0
-986 -998 0
-986 -999 0
-986 -1000 0
-986 -1001 0
-986 -1002 0
-986 -1003 0
-986 -1004 0
-986 -1005 0
-986 -1006 0
-986 -1007 0
-986 -1008 0
-986 -1009 0
-986 -1010 0
-986 -1011 0
-986 -1012 0
-986 -1013 0
-986 -1014 0
-986 -1015 0
-986 -1016 0
-986 -1017 0
-986 -1018 0
-986 -1019 0
-986 -1020 0
-986 -1021 0
-987 -988 0
-987 -989 0
-987 -990 0
-987 -991 0
-987 -992 0
-987 -993 0
-987 -994 0
-987 -995 0
-987 -996 0
-987 -997 0
-987 -998 0
-987 -999 0
-987 -1000 0
-987 -1001 0
-987 -1002 0
-987 -1003 0
-987 -1004 0
-987 -1005 0
-987 -1006 0
-987 -1007 0
-987 -1008 0
-987 -1009 0
-987 -1010 0
-987 -1011 0
-987 -1012 0
-987 -1013 0
-987 -1014 0
-987 -1015 0
-987 -1016 0
-987 -1017 0
-987 -1018 0
-987 -1019 0
-987 -1020 0
-987 -1021 0
-988 -989 0
-988 -990 0
-988 -991 0
-988 -992 0
-988 -993 0
-988 -994 0
-988 -995 0
-988 -996 0
-988 -997 0
-988 -998 0
-988 -999 0
-988 -1000 0
-988 -1001 0
-988 -1002 0
-988 -1003 0
-988 -1004 0
-988 -1005 0
-988 -1006 0
-988 -1007 0
-988 -1008 0
-988 -1009 0
-988 -1010 0
-988 -1011 0
-988 -1012 0
-988 -1013 0
-988 -1014 0
-988 -1015 0
-988 -1016 0
-988 -1017 0
-988 -1018 0
-988 -1019 0
-988 -1020 0
-988 -1021 0
-989 -990 0
-989 -991 0
-989 -992 0
-989 -993 0
-989 -994 0
-989 -995 0
-989 -996 0
-989 -997 0
-989 -998 0
-989 -999 0
-989 -1000 0
-989 -1001 0
-989 -1002 0
-989 -1003 0
-989 -1004 0
-989 -1005 0
-989 -1006 0
-989 -1007 0
-989 -1008 0
-989 -1009 0
-989 -1010 0
-989 -1011 0
-989 -1012 0
-989 -1013 0
-989 -1014 0
-989 -1015 0
-989 -1016 0
-989 -1017 0
-989 -1018 0
-989 -1019 0
-989 -1020 0
-989 -1021 0
-990 -991 0
-990 -992 0
-990 -993 0
-990 -994 0
-990 -995 0
-990 -996 0
-990 -997 0
-990 -998 0
-990 -999 0
-990 -1000 0
-990 -1001 0
-990 -1002 0
-990 -1003 0
-990 -1004 0
-990 -1005 0
-990 -1006 0
-990 -1007 0
-990 -1008 0
-990 -1009 0
-990 -1010 0
-990 -1011 0
-990 -1012 0
-990 -1013 0
-990 -1014 0
-990 -1015 0
-990 -1016 0
-990 -1017 0
-990 -1018 0
-990 -1019 0
-990 -1020 0
-990 -1021 0
-991 -992 0
-991 -993 0
-991 -994 0
-991 -995 0
-991 -996 0
-991 -997 0
-991 -998 0
-991 -999 0
-991 -1000 0
-991 -1001 0
-991 -1002 0
-991 -1003 0
-991 -1004 0
-991 -1005 0
-991 -1006 0
-991 -1007 0
-991 -1008 0
-991 -1009 0
-991 -1010 0
-991 -1011 0
-991 -1012 0
-991 -1013 0
-991 -1014 0
-991 -1015 0
-991 -1016 0
-991 -1017 0
-991 -1018 0
-991 -1019 0
-991 -1020 0
-991 -1021 0
-992 -993 0
-992 -994 0
-992 -995 0
-992 -996 0
-992 -997 0
-992 -998 0
-992 -999 0
-992 -1000 0
-992 -1001 0
-992 -1002 0
-992 -1003 0
-992 -1004 0
-992 -1005 0
-992 -1006 0
-992 -1007 0
-992 -1008 0
-992 -1009 0
-992 -1010 0
-992 -1011 0
-992 -1012 0
-992 -1013 0
-992 -1014 0
-992 -1015 0
-992 -1016 0
-992 -1017 0
-992 -1018 0
-992 -1019 0
-992 -1020 0
-992 -1021 0
-993 -994 0
-993 -995 0
-993 -996 0
-993 -997 0
-993 -998 0
-993 -999 0
-993 -1000 0
-993 -1001 0
-993 -1002 0
-993 -1003 0
-993 -1004 0
-993 -1005 0
-993 -1006 0
-993 -1007 0
-993 -1008 0
-993 -1009 0
-993 -1010 0
-993 -1011 0
-993 -1012 0
-993 -1013 0
-993 -1014 0
-993 -1015 0
-993 -1016 0
-993 -1017 0
-993 -1018 0
-993 -1019 0
-993 -1020 0
-993 -1021 0
-994 -995 0
-994 -996 0
-994 -997 0
-994 -998 0
-994 -999 0
-994 -1000 0
-994 -1001 0
-994 -1002 0
-994 -1003 0
-994 -1004 0
-994 -1005 0
-994 -1006 0
-994 -1007 0
-994 -1008 0
-994 -1009 0
-994 -1010 0
-994 -1011 0
-994 -1012 0
-994 -1013 0
-994 -1014 0
-994 -1015 0
-994 -1016 0
-994 -1017 0
-994 -1018 0
-994 -1019 0
-994 -1020 0
-994 -1021 0
-995 -996 0
-995 -997 0
-995 -998 0
-995 -999 0
-995 -1000 0
-995 -1001 0
-995 -1002 0
-995 -1003 0
-995 -1004 0
-995 -1005 0
-995 -1006 0
-995 -1007 0
-995 -1008 0
-995 -1009 0
-995 -1010 0
-995 -1011 0
-995 -1012 0
-995 -1013 0
-995 -1014 0
-995 -1015 0
-995 -1016 0
-995 -1017 0
-995 -1018 0
-995 -1019 0
-995 -1020 0
-995 -1021 0
-996 -997 0
-996 -998 0
-996 -999 0
-996 -1000 0
-996 -1001 0
-996 -1002 0
-996 -1003 0
-996 -1004 0
-996 -1005 0
-996 -1006 0
-996 -1007 0
-996 -1008 0
-996 -1009 0
-996 -1010 0
-996 -1011 0
-996 -1012 0
-996 -1013 0
-996 -1014 0
-996 -1015 0
-996 -1016 0
-996 -1017 0
-996 -1018 0
-996 -1019 0
-996 -1020 0
-996 -1021 0
-997 -998 0
-997 -999 0
-997 -1000 0
-997 -1001 0
-997 -1002 0
-997 -1003 0
-997 -1004 0
-997 -1005 0
-997 -1006 0
-997 -1007 0
-997 -1008 0
-997 -1009 0
-997 -1010 0
-997 -1011 0
-997 -1012 0
-997 -1013 0
-997 -1014 0
-997 -1015 0
-997 -1016 0
-997 -1017 0
-997 -1018 0
-997 -1019 0
-997 -1020 0
-997 -1021 0
-998 -999 0
-998 -1000 0
-998 -1001 0
-998 -1002 0
-998 -1003 0
-998 -1004 0
-998 -1005 0
-998 -1006 0
-998 -1007 0
-998 -1008 0
-998 -1009 0
-998 -1010 0
-998 -1011 0
-998 -1012 0
-998 -1013 0
-998 -1014 0
-998 -1015 0
-998 -1016 0
-998 -1017 0
-998 -1018 0
-998 -1019 0
-998 -1020 0
-998 -1021 0
-999 -1000 0
-999 -1001 0
-999 -1002 0
-999 -1003 0
-999 -1004 0
-999 -1005 0
-999 -1006 0
-999 -1007 0
-999 -1008 0
-999 -1009 0
-999 -1010 0
-999 -1011 0
-999 -1012 0
-999 -1013 0
-999 -1014 0
-999 -1015 0
-999 -1016 0
-999 -1017 0
-999 -1018 0
-999 -1019 0
-999 -1020 0
-999 -1021 0
-1000 -1001 0
-1000 -1002 0
-1000 -1003 0
-1000 -1004 0
-1000 -1005 0
-1000 -1006 0
-1000 -1007 0
-1000 -1008 0
-1000 -1009 0
-1000 -1010 0
-1000 -1011 0
-1000 -1012 0
-1000 -1013 0
-1000 -1014 0
-1000 -1015 0
-1000 -1016 0
-1000 -1017 0
-1000 -1018 0
-1000 -1019 0
-1000 -1020 0
-1000 -1021 0
-1001 -1002 0
-1001 -1003 0
-1001 -1004 0
-1001 -1005 0
-1001 -1006 0
-1001 -1007 0
-1001 -1008 0
-1001 -1009 0
-1001 -1010 0
-1001 -1011 0
-1001 -1012 0
-1001 -1013 0
-1001 -1014 0
-1001 -1015 0
-1001 -1016 0
-1001 -1017 0
-1001 -1018 0
-1001 -1019 0
-1001 -1020 0
-1001 -1021 0
-1002 -1003 0
-1002 -1004 0
-1002 -1005 0
-1002 -1006 0
-1002 -1007 0
-1002 -1008 0
-1002 -1009 0
-1002 -1010 0
-1002 -1011 0
-1002 -1012 0
-1002 -1013 0
-1002 -1014 0
-1002 -1015 0
-1002 -1016 0
-1002 -1017 0
-1002 -1018 0
-1002 -1019 0
-1002 -1020 0
-1002 -1021 0
-1003 -1004 0
-1003 -1005 0
-1003 -1006 0
-1003 -1007 0
-1003 -1008 0
-1003 -1009 0
-1003 -1010 0
-1003 -1011 0
-1003 -1012 0
-1003 -1013 0
-1003 -1014 0
-1003 -1015 0
-1003 -1016 0
-1003 -1017 0
-1003 -1018 0
-1003 -1019 0
-1003 -1020 0
-1003 -1021 0
-1004 -1005 0
-1004 -1006 0
-1004 -1007 0
-1004 -1008 0
-1004 -1009 0
-1004 -1010 0
-1004 -1011 0
-1004 -1012 0
-1004 -1013 0
-1004 -1014 0
-1004 -1015 0
-1004 -1016 0
-1004 -1017 0
-1004 -1018 0
-1004 -1019 0
-1004 -1020 0
-1004 -1021 0
-1005 -1006 0
-1005 -1007 0
-1005 -1008 0
-1005 -1009 0
-1005 -1010 0
-1005 -1011 0
-1005 -1012 0
-1005 -1013 0
-1005 -1014 0
-1005 -1015 0
-1005 -1016 0
-1005 -1017 0
-1005 -1018 0
-1005 -1019 0
-1005 -1020 0
-1005 -1021 0
-1006 -1007 0
-1006 -1008 0
-1006 -1009 0
-1006 -1010 0
-1006 -1011 0
-1006 -1012 0
-1006 -1013 0
-1006 -1014 0
-1006 -1015 0
-1006 -1016 0
-1006 -1017 0
-1006 -1018 0
-1006 -1019 0
-1006 -1020 0
-1006 -1021 0
-1007 -1008 0
-1007 -1009 0
-1007 -1010 0
-1007 -1011 0
-1007 -1012 0
-1007 -1013 0
-1007 -1014 0
-1007 -1015 0
-1007 -1016 0
-1007 -1017 0
-1007 -1018 0
-1007 -1019 0
-1007 -1020 0
-1007 -1021 0
-1008 -1009 0
-1008 -1010 0
-1008 -1011 0
-1008 -1012 0
-1008 -1013 0
-1008 -1014 0
-1008 -1015 0
-1008 -1016 0
-1008 -1017 0
-1008 -1018 0
-1008 -1019 0
-1008 -1020 0
-1008 -1021 0
-1009 -1010 0
-1009 -1011 0
-1009 -1012 0
-1009 -1013 0
-1009 -1014 0
-1009 -1015 0
-1009 -1016 0
-1009 -1017 0
-1009 -1018 0
-1009 -1019 0
-1009 -1020 0
-1009 -1021 0
-1010 -1011 0
-1010 -1012 0
-1010 -1013 0
-1010 -1014 0
-1010 -1015 0
-1010 -1016 0
-1010 -1017 0
-1010 -1018 0
-1010 -1019 0
-1010 -1020 0
-1010 -1021 0
-1011 -1012 0
-1011 -1013 0
-1011 -1014 0
-1011 -1015 0
-1011 -1016 0
-1011 -1017 0
-1011 -1018 0
-1011 -1019 0
-1011 -1020 0
-1011 -1021 0
-1012 -1013 0
-1012 -1014 0
-1012 -1015 0
-1012 -1016 0
-1012 -1017 0
-1012 -1018 0
-1012 -1019 0
-1012 -1020 0
-1012 -1021 0
-1013 -1014 0
-1013 -1015 0
-1013 -1016 0
-1013 -1017 0
-1013 -1018 0
-1013 -1019 0
-1013 -1020 0
-1013 -1021 0
-1014 -1015 0
-1014 -1016 0
-1014 -1017 0
-1014 -1018 0
-1014 -1019 0
-1014 -1020 0
-1014 -1021 0
-1015 -1016 0
-1015 -1017 0
-1015 -1018 0
-1015 -1019 0
-1015 -1020 0
-1015 -1021 0
-1016 -1017 0
-1016 -1018 0
-1016 -1019 0
-1016 -1020 0
-1016 -1021 0
-1017 -1018 0
-1017 -1019 0
-1017 -1020 0
-1017 -1021 0
-1018 -1019 0
-1018 -1020 0
-1018 -1021 0
-1019 -1020 0
-1019 -1021 0
-1020 -1021 0
-1022 20 0
-1022 118 0
-20 -118 1022 0
-1023 41 0
-1023 134 0
-41 -134 1023 0
-1024 62 0
-1024 150 0
-62 -150 1024 0
-1025 83 0
-1025 166 0
-83 -166 1025 0
-1026 104 0
-1026 182 0
-104 -182 1026 0
-1 -107 1022 0
-22 -123 1022 1023 0
-43 -139 1022 1023 1024 0
-64 -155 1022 1023 1024 1025 0
-85 -171 1022 1023 1024 1025 1026 0
