c Mundo dos Blocos de tamanho variavel -> CNF
c INITIAL = {'c': (0, 0), 'a': (3, 0), 'b': (5, 0), 'd': (3, 1)}
c GOAL    = {'c': (0, 0), 'a': (0, 1), 'b': (1, 1), 'd': (3, 0)}
c HORIZON = 6
c        8 clausulas  3.1 estado inicial
c        8 clausulas  3.2 meta
c      350 clausulas  3.3 (A) unicidade de posicao
c      196 clausulas  3.3 (B) unicidade de nivel
c     2296 clausulas  3.3 (Z) definicao de cov
c     1008 clausulas  3.3 (C) exclusao horizontal
c      609 clausulas  3.3 (D) estabilidade
c     2352 clausulas  3.3 (Y) definicao de esp
c      819 clausulas  3.3 (E) clear
c    18576 clausulas  3.4 (G) pre-condicoes de move
c     2142 clausulas  3.4 (F) efeitos de move
c      444 clausulas  3.5 frame axioms
c    20922 clausulas  3.6 acao unica por passo
c       28 clausulas  3.7 ordem parcial
p cnf 1638 49758
13 0
156 0
4 0
148 0
12 0
152 0
21 0
161 0
139 0
252 0
127 0
245 0
134 0
249 0
147 0
256 0
1 2 3 4 5 6 0
-1 -2 0
-1 -3 0
-1 -4 0
-1 -5 0
-1 -6 0
-2 -3 0
-2 -4 0
-2 -5 0
-2 -6 0
-3 -4 0
-3 -5 0
-3 -6 0
-4 -5 0
-4 -6 0
-5 -6 0
7 8 9 10 11 12 0
-7 -8 0
-7 -9 0
-7 -10 0
-7 -11 0
-7 -12 0
-8 -9 0
-8 -10 0
-8 -11 0
-8 -12 0
-9 -10 0
-9 -11 0
-9 -12 0
-10 -11 0
-10 -12 0
-11 -12 0
13 14 15 16 17 0
-13 -14 0
-13 -15 0
-13 -16 0
-13 -17 0
-14 -15 0
-14 -16 0
-14 -17 0
-15 -16 0
-15 -17 0
-16 -17 0
18 19 20 21 0
-18 -19 0
-18 -20 0
-18 -21 0
-19 -20 0
-19 -21 0
-20 -21 0
148 149 150 151 0
-148 -149 0
-148 -150 0
-148 -151 0
-149 -150 0
-149 -151 0
-150 -151 0
152 153 154 155 0
-152 -153 0
-152 -154 0
-152 -155 0
-153 -154 0
-153 -155 0
-154 -155 0
156 157 158 159 0
-156 -157 0
-156 -158 0
-156 -159 0
-157 -158 0
-157 -159 0
-158 -159 0
160 161 162 163 0
-160 -161 0
-160 -162 0
-160 -163 0
-161 -162 0
-161 -163 0
-162 -163 0
-288 148 0
-288 1 0
-1 -148 288 0
-289 148 0
-289 2 0
-2 -148 289 0
-290 148 0
-290 3 0
-3 -148 290 0
-291 148 0
-291 4 0
-4 -148 291 0
-292 148 0
-292 5 0
-5 -148 292 0
-293 148 0
-293 6 0
-6 -148 293 0
-294 149 0
-294 1 0
-1 -149 294 0
-295 149 0
-295 2 0
-2 -149 295 0
-296 149 0
-296 3 0
-3 -149 296 0
-297 149 0
-297 4 0
-4 -149 297 0
-298 149 0
-298 5 0
-5 -149 298 0
-299 149 0
-299 6 0
-6 -149 299 0
-300 150 0
-300 1 0
-1 -150 300 0
-301 150 0
-301 2 0
-2 -150 301 0
-302 150 0
-302 3 0
-3 -150 302 0
-303 150 0
-303 4 0
-4 -150 303 0
-304 150 0
-304 5 0
-5 -150 304 0
-305 150 0
-305 6 0
-6 -150 305 0
-306 151 0
-306 1 0
-1 -151 306 0
-307 151 0
-307 2 0
-2 -151 307 0
-308 151 0
-308 3 0
-3 -151 308 0
-309 151 0
-309 4 0
-4 -151 309 0
-310 151 0
-310 5 0
-5 -151 310 0
-311 151 0
-311 6 0
-6 -151 311 0
-312 152 0
-312 7 0
-7 -152 312 0
-313 152 0
-313 8 0
-8 -152 313 0
-314 152 0
-314 9 0
-9 -152 314 0
-315 152 0
-315 10 0
-10 -152 315 0
-316 152 0
-316 11 0
-11 -152 316 0
-317 152 0
-317 12 0
-12 -152 317 0
-318 153 0
-318 7 0
-7 -153 318 0
-319 153 0
-319 8 0
-8 -153 319 0
-320 153 0
-320 9 0
-9 -153 320 0
-321 153 0
-321 10 0
-10 -153 321 0
-322 153 0
-322 11 0
-11 -153 322 0
-323 153 0
-323 12 0
-12 -153 323 0
-324 154 0
-324 7 0
-7 -154 324 0
-325 154 0
-325 8 0
-8 -154 325 0
-326 154 0
-326 9 0
-9 -154 326 0
-327 154 0
-327 10 0
-10 -154 327 0
-328 154 0
-328 11 0
-11 -154 328 0
-329 154 0
-329 12 0
-12 -154 329 0
-330 155 0
-330 7 0
-7 -155 330 0
-331 155 0
-331 8 0
-8 -155 331 0
-332 155 0
-332 9 0
-9 -155 332 0
-333 155 0
-333 10 0
-10 -155 333 0
-334 155 0
-334 11 0
-11 -155 334 0
-335 155 0
-335 12 0
-12 -155 335 0
-336 156 0
-336 13 0
-13 -156 336 0
-337 156 0
-337 13 14 0
-13 -156 337 0
-14 -156 337 0
-338 156 0
-338 14 15 0
-14 -156 338 0
-15 -156 338 0
-339 156 0
-339 15 16 0
-15 -156 339 0
-16 -156 339 0
-340 156 0
-340 16 17 0
-16 -156 340 0
-17 -156 340 0
-341 156 0
-341 17 0
-17 -156 341 0
-342 157 0
-342 13 0
-13 -157 342 0
-343 157 0
-343 13 14 0
-13 -157 343 0
-14 -157 343 0
-344 157 0
-344 14 15 0
-14 -157 344 0
-15 -157 344 0
-345 157 0
-345 15 16 0
-15 -157 345 0
-16 -157 345 0
-346 157 0
-346 16 17 0
-16 -157 346 0
-17 -157 346 0
-347 157 0
-347 17 0
-17 -157 347 0
-348 158 0
-348 13 0
-13 -158 348 0
-349 158 0
-349 13 14 0
-13 -158 349 0
-14 -158 349 0
-350 158 0
-350 14 15 0
-14 -158 350 0
-15 -158 350 0
-351 158 0
-351 15 16 0
-15 -158 351 0
-16 -158 351 0
-352 158 0
-352 16 17 0
-16 -158 352 0
-17 -158 352 0
-353 158 0
-353 17 0
-17 -158 353 0
-354 159 0
-354 13 0
-13 -159 354 0
-355 159 0
-355 13 14 0
-13 -159 355 0
-14 -159 355 0
-356 159 0
-356 14 15 0
-14 -159 356 0
-15 -159 356 0
-357 159 0
-357 15 16 0
-15 -159 357 0
-16 -159 357 0
-358 159 0
-358 16 17 0
-16 -159 358 0
-17 -159 358 0
-359 159 0
-359 17 0
-17 -159 359 0
-360 160 0
-360 18 0
-18 -160 360 0
-361 160 0
-361 18 19 0
-18 -160 361 0
-19 -160 361 0
-362 160 0
-362 18 19 20 0
-18 -160 362 0
-19 -160 362 0
-20 -160 362 0
-363 160 0
-363 19 20 21 0
-19 -160 363 0
-20 -160 363 0
-21 -160 363 0
-364 160 0
-364 20 21 0
-20 -160 364 0
-21 -160 364 0
-365 160 0
-365 21 0
-21 -160 365 0
-366 161 0
-366 18 0
-18 -161 366 0
-367 161 0
-367 18 19 0
-18 -161 367 0
-19 -161 367 0
-368 161 0
-368 18 19 20 0
-18 -161 368 0
-19 -161 368 0
-20 -161 368 0
-369 161 0
-369 19 20 21 0
-19 -161 369 0
-20 -161 369 0
-21 -161 369 0
-370 161 0
-370 20 21 0
-20 -161 370 0
-21 -161 370 0
-371 161 0
-371 21 0
-21 -161 371 0
-372 162 0
-372 18 0
-18 -162 372 0
-373 162 0
-373 18 19 0
-18 -162 373 0
-19 -162 373 0
-374 162 0
-374 18 19 20 0
-18 -162 374 0
-19 -162 374 0
-20 -162 374 0
-375 162 0
-375 19 20 21 0
-19 -162 375 0
-20 -162 375 0
-21 -162 375 0
-376 162 0
-376 20 21 0
-20 -162 376 0
-21 -162 376 0
-377 162 0
-377 21 0
-21 -162 377 0
-378 163 0
-378 18 0
-18 -163 378 0
-379 163 0
-379 18 19 0
-18 -163 379 0
-19 -163 379 0
-380 163 0
-380 18 19 20 0
-18 -163 380 0
-19 -163 380 0
-20 -163 380 0
-381 163 0
-381 19 20 21 0
-19 -163 381 0
-20 -163 381 0
-21 -163 381 0
-382 163 0
-382 20 21 0
-20 -163 382 0
-21 -163 382 0
-383 163 0
-383 21 0
-21 -163 383 0
-288 -312 0
-288 -336 0
-288 -360 0
-312 -336 0
-312 -360 0
-336 -360 0
-289 -313 0
-289 -337 0
-289 -361 0
-313 -337 0
-313 -361 0
-337 -361 0
-290 -314 0
-290 -338 0
-290 -362 0
-314 -338 0
-314 -362 0
-338 -362 0
-291 -315 0
-291 -339 0
-291 -363 0
-315 -339 0
-315 -363 0
-339 -363 0
-292 -316 0
-292 -340 0
-292 -364 0
-316 -340 0
-316 -364 0
-340 -364 0
-293 -317 0
-293 -341 0
-293 -365 0
-317 -341 0
-317 -365 0
-341 -365 0
-294 -318 0
-294 -342 0
-294 -366 0
-318 -342 0
-318 -366 0
-342 -366 0
-295 -319 0
-295 -343 0
-295 -367 0
-319 -343 0
-319 -367 0
-343 -367 0
-296 -320 0
-296 -344 0
-296 -368 0
-320 -344 0
-320 -368 0
-344 -368 0
-297 -321 0
-297 -345 0
-297 -369 0
-321 -345 0
-321 -369 0
-345 -369 0
-298 -322 0
-298 -346 0
-298 -370 0
-322 -346 0
-322 -370 0
-346 -370 0
-299 -323 0
-299 -347 0
-299 -371 0
-323 -347 0
-323 -371 0
-347 -371 0
-300 -324 0
-300 -348 0
-300 -372 0
-324 -348 0
-324 -372 0
-348 -372 0
-301 -325 0
-301 -349 0
-301 -373 0
-325 -349 0
-325 -373 0
-349 -373 0
-302 -326 0
-302 -350 0
-302 -374 0
-326 -350 0
-326 -374 0
-350 -374 0
-303 -327 0
-303 -351 0
-303 -375 0
-327 -351 0
-327 -375 0
-351 -375 0
-304 -328 0
-304 -352 0
-304 -376 0
-328 -352 0
-328 -376 0
-352 -376 0
-305 -329 0
-305 -353 0
-305 -377 0
-329 -353 0
-329 -377 0
-353 -377 0
-306 -330 0
-306 -354 0
-306 -378 0
-330 -354 0
-330 -378 0
-354 -378 0
-307 -331 0
-307 -355 0
-307 -379 0
-331 -355 0
-331 -379 0
-355 -379 0
-308 -332 0
-308 -356 0
-308 -380 0
-332 -356 0
-332 -380 0
-356 -380 0
-309 -333 0
-309 -357 0
-309 -381 0
-333 -357 0
-333 -381 0
-357 -381 0
-310 -334 0
-310 -358 0
-310 -382 0
-334 -358 0
-334 -382 0
-358 -382 0
-311 -335 0
-311 -359 0
-311 -383 0
-335 -359 0
-335 -383 0
-359 -383 0
-1 -149 312 336 360 0
-1 -150 318 342 366 0
-1 -151 324 348 372 0
-2 -149 313 337 361 0
-2 -150 319 343 367 0
-2 -151 325 349 373 0
-3 -149 314 338 362 0
-3 -150 320 344 368 0
-3 -151 326 350 374 0
-4 -149 315 339 363 0
-4 -150 321 345 369 0
-4 -151 327 351 375 0
-5 -149 316 340 364 0
-5 -150 322 346 370 0
-5 -151 328 352 376 0
-6 -149 317 341 365 0
-6 -150 323 347 371 0
-6 -151 329 353 377 0
-7 -153 288 336 360 0
-7 -154 294 342 366 0
-7 -155 300 348 372 0
-8 -153 289 337 361 0
-8 -154 295 343 367 0
-8 -155 301 349 373 0
-9 -153 290 338 362 0
-9 -154 296 344 368 0
-9 -155 302 350 374 0
-10 -153 291 339 363 0
-10 -154 297 345 369 0
-10 -155 303 351 375 0
-11 -153 292 340 364 0
-11 -154 298 346 370 0
-11 -155 304 352 376 0
-12 -153 293 341 365 0
-12 -154 299 347 371 0
-12 -155 305 353 377 0
-13 -157 288 312 360 289 313 361 0
-13 -158 294 318 366 295 319 367 0
-13 -159 300 324 372 301 325 373 0
-14 -157 289 313 361 290 314 362 0
-14 -158 295 319 367 296 320 368 0
-14 -159 301 325 373 302 326 374 0
-15 -157 290 314 362 291 315 363 0
-15 -158 296 320 368 297 321 369 0
-15 -159 302 326 374 303 327 375 0
-16 -157 291 315 363 292 316 364 0
-16 -158 297 321 369 298 322 370 0
-16 -159 303 327 375 304 328 376 0
-17 -157 292 316 364 293 317 365 0
-17 -158 298 322 370 299 323 371 0
-17 -159 304 328 376 305 329 377 0
-18 -161 288 312 336 289 313 337 0
-18 -161 288 312 336 290 314 338 0
-18 -161 289 313 337 290 314 338 0
-18 -162 294 318 342 295 319 343 0
-18 -162 294 318 342 296 320 344 0
-18 -162 295 319 343 296 320 344 0
-18 -163 300 324 348 301 325 349 0
-18 -163 300 324 348 302 326 350 0
-18 -163 301 325 349 302 326 350 0
-19 -161 289 313 337 290 314 338 0
-19 -161 289 313 337 291 315 339 0
-19 -161 290 314 338 291 315 339 0
-19 -162 295 319 343 296 320 344 0
-19 -162 295 319 343 297 321 345 0
-19 -162 296 320 344 297 321 345 0
-19 -163 301 325 349 302 326 350 0
-19 -163 301 325 349 303 327 351 0
-19 -163 302 326 350 303 327 351 0
-20 -161 290 314 338 291 315 339 0
-20 -161 290 314 338 292 316 340 0
-20 -161 291 315 339 292 316 340 0
-20 -162 296 320 344 297 321 345 0
-20 -162 296 320 344 298 322 346 0
-20 -162 297 321 345 298 322 346 0
-20 -163 302 326 350 303 327 351 0
-20 -163 302 326 350 304 328 352 0
-20 -163 303 327 351 304 328 352 0
-21 -161 291 315 339 292 316 340 0
-21 -161 291 315 339 293 317 341 0
-21 -161 292 316 340 293 317 341 0
-21 -162 297 321 345 298 322 346 0
-21 -162 297 321 345 299 323 347 0
-21 -162 298 322 346 299 323 347 0
-21 -163 303 327 351 304 328 352 0
-21 -163 303 327 351 305 329 353 0
-21 -163 304 328 352 305 329 353 0
-1471 288 294 300 306 0
-1471 -288 -318 0
-1471 -288 -342 0
-1471 -288 -366 0
-288 1471 318 342 366 0
-1471 -294 -324 0
-1471 -294 -348 0
-1471 -294 -372 0
-294 1471 324 348 372 0
-1471 -300 -330 0
-1471 -300 -354 0
-1471 -300 -378 0
-300 1471 330 354 378 0
-306 1471 0
-1472 289 295 301 307 0
-1472 -289 -319 0
-1472 -289 -343 0
-1472 -289 -367 0
-289 1472 319 343 367 0
-1472 -295 -325 0
-1472 -295 -349 0
-1472 -295 -373 0
-295 1472 325 349 373 0
-1472 -301 -331 0
-1472 -301 -355 0
-1472 -301 -379 0
-301 1472 331 355 379 0
-307 1472 0
-1473 290 296 302 308 0
-1473 -290 -320 0
-1473 -290 -344 0
-1473 -290 -368 0
-290 1473 320 344 368 0
-1473 -296 -326 0
-1473 -296 -350 0
-1473 -296 -374 0
-296 1473 326 350 374 0
-1473 -302 -332 0
-1473 -302 -356 0
-1473 -302 -380 0
-302 1473 332 356 380 0
-308 1473 0
-1474 291 297 303 309 0
-1474 -291 -321 0
-1474 -291 -345 0
-1474 -291 -369 0
-291 1474 321 345 369 0
-1474 -297 -327 0
-1474 -297 -351 0
-1474 -297 -375 0
-297 1474 327 351 375 0
-1474 -303 -333 0
-1474 -303 -357 0
-1474 -303 -381 0
-303 1474 333 357 381 0
-309 1474 0
-1475 292 298 304 310 0
-1475 -292 -322 0
-1475 -292 -346 0
-1475 -292 -370 0
-292 1475 322 346 370 0
-1475 -298 -328 0
-1475 -298 -352 0
-1475 -298 -376 0
-298 1475 328 352 376 0
-1475 -304 -334 0
-1475 -304 -358 0
-1475 -304 -382 0
-304 1475 334 358 382 0
-310 1475 0
-1476 293 299 305 311 0
-1476 -293 -323 0
-1476 -293 -347 0
-1476 -293 -371 0
-293 1476 323 347 371 0
-1476 -299 -329 0
-1476 -299 -353 0
-1476 -299 -377 0
-299 1476 329 353 377 0
-1476 -305 -335 0
-1476 -305 -359 0
-1476 -305 -383 0
-305 1476 335 359 383 0
-311 1476 0
-1477 312 318 324 330 0
-1477 -312 -294 0
-1477 -312 -342 0
-1477 -312 -366 0
-312 1477 294 342 366 0
-1477 -318 -300 0
-1477 -318 -348 0
-1477 -318 -372 0
-318 1477 300 348 372 0
-1477 -324 -306 0
-1477 -324 -354 0
-1477 -324 -378 0
-324 1477 306 354 378 0
-330 1477 0
-1478 313 319 325 331 0
-1478 -313 -295 0
-1478 -313 -343 0
-1478 -313 -367 0
-313 1478 295 343 367 0
-1478 -319 -301 0
-1478 -319 -349 0
-1478 -319 -373 0
-319 1478 301 349 373 0
-1478 -325 -307 0
-1478 -325 -355 0
-1478 -325 -379 0
-325 1478 307 355 379 0
-331 1478 0
-1479 314 320 326 332 0
-1479 -314 -296 0
-1479 -314 -344 0
-1479 -314 -368 0
-314 1479 296 344 368 0
-1479 -320 -302 0
-1479 -320 -350 0
-1479 -320 -374 0
-320 1479 302 350 374 0
-1479 -326 -308 0
-1479 -326 -356 0
-1479 -326 -380 0
-326 1479 308 356 380 0
-332 1479 0
-1480 315 321 327 333 0
-1480 -315 -297 0
-1480 -315 -345 0
-1480 -315 -369 0
-315 1480 297 345 369 0
-1480 -321 -303 0
-1480 -321 -351 0
-1480 -321 -375 0
-321 1480 303 351 375 0
-1480 -327 -309 0
-1480 -327 -357 0
-1480 -327 -381 0
-327 1480 309 357 381 0
-333 1480 0
-1481 316 322 328 334 0
-1481 -316 -298 0
-1481 -316 -346 0
-1481 -316 -370 0
-316 1481 298 346 370 0
-1481 -322 -304 0
-1481 -322 -352 0
-1481 -322 -376 0
-322 1481 304 352 376 0
-1481 -328 -310 0
-1481 -328 -358 0
-1481 -328 -382 0
-328 1481 310 358 382 0
-334 1481 0
-1482 317 323 329 335 0
-1482 -317 -299 0
-1482 -317 -347 0
-1482 -317 -371 0
-317 1482 299 347 371 0
-1482 -323 -305 0
-1482 -323 -353 0
-1482 -323 -377 0
-323 1482 305 353 377 0
-1482 -329 -311 0
-1482 -329 -359 0
-1482 -329 -383 0
-329 1482 311 359 383 0
-335 1482 0
-1483 336 342 348 354 0
-1483 -336 -294 0
-1483 -336 -318 0
-1483 -336 -366 0
-336 1483 294 318 366 0
-1483 -342 -300 0
-1483 -342 -324 0
-1483 -342 -372 0
-342 1483 300 324 372 0
-1483 -348 -306 0
-1483 -348 -330 0
-1483 -348 -378 0
-348 1483 306 330 378 0
-354 1483 0
-1484 337 343 349 355 0
-1484 -337 -295 0
-1484 -337 -319 0
-1484 -337 -367 0
-337 1484 295 319 367 0
-1484 -343 -301 0
-1484 -343 -325 0
-1484 -343 -373 0
-343 1484 301 325 373 0
-1484 -349 -307 0
-1484 -349 -331 0
-1484 -349 -379 0
-349 1484 307 331 379 0
-355 1484 0
-1485 338 344 350 356 0
-1485 -338 -296 0
-1485 -338 -320 0
-1485 -338 -368 0
-338 1485 296 320 368 0
-1485 -344 -302 0
-1485 -344 -326 0
-1485 -344 -374 0
-344 1485 302 326 374 0
-1485 -350 -308 0
-1485 -350 -332 0
-1485 -350 -380 0
-350 1485 308 332 380 0
-356 1485 0
-1486 339 345 351 357 0
-1486 -339 -297 0
-1486 -339 -321 0
-1486 -339 -369 0
-339 1486 297 321 369 0
-1486 -345 -303 0
-1486 -345 -327 0
-1486 -345 -375 0
-345 1486 303 327 375 0
-1486 -351 -309 0
-1486 -351 -333 0
-1486 -351 -381 0
-351 1486 309 333 381 0
-357 1486 0
-1487 340 346 352 358 0
-1487 -340 -298 0
-1487 -340 -322 0
-1487 -340 -370 0
-340 1487 298 322 370 0
-1487 -346 -304 0
-1487 -346 -328 0
-1487 -346 -376 0
-346 1487 304 328 376 0
-1487 -352 -310 0
-1487 -352 -334 0
-1487 -352 -382 0
-352 1487 310 334 382 0
-358 1487 0
-1488 341 347 353 359 0
-1488 -341 -299 0
-1488 -341 -323 0
-1488 -341 -371 0
-341 1488 299 323 371 0
-1488 -347 -305 0
-1488 -347 -329 0
-1488 -347 -377 0
-347 1488 305 329 377 0
-1488 -353 -311 0
-1488 -353 -335 0
-1488 -353 -383 0
-353 1488 311 335 383 0
-359 1488 0
-1489 360 366 372 378 0
-1489 -360 -294 0
-1489 -360 -318 0
-1489 -360 -342 0
-360 1489 294 318 342 0
-1489 -366 -300 0
-1489 -366 -324 0
-1489 -366 -348 0
-366 1489 300 324 348 0
-1489 -372 -306 0
-1489 -372 -330 0
-1489 -372 -354 0
-372 1489 306 330 354 0
-378 1489 0
-1490 361 367 373 379 0
-1490 -361 -295 0
-1490 -361 -319 0
-1490 -361 -343 0
-361 1490 295 319 343 0
-1490 -367 -301 0
-1490 -367 -325 0
-1490 -367 -349 0
-367 1490 301 325 349 0
-1490 -373 -307 0
-1490 -373 -331 0
-1490 -373 -355 0
-373 1490 307 331 355 0
-379 1490 0
-1491 362 368 374 380 0
-1491 -362 -296 0
-1491 -362 -320 0
-1491 -362 -344 0
-362 1491 296 320 344 0
-1491 -368 -302 0
-1491 -368 -326 0
-1491 -368 -350 0
-368 1491 302 326 350 0
-1491 -374 -308 0
-1491 -374 -332 0
-1491 -374 -356 0
-374 1491 308 332 356 0
-380 1491 0
-1492 363 369 375 381 0
-1492 -363 -297 0
-1492 -363 -321 0
-1492 -363 -345 0
-363 1492 297 321 345 0
-1492 -369 -303 0
-1492 -369 -327 0
-1492 -369 -351 0
-369 1492 303 327 351 0
-1492 -375 -309 0
-1492 -375 -333 0
-1492 -375 -357 0
-375 1492 309 333 357 0
-381 1492 0
-1493 364 370 376 382 0
-1493 -364 -298 0
-1493 -364 -322 0
-1493 -364 -346 0
-364 1493 298 322 346 0
-1493 -370 -304 0
-1493 -370 -328 0
-1493 -370 -352 0
-370 1493 304 328 352 0
-1493 -376 -310 0
-1493 -376 -334 0
-1493 -376 -358 0
-376 1493 310 334 358 0
-382 1493 0
-1494 365 371 377 383 0
-1494 -365 -299 0
-1494 -365 -323 0
-1494 -365 -347 0
-365 1494 299 323 347 0
-1494 -371 -305 0
-1494 -371 -329 0
-1494 -371 -353 0
-371 1494 305 329 353 0
-1494 -377 -311 0
-1494 -377 -335 0
-1494 -377 -359 0
-377 1494 311 335 359 0
-383 1494 0
-260 -288 1471 0
-260 -294 1471 0
-260 -300 1471 0
-260 -306 1471 0
-260 -289 1472 0
-260 -295 1472 0
-260 -301 1472 0
-260 -307 1472 0
-260 -290 1473 0
-260 -296 1473 0
-260 -302 1473 0
-260 -308 1473 0
-260 -291 1474 0
-260 -297 1474 0
-260 -303 1474 0
-260 -309 1474 0
-260 -292 1475 0
-260 -298 1475 0
-260 -304 1475 0
-260 -310 1475 0
-260 -293 1476 0
-260 -299 1476 0
-260 -305 1476 0
-260 -311 1476 0
-1 260 -1471 0
-2 260 -1472 0
-3 260 -1473 0
-4 260 -1474 0
-5 260 -1475 0
-6 260 -1476 0
-261 -312 1477 0
-261 -318 1477 0
-261 -324 1477 0
-261 -330 1477 0
-261 -313 1478 0
-261 -319 1478 0
-261 -325 1478 0
-261 -331 1478 0
-261 -314 1479 0
-261 -320 1479 0
-261 -326 1479 0
-261 -332 1479 0
-261 -315 1480 0
-261 -321 1480 0
-261 -327 1480 0
-261 -333 1480 0
-261 -316 1481 0
-261 -322 1481 0
-261 -328 1481 0
-261 -334 1481 0
-261 -317 1482 0
-261 -323 1482 0
-261 -329 1482 0
-261 -335 1482 0
-7 261 -1477 0
-8 261 -1478 0
-9 261 -1479 0
-10 261 -1480 0
-11 261 -1481 0
-12 261 -1482 0
-262 -336 1483 0
-262 -342 1483 0
-262 -348 1483 0
-262 -354 1483 0
-262 -337 1484 0
-262 -343 1484 0
-262 -349 1484 0
-262 -355 1484 0
-262 -338 1485 0
-262 -344 1485 0
-262 -350 1485 0
-262 -356 1485 0
-262 -339 1486 0
-262 -345 1486 0
-262 -351 1486 0
-262 -357 1486 0
-262 -340 1487 0
-262 -346 1487 0
-262 -352 1487 0
-262 -358 1487 0
-262 -341 1488 0
-262 -347 1488 0
-262 -353 1488 0
-262 -359 1488 0
-13 262 -1483 -1484 0
-14 262 -1484 -1485 0
-15 262 -1485 -1486 0
-16 262 -1486 -1487 0
-17 262 -1487 -1488 0
-263 -360 1489 0
-263 -366 1489 0
-263 -372 1489 0
-263 -378 1489 0
-263 -361 1490 0
-263 -367 1490 0
-263 -373 1490 0
-263 -379 1490 0
-263 -362 1491 0
-263 -368 1491 0
-263 -374 1491 0
-263 -380 1491 0
-263 -363 1492 0
-263 -369 1492 0
-263 -375 1492 0
-263 -381 1492 0
-263 -364 1493 0
-263 -370 1493 0
-263 -376 1493 0
-263 -382 1493 0
-263 -365 1494 0
-263 -371 1494 0
-263 -377 1494 0
-263 -383 1494 0
-18 263 -1489 -1490 -1491 0
-19 263 -1490 -1491 -1492 0
-20 263 -1491 -1492 -1493 0
-21 263 -1492 -1493 -1494 0
22 23 24 25 26 27 0
-22 -23 0
-22 -24 0
-22 -25 0
-22 -26 0
-22 -27 0
-23 -24 0
-23 -25 0
-23 -26 0
-23 -27 0
-24 -25 0
-24 -26 0
-24 -27 0
-25 -26 0
-25 -27 0
-26 -27 0
28 29 30 31 32 33 0
-28 -29 0
-28 -30 0
-28 -31 0
-28 -32 0
-28 -33 0
-29 -30 0
-29 -31 0
-29 -32 0
-29 -33 0
-30 -31 0
-30 -32 0
-30 -33 0
-31 -32 0
-31 -33 0
-32 -33 0
34 35 36 37 38 0
-34 -35 0
-34 -36 0
-34 -37 0
-34 -38 0
-35 -36 0
-35 -37 0
-35 -38 0
-36 -37 0
-36 -38 0
-37 -38 0
39 40 41 42 0
-39 -40 0
-39 -41 0
-39 -42 0
-40 -41 0
-40 -42 0
-41 -42 0
164 165 166 167 0
-164 -165 0
-164 -166 0
-164 -167 0
-165 -166 0
-165 -167 0
-166 -167 0
168 169 170 171 0
-168 -169 0
-168 -170 0
-168 -171 0
-169 -170 0
-169 -171 0
-170 -171 0
172 173 174 175 0
-172 -173 0
-172 -174 0
-172 -175 0
-173 -174 0
-173 -175 0
-174 -175 0
176 177 178 179 0
-176 -177 0
-176 -178 0
-176 -179 0
-177 -178 0
-177 -179 0
-178 -179 0
-384 164 0
-384 22 0
-22 -164 384 0
-385 164 0
-385 23 0
-23 -164 385 0
-386 164 0
-386 24 0
-24 -164 386 0
-387 164 0
-387 25 0
-25 -164 387 0
-388 164 0
-388 26 0
-26 -164 388 0
-389 164 0
-389 27 0
-27 -164 389 0
-390 165 0
-390 22 0
-22 -165 390 0
-391 165 0
-391 23 0
-23 -165 391 0
-392 165 0
-392 24 0
-24 -165 392 0
-393 165 0
-393 25 0
-25 -165 393 0
-394 165 0
-394 26 0
-26 -165 394 0
-395 165 0
-395 27 0
-27 -165 395 0
-396 166 0
-396 22 0
-22 -166 396 0
-397 166 0
-397 23 0
-23 -166 397 0
-398 166 0
-398 24 0
-24 -166 398 0
-399 166 0
-399 25 0
-25 -166 399 0
-400 166 0
-400 26 0
-26 -166 400 0
-401 166 0
-401 27 0
-27 -166 401 0
-402 167 0
-402 22 0
-22 -167 402 0
-403 167 0
-403 23 0
-23 -167 403 0
-404 167 0
-404 24 0
-24 -167 404 0
-405 167 0
-405 25 0
-25 -167 405 0
-406 167 0
-406 26 0
-26 -167 406 0
-407 167 0
-407 27 0
-27 -167 407 0
-408 168 0
-408 28 0
-28 -168 408 0
-409 168 0
-409 29 0
-29 -168 409 0
-410 168 0
-410 30 0
-30 -168 410 0
-411 168 0
-411 31 0
-31 -168 411 0
-412 168 0
-412 32 0
-32 -168 412 0
-413 168 0
-413 33 0
-33 -168 413 0
-414 169 0
-414 28 0
-28 -169 414 0
-415 169 0
-415 29 0
-29 -169 415 0
-416 169 0
-416 30 0
-30 -169 416 0
-417 169 0
-417 31 0
-31 -169 417 0
-418 169 0
-418 32 0
-32 -169 418 0
-419 169 0
-419 33 0
-33 -169 419 0
-420 170 0
-420 28 0
-28 -170 420 0
-421 170 0
-421 29 0
-29 -170 421 0
-422 170 0
-422 30 0
-30 -170 422 0
-423 170 0
-423 31 0
-31 -170 423 0
-424 170 0
-424 32 0
-32 -170 424 0
-425 170 0
-425 33 0
-33 -170 425 0
-426 171 0
-426 28 0
-28 -171 426 0
-427 171 0
-427 29 0
-29 -171 427 0
-428 171 0
-428 30 0
-30 -171 428 0
-429 171 0
-429 31 0
-31 -171 429 0
-430 171 0
-430 32 0
-32 -171 430 0
-431 171 0
-431 33 0
-33 -171 431 0
-432 172 0
-432 34 0
-34 -172 432 0
-433 172 0
-433 34 35 0
-34 -172 433 0
-35 -172 433 0
-434 172 0
-434 35 36 0
-35 -172 434 0
-36 -172 434 0
-435 172 0
-435 36 37 0
-36 -172 435 0
-37 -172 435 0
-436 172 0
-436 37 38 0
-37 -172 436 0
-38 -172 436 0
-437 172 0
-437 38 0
-38 -172 437 0
-438 173 0
-438 34 0
-34 -173 438 0
-439 173 0
-439 34 35 0
-34 -173 439 0
-35 -173 439 0
-440 173 0
-440 35 36 0
-35 -173 440 0
-36 -173 440 0
-441 173 0
-441 36 37 0
-36 -173 441 0
-37 -173 441 0
-442 173 0
-442 37 38 0
-37 -173 442 0
-38 -173 442 0
-443 173 0
-443 38 0
-38 -173 443 0
-444 174 0
-444 34 0
-34 -174 444 0
-445 174 0
-445 34 35 0
-34 -174 445 0
-35 -174 445 0
-446 174 0
-446 35 36 0
-35 -174 446 0
-36 -174 446 0
-447 174 0
-447 36 37 0
-36 -174 447 0
-37 -174 447 0
-448 174 0
-448 37 38 0
-37 -174 448 0
-38 -174 448 0
-449 174 0
-449 38 0
-38 -174 449 0
-450 175 0
-450 34 0
-34 -175 450 0
-451 175 0
-451 34 35 0
-34 -175 451 0
-35 -175 451 0
-452 175 0
-452 35 36 0
-35 -175 452 0
-36 -175 452 0
-453 175 0
-453 36 37 0
-36 -175 453 0
-37 -175 453 0
-454 175 0
-454 37 38 0
-37 -175 454 0
-38 -175 454 0
-455 175 0
-455 38 0
-38 -175 455 0
-456 176 0
-456 39 0
-39 -176 456 0
-457 176 0
-457 39 40 0
-39 -176 457 0
-40 -176 457 0
-458 176 0
-458 39 40 41 0
-39 -176 458 0
-40 -176 458 0
-41 -176 458 0
-459 176 0
-459 40 41 42 0
-40 -176 459 0
-41 -176 459 0
-42 -176 459 0
-460 176 0
-460 41 42 0
-41 -176 460 0
-42 -176 460 0
-461 176 0
-461 42 0
-42 -176 461 0
-462 177 0
-462 39 0
-39 -177 462 0
-463 177 0
-463 39 40 0
-39 -177 463 0
-40 -177 463 0
-464 177 0
-464 39 40 41 0
-39 -177 464 0
-40 -177 464 0
-41 -177 464 0
-465 177 0
-465 40 41 42 0
-40 -177 465 0
-41 -177 465 0
-42 -177 465 0
-466 177 0
-466 41 42 0
-41 -177 466 0
-42 -177 466 0
-467 177 0
-467 42 0
-42 -177 467 0
-468 178 0
-468 39 0
-39 -178 468 0
-469 178 0
-469 39 40 0
-39 -178 469 0
-40 -178 469 0
-470 178 0
-470 39 40 41 0
-39 -178 470 0
-40 -178 470 0
-41 -178 470 0
-471 178 0
-471 40 41 42 0
-40 -178 471 0
-41 -178 471 0
-42 -178 471 0
-472 178 0
-472 41 42 0
-41 -178 472 0
-42 -178 472 0
-473 178 0
-473 42 0
-42 -178 473 0
-474 179 0
-474 39 0
-39 -179 474 0
-475 179 0
-475 39 40 0
-39 -179 475 0
-40 -179 475 0
-476 179 0
-476 39 40 41 0
-39 -179 476 0
-40 -179 476 0
-41 -179 476 0
-477 179 0
-477 40 41 42 0
-40 -179 477 0
-41 -179 477 0
-42 -179 477 0
-478 179 0
-478 41 42 0
-41 -179 478 0
-42 -179 478 0
-479 179 0
-479 42 0
-42 -179 479 0
-384 -408 0
-384 -432 0
-384 -456 0
-408 -432 0
-408 -456 0
-432 -456 0
-385 -409 0
-385 -433 0
-385 -457 0
-409 -433 0
-409 -457 0
-433 -457 0
-386 -410 0
-386 -434 0
-386 -458 0
-410 -434 0
-410 -458 0
-434 -458 0
-387 -411 0
-387 -435 0
-387 -459 0
-411 -435 0
-411 -459 0
-435 -459 0
-388 -412 0
-388 -436 0
-388 -460 0
-412 -436 0
-412 -460 0
-436 -460 0
-389 -413 0
-389 -437 0
-389 -461 0
-413 -437 0
-413 -461 0
-437 -461 0
-390 -414 0
-390 -438 0
-390 -462 0
-414 -438 0
-414 -462 0
-438 -462 0
-391 -415 0
-391 -439 0
-391 -463 0
-415 -439 0
-415 -463 0
-439 -463 0
-392 -416 0
-392 -440 0
-392 -464 0
-416 -440 0
-416 -464 0
-440 -464 0
-393 -417 0
-393 -441 0
-393 -465 0
-417 -441 0
-417 -465 0
-441 -465 0
-394 -418 0
-394 -442 0
-394 -466 0
-418 -442 0
-418 -466 0
-442 -466 0
-395 -419 0
-395 -443 0
-395 -467 0
-419 -443 0
-419 -467 0
-443 -467 0
-396 -420 0
-396 -444 0
-396 -468 0
-420 -444 0
-420 -468 0
-444 -468 0
-397 -421 0
-397 -445 0
-397 -469 0
-421 -445 0
-421 -469 0
-445 -469 0
-398 -422 0
-398 -446 0
-398 -470 0
-422 -446 0
-422 -470 0
-446 -470 0
-399 -423 0
-399 -447 0
-399 -471 0
-423 -447 0
-423 -471 0
-447 -471 0
-400 -424 0
-400 -448 0
-400 -472 0
-424 -448 0
-424 -472 0
-448 -472 0
-401 -425 0
-401 -449 0
-401 -473 0
-425 -449 0
-425 -473 0
-449 -473 0
-402 -426 0
-402 -450 0
-402 -474 0
-426 -450 0
-426 -474 0
-450 -474 0
-403 -427 0
-403 -451 0
-403 -475 0
-427 -451 0
-427 -475 0
-451 -475 0
-404 -428 0
-404 -452 0
-404 -476 0
-428 -452 0
-428 -476 0
-452 -476 0
-405 -429 0
-405 -453 0
-405 -477 0
-429 -453 0
-429 -477 0
-453 -477 0
-406 -430 0
-406 -454 0
-406 -478 0
-430 -454 0
-430 -478 0
-454 -478 0
-407 -431 0
-407 -455 0
-407 -479 0
-431 -455 0
-431 -479 0
-455 -479 0
-22 -165 408 432 456 0
-22 -166 414 438 462 0
-22 -167 420 444 468 0
-23 -165 409 433 457 0
-23 -166 415 439 463 0
-23 -167 421 445 469 0
-24 -165 410 434 458 0
-24 -166 416 440 464 0
-24 -167 422 446 470 0
-25 -165 411 435 459 0
-25 -166 417 441 465 0
-25 -167 423 447 471 0
-26 -165 412 436 460 0
-26 -166 418 442 466 0
-26 -167 424 448 472 0
-27 -165 413 437 461 0
-27 -166 419 443 467 0
-27 -167 425 449 473 0
-28 -169 384 432 456 0
-28 -170 390 438 462 0
-28 -171 396 444 468 0
-29 -169 385 433 457 0
-29 -170 391 439 463 0
-29 -171 397 445 469 0
-30 -169 386 434 458 0
-30 -170 392 440 464 0
-30 -171 398 446 470 0
-31 -169 387 435 459 0
-31 -170 393 441 465 0
-31 -171 399 447 471 0
-32 -169 388 436 460 0
-32 -170 394 442 466 0
-32 -171 400 448 472 0
-33 -169 389 437 461 0
-33 -170 395 443 467 0
-33 -171 401 449 473 0
-34 -173 384 408 456 385 409 457 0
-34 -174 390 414 462 391 415 463 0
-34 -175 396 420 468 397 421 469 0
-35 -173 385 409 457 386 410 458 0
-35 -174 391 415 463 392 416 464 0
-35 -175 397 421 469 398 422 470 0
-36 -173 386 410 458 387 411 459 0
-36 -174 392 416 464 393 417 465 0
-36 -175 398 422 470 399 423 471 0
-37 -173 387 411 459 388 412 460 0
-37 -174 393 417 465 394 418 466 0
-37 -175 399 423 471 400 424 472 0
-38 -173 388 412 460 389 413 461 0
-38 -174 394 418 466 395 419 467 0
-38 -175 400 424 472 401 425 473 0
-39 -177 384 408 432 385 409 433 0
-39 -177 384 408 432 386 410 434 0
-39 -177 385 409 433 386 410 434 0
-39 -178 390 414 438 391 415 439 0
-39 -178 390 414 438 392 416 440 0
-39 -178 391 415 439 392 416 440 0
-39 -179 396 420 444 397 421 445 0
-39 -179 396 420 444 398 422 446 0
-39 -179 397 421 445 398 422 446 0
-40 -177 385 409 433 386 410 434 0
-40 -177 385 409 433 387 411 435 0
-40 -177 386 410 434 387 411 435 0
-40 -178 391 415 439 392 416 440 0
-40 -178 391 415 439 393 417 441 0
-40 -178 392 416 440 393 417 441 0
-40 -179 397 421 445 398 422 446 0
-40 -179 397 421 445 399 423 447 0
-40 -179 398 422 446 399 423 447 0
-41 -177 386 410 434 387 411 435 0
-41 -177 386 410 434 388 412 436 0
-41 -177 387 411 435 388 412 436 0
-41 -178 392 416 440 393 417 441 0
-41 -178 392 416 440 394 418 442 0
-41 -178 393 417 441 394 418 442 0
-41 -179 398 422 446 399 423 447 0
-41 -179 398 422 446 400 424 448 0
-41 -179 399 423 447 400 424 448 0
-42 -177 387 411 435 388 412 436 0
-42 -177 387 411 435 389 413 437 0
-42 -177 388 412 436 389 413 437 0
-42 -178 393 417 441 394 418 442 0
-42 -178 393 417 441 395 419 443 0
-42 -178 394 418 442 395 419 443 0
-42 -179 399 423 447 400 424 448 0
-42 -179 399 423 447 401 425 449 0
-42 -179 400 424 448 401 425 449 0
-1495 384 390 396 402 0
-1495 -384 -414 0
-1495 -384 -438 0
-1495 -384 -462 0
-384 1495 414 438 462 0
-1495 -390 -420 0
-1495 -390 -444 0
-1495 -390 -468 0
-390 1495 420 444 468 0
-1495 -396 -426 0
-1495 -396 -450 0
-1495 -396 -474 0
-396 1495 426 450 474 0
-402 1495 0
-1496 385 391 397 403 0
-1496 -385 -415 0
-1496 -385 -439 0
-1496 -385 -463 0
-385 1496 415 439 463 0
-1496 -391 -421 0
-1496 -391 -445 0
-1496 -391 -469 0
-391 1496 421 445 469 0
-1496 -397 -427 0
-1496 -397 -451 0
-1496 -397 -475 0
-397 1496 427 451 475 0
-403 1496 0
-1497 386 392 398 404 0
-1497 -386 -416 0
-1497 -386 -440 0
-1497 -386 -464 0
-386 1497 416 440 464 0
-1497 -392 -422 0
-1497 -392 -446 0
-1497 -392 -470 0
-392 1497 422 446 470 0
-1497 -398 -428 0
-1497 -398 -452 0
-1497 -398 -476 0
-398 1497 428 452 476 0
-404 1497 0
-1498 387 393 399 405 0
-1498 -387 -417 0
-1498 -387 -441 0
-1498 -387 -465 0
-387 1498 417 441 465 0
-1498 -393 -423 0
-1498 -393 -447 0
-1498 -393 -471 0
-393 1498 423 447 471 0
-1498 -399 -429 0
-1498 -399 -453 0
-1498 -399 -477 0
-399 1498 429 453 477 0
-405 1498 0
-1499 388 394 400 406 0
-1499 -388 -418 0
-1499 -388 -442 0
-1499 -388 -466 0
-388 1499 418 442 466 0
-1499 -394 -424 0
-1499 -394 -448 0
-1499 -394 -472 0
-394 1499 424 448 472 0
-1499 -400 -430 0
-1499 -400 -454 0
-1499 -400 -478 0
-400 1499 430 454 478 0
-406 1499 0
-1500 389 395 401 407 0
-1500 -389 -419 0
-1500 -389 -443 0
-1500 -389 -467 0
-389 1500 419 443 467 0
-1500 -395 -425 0
-1500 -395 -449 0
-1500 -395 -473 0
-395 1500 425 449 473 0
-1500 -401 -431 0
-1500 -401 -455 0
-1500 -401 -479 0
-401 1500 431 455 479 0
-407 1500 0
-1501 408 414 420 426 0
-1501 -408 -390 0
-1501 -408 -438 0
-1501 -408 -462 0
-408 1501 390 438 462 0
-1501 -414 -396 0
-1501 -414 -444 0
-1501 -414 -468 0
-414 1501 396 444 468 0
-1501 -420 -402 0
-1501 -420 -450 0
-1501 -420 -474 0
-420 1501 402 450 474 0
-426 1501 0
-1502 409 415 421 427 0
-1502 -409 -391 0
-1502 -409 -439 0
-1502 -409 -463 0
-409 1502 391 439 463 0
-1502 -415 -397 0
-1502 -415 -445 0
-1502 -415 -469 0
-415 1502 397 445 469 0
-1502 -421 -403 0
-1502 -421 -451 0
-1502 -421 -475 0
-421 1502 403 451 475 0
-427 1502 0
-1503 410 416 422 428 0
-1503 -410 -392 0
-1503 -410 -440 0
-1503 -410 -464 0
-410 1503 392 440 464 0
-1503 -416 -398 0
-1503 -416 -446 0
-1503 -416 -470 0
-416 1503 398 446 470 0
-1503 -422 -404 0
-1503 -422 -452 0
-1503 -422 -476 0
-422 1503 404 452 476 0
-428 1503 0
-1504 411 417 423 429 0
-1504 -411 -393 0
-1504 -411 -441 0
-1504 -411 -465 0
-411 1504 393 441 465 0
-1504 -417 -399 0
-1504 -417 -447 0
-1504 -417 -471 0
-417 1504 399 447 471 0
-1504 -423 -405 0
-1504 -423 -453 0
-1504 -423 -477 0
-423 1504 405 453 477 0
-429 1504 0
-1505 412 418 424 430 0
-1505 -412 -394 0
-1505 -412 -442 0
-1505 -412 -466 0
-412 1505 394 442 466 0
-1505 -418 -400 0
-1505 -418 -448 0
-1505 -418 -472 0
-418 1505 400 448 472 0
-1505 -424 -406 0
-1505 -424 -454 0
-1505 -424 -478 0
-424 1505 406 454 478 0
-430 1505 0
-1506 413 419 425 431 0
-1506 -413 -395 0
-1506 -413 -443 0
-1506 -413 -467 0
-413 1506 395 443 467 0
-1506 -419 -401 0
-1506 -419 -449 0
-1506 -419 -473 0
-419 1506 401 449 473 0
-1506 -425 -407 0
-1506 -425 -455 0
-1506 -425 -479 0
-425 1506 407 455 479 0
-431 1506 0
-1507 432 438 444 450 0
-1507 -432 -390 0
-1507 -432 -414 0
-1507 -432 -462 0
-432 1507 390 414 462 0
-1507 -438 -396 0
-1507 -438 -420 0
-1507 -438 -468 0
-438 1507 396 420 468 0
-1507 -444 -402 0
-1507 -444 -426 0
-1507 -444 -474 0
-444 1507 402 426 474 0
-450 1507 0
-1508 433 439 445 451 0
-1508 -433 -391 0
-1508 -433 -415 0
-1508 -433 -463 0
-433 1508 391 415 463 0
-1508 -439 -397 0
-1508 -439 -421 0
-1508 -439 -469 0
-439 1508 397 421 469 0
-1508 -445 -403 0
-1508 -445 -427 0
-1508 -445 -475 0
-445 1508 403 427 475 0
-451 1508 0
-1509 434 440 446 452 0
-1509 -434 -392 0
-1509 -434 -416 0
-1509 -434 -464 0
-434 1509 392 416 464 0
-1509 -440 -398 0
-1509 -440 -422 0
-1509 -440 -470 0
-440 1509 398 422 470 0
-1509 -446 -404 0
-1509 -446 -428 0
-1509 -446 -476 0
-446 1509 404 428 476 0
-452 1509 0
-1510 435 441 447 453 0
-1510 -435 -393 0
-1510 -435 -417 0
-1510 -435 -465 0
-435 1510 393 417 465 0
-1510 -441 -399 0
-1510 -441 -423 0
-1510 -441 -471 0
-441 1510 399 423 471 0
-1510 -447 -405 0
-1510 -447 -429 0
-1510 -447 -477 0
-447 1510 405 429 477 0
-453 1510 0
-1511 436 442 448 454 0
-1511 -436 -394 0
-1511 -436 -418 0
-1511 -436 -466 0
-436 1511 394 418 466 0
-1511 -442 -400 0
-1511 -442 -424 0
-1511 -442 -472 0
-442 1511 400 424 472 0
-1511 -448 -406 0
-1511 -448 -430 0
-1511 -448 -478 0
-448 1511 406 430 478 0
-454 1511 0
-1512 437 443 449 455 0
-1512 -437 -395 0
-1512 -437 -419 0
-1512 -437 -467 0
-437 1512 395 419 467 0
-1512 -443 -401 0
-1512 -443 -425 0
-1512 -443 -473 0
-443 1512 401 425 473 0
-1512 -449 -407 0
-1512 -449 -431 0
-1512 -449 -479 0
-449 1512 407 431 479 0
-455 1512 0
-1513 456 462 468 474 0
-1513 -456 -390 0
-1513 -456 -414 0
-1513 -456 -438 0
-456 1513 390 414 438 0
-1513 -462 -396 0
-1513 -462 -420 0
-1513 -462 -444 0
-462 1513 396 420 444 0
-1513 -468 -402 0
-1513 -468 -426 0
-1513 -468 -450 0
-468 1513 402 426 450 0
-474 1513 0
-1514 457 463 469 475 0
-1514 -457 -391 0
-1514 -457 -415 0
-1514 -457 -439 0
-457 1514 391 415 439 0
-1514 -463 -397 0
-1514 -463 -421 0
-1514 -463 -445 0
-463 1514 397 421 445 0
-1514 -469 -403 0
-1514 -469 -427 0
-1514 -469 -451 0
-469 1514 403 427 451 0
-475 1514 0
-1515 458 464 470 476 0
-1515 -458 -392 0
-1515 -458 -416 0
-1515 -458 -440 0
-458 1515 392 416 440 0
-1515 -464 -398 0
-1515 -464 -422 0
-1515 -464 -446 0
-464 1515 398 422 446 0
-1515 -470 -404 0
-1515 -470 -428 0
-1515 -470 -452 0
-470 1515 404 428 452 0
-476 1515 0
-1516 459 465 471 477 0
-1516 -459 -393 0
-1516 -459 -417 0
-1516 -459 -441 0
-459 1516 393 417 441 0
-1516 -465 -399 0
-1516 -465 -423 0
-1516 -465 -447 0
-465 1516 399 423 447 0
-1516 -471 -405 0
-1516 -471 -429 0
-1516 -471 -453 0
-471 1516 405 429 453 0
-477 1516 0
-1517 460 466 472 478 0
-1517 -460 -394 0
-1517 -460 -418 0
-1517 -460 -442 0
-460 1517 394 418 442 0
-1517 -466 -400 0
-1517 -466 -424 0
-1517 -466 -448 0
-466 1517 400 424 448 0
-1517 -472 -406 0
-1517 -472 -430 0
-1517 -472 -454 0
-472 1517 406 430 454 0
-478 1517 0
-1518 461 467 473 479 0
-1518 -461 -395 0
-1518 -461 -419 0
-1518 -461 -443 0
-461 1518 395 419 443 0
-1518 -467 -401 0
-1518 -467 -425 0
-1518 -467 -449 0
-467 1518 401 425 449 0
-1518 -473 -407 0
-1518 -473 -431 0
-1518 -473 -455 0
-473 1518 407 431 455 0
-479 1518 0
-264 -384 1495 0
-264 -390 1495 0
-264 -396 1495 0
-264 -402 1495 0
-264 -385 1496 0
-264 -391 1496 0
-264 -397 1496 0
-264 -403 1496 0
-264 -386 1497 0
-264 -392 1497 0
-264 -398 1497 0
-264 -404 1497 0
-264 -387 1498 0
-264 -393 1498 0
-264 -399 1498 0
-264 -405 1498 0
-264 -388 1499 0
-264 -394 1499 0
-264 -400 1499 0
-264 -406 1499 0
-264 -389 1500 0
-264 -395 1500 0
-264 -401 1500 0
-264 -407 1500 0
-22 264 -1495 0
-23 264 -1496 0
-24 264 -1497 0
-25 264 -1498 0
-26 264 -1499 0
-27 264 -1500 0
-265 -408 1501 0
-265 -414 1501 0
-265 -420 1501 0
-265 -426 1501 0
-265 -409 1502 0
-265 -415 1502 0
-265 -421 1502 0
-265 -427 1502 0
-265 -410 1503 0
-265 -416 1503 0
-265 -422 1503 0
-265 -428 1503 0
-265 -411 1504 0
-265 -417 1504 0
-265 -423 1504 0
-265 -429 1504 0
-265 -412 1505 0
-265 -418 1505 0
-265 -424 1505 0
-265 -430 1505 0
-265 -413 1506 0
-265 -419 1506 0
-265 -425 1506 0
-265 -431 1506 0
-28 265 -1501 0
-29 265 -1502 0
-30 265 -1503 0
-31 265 -1504 0
-32 265 -1505 0
-33 265 -1506 0
-266 -432 1507 0
-266 -438 1507 0
-266 -444 1507 0
-266 -450 1507 0
-266 -433 1508 0
-266 -439 1508 0
-266 -445 1508 0
-266 -451 1508 0
-266 -434 1509 0
-266 -440 1509 0
-266 -446 1509 0
-266 -452 1509 0
-266 -435 1510 0
-266 -441 1510 0
-266 -447 1510 0
-266 -453 1510 0
-266 -436 1511 0
-266 -442 1511 0
-266 -448 1511 0
-266 -454 1511 0
-266 -437 1512 0
-266 -443 1512 0
-266 -449 1512 0
-266 -455 1512 0
-34 266 -1507 -1508 0
-35 266 -1508 -1509 0
-36 266 -1509 -1510 0
-37 266 -1510 -1511 0
-38 266 -1511 -1512 0
-267 -456 1513 0
-267 -462 1513 0
-267 -468 1513 0
-267 -474 1513 0
-267 -457 1514 0
-267 -463 1514 0
-267 -469 1514 0
-267 -475 1514 0
-267 -458 1515 0
-267 -464 1515 0
-267 -470 1515 0
-267 -476 1515 0
-267 -459 1516 0
-267 -465 1516 0
-267 -471 1516 0
-267 -477 1516 0
-267 -460 1517 0
-267 -466 1517 0
-267 -472 1517 0
-267 -478 1517 0
-267 -461 1518 0
-267 -467 1518 0
-267 -473 1518 0
-267 -479 1518 0
-39 267 -1513 -1514 -1515 0
-40 267 -1514 -1515 -1516 0
-41 267 -1515 -1516 -1517 0
-42 267 -1516 -1517 -1518 0
43 44 45 46 47 48 0
-43 -44 0
-43 -45 0
-43 -46 0
-43 -47 0
-43 -48 0
-44 -45 0
-44 -46 0
-44 -47 0
-44 -48 0
-45 -46 0
-45 -47 0
-45 -48 0
-46 -47 0
-46 -48 0
-47 -48 0
49 50 51 52 53 54 0
-49 -50 0
-49 -51 0
-49 -52 0
-49 -53 0
-49 -54 0
-50 -51 0
-50 -52 0
-50 -53 0
-50 -54 0
-51 -52 0
-51 -53 0
-51 -54 0
-52 -53 0
-52 -54 0
-53 -54 0
55 56 57 58 59 0
-55 -56 0
-55 -57 0
-55 -58 0
-55 -59 0
-56 -57 0
-56 -58 0
-56 -59 0
-57 -58 0
-57 -59 0
-58 -59 0
60 61 62 63 0
-60 -61 0
-60 -62 0
-60 -63 0
-61 -62 0
-61 -63 0
-62 -63 0
180 181 182 183 0
-180 -181 0
-180 -182 0
-180 -183 0
-181 -182 0
-181 -183 0
-182 -183 0
184 185 186 187 0
-184 -185 0
-184 -186 0
-184 -187 0
-185 -186 0
-185 -187 0
-186 -187 0
188 189 190 191 0
-188 -189 0
-188 -190 0
-188 -191 0
-189 -190 0
-189 -191 0
-190 -191 0
192 193 194 195 0
-192 -193 0
-192 -194 0
-192 -195 0
-193 -194 0
-193 -195 0
-194 -195 0
-480 180 0
-480 43 0
-43 -180 480 0
-481 180 0
-481 44 0
-44 -180 481 0
-482 180 0
-482 45 0
-45 -180 482 0
-483 180 0
-483 46 0
-46 -180 483 0
-484 180 0
-484 47 0
-47 -180 484 0
-485 180 0
-485 48 0
-48 -180 485 0
-486 181 0
-486 43 0
-43 -181 486 0
-487 181 0
-487 44 0
-44 -181 487 0
-488 181 0
-488 45 0
-45 -181 488 0
-489 181 0
-489 46 0
-46 -181 489 0
-490 181 0
-490 47 0
-47 -181 490 0
-491 181 0
-491 48 0
-48 -181 491 0
-492 182 0
-492 43 0
-43 -182 492 0
-493 182 0
-493 44 0
-44 -182 493 0
-494 182 0
-494 45 0
-45 -182 494 0
-495 182 0
-495 46 0
-46 -182 495 0
-496 182 0
-496 47 0
-47 -182 496 0
-497 182 0
-497 48 0
-48 -182 497 0
-498 183 0
-498 43 0
-43 -183 498 0
-499 183 0
-499 44 0
-44 -183 499 0
-500 183 0
-500 45 0
-45 -183 500 0
-501 183 0
-501 46 0
-46 -183 501 0
-502 183 0
-502 47 0
-47 -183 502 0
-503 183 0
-503 48 0
-48 -183 503 0
-504 184 0
-504 49 0
-49 -184 504 0
-505 184 0
-505 50 0
-50 -184 505 0
-506 184 0
-506 51 0
-51 -184 506 0
-507 184 0
-507 52 0
-52 -184 507 0
-508 184 0
-508 53 0
-53 -184 508 0
-509 184 0
-509 54 0
-54 -184 509 0
-510 185 0
-510 49 0
-49 -185 510 0
-511 185 0
-511 50 0
-50 -185 511 0
-512 185 0
-512 51 0
-51 -185 512 0
-513 185 0
-513 52 0
-52 -185 513 0
-514 185 0
-514 53 0
-53 -185 514 0
-515 185 0
-515 54 0
-54 -185 515 0
-516 186 0
-516 49 0
-49 -186 516 0
-517 186 0
-517 50 0
-50 -186 517 0
-518 186 0
-518 51 0
-51 -186 518 0
-519 186 0
-519 52 0
-52 -186 519 0
-520 186 0
-520 53 0
-53 -186 520 0
-521 186 0
-521 54 0
-54 -186 521 0
-522 187 0
-522 49 0
-49 -187 522 0
-523 187 0
-523 50 0
-50 -187 523 0
-524 187 0
-524 51 0
-51 -187 524 0
-525 187 0
-525 52 0
-52 -187 525 0
-526 187 0
-526 53 0
-53 -187 526 0
-527 187 0
-527 54 0
-54 -187 527 0
-528 188 0
-528 55 0
-55 -188 528 0
-529 188 0
-529 55 56 0
-55 -188 529 0
-56 -188 529 0
-530 188 0
-530 56 57 0
-56 -188 530 0
-57 -188 530 0
-531 188 0
-531 57 58 0
-57 -188 531 0
-58 -188 531 0
-532 188 0
-532 58 59 0
-58 -188 532 0
-59 -188 532 0
-533 188 0
-533 59 0
-59 -188 533 0
-534 189 0
-534 55 0
-55 -189 534 0
-535 189 0
-535 55 56 0
-55 -189 535 0
-56 -189 535 0
-536 189 0
-536 56 57 0
-56 -189 536 0
-57 -189 536 0
-537 189 0
-537 57 58 0
-57 -189 537 0
-58 -189 537 0
-538 189 0
-538 58 59 0
-58 -189 538 0
-59 -189 538 0
-539 189 0
-539 59 0
-59 -189 539 0
-540 190 0
-540 55 0
-55 -190 540 0
-541 190 0
-541 55 56 0
-55 -190 541 0
-56 -190 541 0
-542 190 0
-542 56 57 0
-56 -190 542 0
-57 -190 542 0
-543 190 0
-543 57 58 0
-57 -190 543 0
-58 -190 543 0
-544 190 0
-544 58 59 0
-58 -190 544 0
-59 -190 544 0
-545 190 0
-545 59 0
-59 -190 545 0
-546 191 0
-546 55 0
-55 -191 546 0
-547 191 0
-547 55 56 0
-55 -191 547 0
-56 -191 547 0
-548 191 0
-548 56 57 0
-56 -191 548 0
-57 -191 548 0
-549 191 0
-549 57 58 0
-57 -191 549 0
-58 -191 549 0
-550 191 0
-550 58 59 0
-58 -191 550 0
-59 -191 550 0
-551 191 0
-551 59 0
-59 -191 551 0
-552 192 0
-552 60 0
-60 -192 552 0
-553 192 0
-553 60 61 0
-60 -192 553 0
-61 -192 553 0
-554 192 0
-554 60 61 62 0
-60 -192 554 0
-61 -192 554 0
-62 -192 554 0
-555 192 0
-555 61 62 63 0
-61 -192 555 0
-62 -192 555 0
-63 -192 555 0
-556 192 0
-556 62 63 0
-62 -192 556 0
-63 -192 556 0
-557 192 0
-557 63 0
-63 -192 557 0
-558 193 0
-558 60 0
-60 -193 558 0
-559 193 0
-559 60 61 0
-60 -193 559 0
-61 -193 559 0
-560 193 0
-560 60 61 62 0
-60 -193 560 0
-61 -193 560 0
-62 -193 560 0
-561 193 0
-561 61 62 63 0
-61 -193 561 0
-62 -193 561 0
-63 -193 561 0
-562 193 0
-562 62 63 0
-62 -193 562 0
-63 -193 562 0
-563 193 0
-563 63 0
-63 -193 563 0
-564 194 0
-564 60 0
-60 -194 564 0
-565 194 0
-565 60 61 0
-60 -194 565 0
-61 -194 565 0
-566 194 0
-566 60 61 62 0
-60 -194 566 0
-61 -194 566 0
-62 -194 566 0
-567 194 0
-567 61 62 63 0
-61 -194 567 0
-62 -194 567 0
-63 -194 567 0
-568 194 0
-568 62 63 0
-62 -194 568 0
-63 -194 568 0
-569 194 0
-569 63 0
-63 -194 569 0
-570 195 0
-570 60 0
-60 -195 570 0
-571 195 0
-571 60 61 0
-60 -195 571 0
-61 -195 571 0
-572 195 0
-572 60 61 62 0
-60 -195 572 0
-61 -195 572 0
-62 -195 572 0
-573 195 0
-573 61 62 63 0
-61 -195 573 0
-62 -195 573 0
-63 -195 573 0
-574 195 0
-574 62 63 0
-62 -195 574 0
-63 -195 574 0
-575 195 0
-575 63 0
-63 -195 575 0
-480 -504 0
-480 -528 0
-480 -552 0
-504 -528 0
-504 -552 0
-528 -552 0
-481 -505 0
-481 -529 0
-481 -553 0
-505 -529 0
-505 -553 0
-529 -553 0
-482 -506 0
-482 -530 0
-482 -554 0
-506 -530 0
-506 -554 0
-530 -554 0
-483 -507 0
-483 -531 0
-483 -555 0
-507 -531 0
-507 -555 0
-531 -555 0
-484 -508 0
-484 -532 0
-484 -556 0
-508 -532 0
-508 -556 0
-532 -556 0
-485 -509 0
-485 -533 0
-485 -557 0
-509 -533 0
-509 -557 0
-533 -557 0
-486 -510 0
-486 -534 0
-486 -558 0
-510 -534 0
-510 -558 0
-534 -558 0
-487 -511 0
-487 -535 0
-487 -559 0
-511 -535 0
-511 -559 0
-535 -559 0
-488 -512 0
-488 -536 0
-488 -560 0
-512 -536 0
-512 -560 0
-536 -560 0
-489 -513 0
-489 -537 0
-489 -561 0
-513 -537 0
-513 -561 0
-537 -561 0
-490 -514 0
-490 -538 0
-490 -562 0
-514 -538 0
-514 -562 0
-538 -562 0
-491 -515 0
-491 -539 0
-491 -563 0
-515 -539 0
-515 -563 0
-539 -563 0
-492 -516 0
-492 -540 0
-492 -564 0
-516 -540 0
-516 -564 0
-540 -564 0
-493 -517 0
-493 -541 0
-493 -565 0
-517 -541 0
-517 -565 0
-541 -565 0
-494 -518 0
-494 -542 0
-494 -566 0
-518 -542 0
-518 -566 0
-542 -566 0
-495 -519 0
-495 -543 0
-495 -567 0
-519 -543 0
-519 -567 0
-543 -567 0
-496 -520 0
-496 -544 0
-496 -568 0
-520 -544 0
-520 -568 0
-544 -568 0
-497 -521 0
-497 -545 0
-497 -569 0
-521 -545 0
-521 -569 0
-545 -569 0
-498 -522 0
-498 -546 0
-498 -570 0
-522 -546 0
-522 -570 0
-546 -570 0
-499 -523 0
-499 -547 0
-499 -571 0
-523 -547 0
-523 -571 0
-547 -571 0
-500 -524 0
-500 -548 0
-500 -572 0
-524 -548 0
-524 -572 0
-548 -572 0
-501 -525 0
-501 -549 0
-501 -573 0
-525 -549 0
-525 -573 0
-549 -573 0
-502 -526 0
-502 -550 0
-502 -574 0
-526 -550 0
-526 -574 0
-550 -574 0
-503 -527 0
-503 -551 0
-503 -575 0
-527 -551 0
-527 -575 0
-551 -575 0
-43 -181 504 528 552 0
-43 -182 510 534 558 0
-43 -183 516 540 564 0
-44 -181 505 529 553 0
-44 -182 511 535 559 0
-44 -183 517 541 565 0
-45 -181 506 530 554 0
-45 -182 512 536 560 0
-45 -183 518 542 566 0
-46 -181 507 531 555 0
-46 -182 513 537 561 0
-46 -183 519 543 567 0
-47 -181 508 532 556 0
-47 -182 514 538 562 0
-47 -183 520 544 568 0
-48 -181 509 533 557 0
-48 -182 515 539 563 0
-48 -183 521 545 569 0
-49 -185 480 528 552 0
-49 -186 486 534 558 0
-49 -187 492 540 564 0
-50 -185 481 529 553 0
-50 -186 487 535 559 0
-50 -187 493 541 565 0
-51 -185 482 530 554 0
-51 -186 488 536 560 0
-51 -187 494 542 566 0
-52 -185 483 531 555 0
-52 -186 489 537 561 0
-52 -187 495 543 567 0
-53 -185 484 532 556 0
-53 -186 490 538 562 0
-53 -187 496 544 568 0
-54 -185 485 533 557 0
-54 -186 491 539 563 0
-54 -187 497 545 569 0
-55 -189 480 504 552 481 505 553 0
-55 -190 486 510 558 487 511 559 0
-55 -191 492 516 564 493 517 565 0
-56 -189 481 505 553 482 506 554 0
-56 -190 487 511 559 488 512 560 0
-56 -191 493 517 565 494 518 566 0
-57 -189 482 506 554 483 507 555 0
-57 -190 488 512 560 489 513 561 0
-57 -191 494 518 566 495 519 567 0
-58 -189 483 507 555 484 508 556 0
-58 -190 489 513 561 490 514 562 0
-58 -191 495 519 567 496 520 568 0
-59 -189 484 508 556 485 509 557 0
-59 -190 490 514 562 491 515 563 0
-59 -191 496 520 568 497 521 569 0
-60 -193 480 504 528 481 505 529 0
-60 -193 480 504 528 482 506 530 0
-60 -193 481 505 529 482 506 530 0
-60 -194 486 510 534 487 511 535 0
-60 -194 486 510 534 488 512 536 0
-60 -194 487 511 535 488 512 536 0
-60 -195 492 516 540 493 517 541 0
-60 -195 492 516 540 494 518 542 0
-60 -195 493 517 541 494 518 542 0
-61 -193 481 505 529 482 506 530 0
-61 -193 481 505 529 483 507 531 0
-61 -193 482 506 530 483 507 531 0
-61 -194 487 511 535 488 512 536 0
-61 -194 487 511 535 489 513 537 0
-61 -194 488 512 536 489 513 537 0
-61 -195 493 517 541 494 518 542 0
-61 -195 493 517 541 495 519 543 0
-61 -195 494 518 542 495 519 543 0
-62 -193 482 506 530 483 507 531 0
-62 -193 482 506 530 484 508 532 0
-62 -193 483 507 531 484 508 532 0
-62 -194 488 512 536 489 513 537 0
-62 -194 488 512 536 490 514 538 0
-62 -194 489 513 537 490 514 538 0
-62 -195 494 518 542 495 519 543 0
-62 -195 494 518 542 496 520 544 0
-62 -195 495 519 543 496 520 544 0
-63 -193 483 507 531 484 508 532 0
-63 -193 483 507 531 485 509 533 0
-63 -193 484 508 532 485 509 533 0
-63 -194 489 513 537 490 514 538 0
-63 -194 489 513 537 491 515 539 0
-63 -194 490 514 538 491 515 539 0
-63 -195 495 519 543 496 520 544 0
-63 -195 495 519 543 497 521 545 0
-63 -195 496 520 544 497 521 545 0
-1519 480 486 492 498 0
-1519 -480 -510 0
-1519 -480 -534 0
-1519 -480 -558 0
-480 1519 510 534 558 0
-1519 -486 -516 0
-1519 -486 -540 0
-1519 -486 -564 0
-486 1519 516 540 564 0
-1519 -492 -522 0
-1519 -492 -546 0
-1519 -492 -570 0
-492 1519 522 546 570 0
-498 1519 0
-1520 481 487 493 499 0
-1520 -481 -511 0
-1520 -481 -535 0
-1520 -481 -559 0
-481 1520 511 535 559 0
-1520 -487 -517 0
-1520 -487 -541 0
-1520 -487 -565 0
-487 1520 517 541 565 0
-1520 -493 -523 0
-1520 -493 -547 0
-1520 -493 -571 0
-493 1520 523 547 571 0
-499 1520 0
-1521 482 488 494 500 0
-1521 -482 -512 0
-1521 -482 -536 0
-1521 -482 -560 0
-482 1521 512 536 560 0
-1521 -488 -518 0
-1521 -488 -542 0
-1521 -488 -566 0
-488 1521 518 542 566 0
-1521 -494 -524 0
-1521 -494 -548 0
-1521 -494 -572 0
-494 1521 524 548 572 0
-500 1521 0
-1522 483 489 495 501 0
-1522 -483 -513 0
-1522 -483 -537 0
-1522 -483 -561 0
-483 1522 513 537 561 0
-1522 -489 -519 0
-1522 -489 -543 0
-1522 -489 -567 0
-489 1522 519 543 567 0
-1522 -495 -525 0
-1522 -495 -549 0
-1522 -495 -573 0
-495 1522 525 549 573 0
-501 1522 0
-1523 484 490 496 502 0
-1523 -484 -514 0
-1523 -484 -538 0
-1523 -484 -562 0
-484 1523 514 538 562 0
-1523 -490 -520 0
-1523 -490 -544 0
-1523 -490 -568 0
-490 1523 520 544 568 0
-1523 -496 -526 0
-1523 -496 -550 0
-1523 -496 -574 0
-496 1523 526 550 574 0
-502 1523 0
-1524 485 491 497 503 0
-1524 -485 -515 0
-1524 -485 -539 0
-1524 -485 -563 0
-485 1524 515 539 563 0
-1524 -491 -521 0
-1524 -491 -545 0
-1524 -491 -569 0
-491 1524 521 545 569 0
-1524 -497 -527 0
-1524 -497 -551 0
-1524 -497 -575 0
-497 1524 527 551 575 0
-503 1524 0
-1525 504 510 516 522 0
-1525 -504 -486 0
-1525 -504 -534 0
-1525 -504 -558 0
-504 1525 486 534 558 0
-1525 -510 -492 0
-1525 -510 -540 0
-1525 -510 -564 0
-510 1525 492 540 564 0
-1525 -516 -498 0
-1525 -516 -546 0
-1525 -516 -570 0
-516 1525 498 546 570 0
-522 1525 0
-1526 505 511 517 523 0
-1526 -505 -487 0
-1526 -505 -535 0
-1526 -505 -559 0
-505 1526 487 535 559 0
-1526 -511 -493 0
-1526 -511 -541 0
-1526 -511 -565 0
-511 1526 493 541 565 0
-1526 -517 -499 0
-1526 -517 -547 0
-1526 -517 -571 0
-517 1526 499 547 571 0
-523 1526 0
-1527 506 512 518 524 0
-1527 -506 -488 0
-1527 -506 -536 0
-1527 -506 -560 0
-506 1527 488 536 560 0
-1527 -512 -494 0
-1527 -512 -542 0
-1527 -512 -566 0
-512 1527 494 542 566 0
-1527 -518 -500 0
-1527 -518 -548 0
-1527 -518 -572 0
-518 1527 500 548 572 0
-524 1527 0
-1528 507 513 519 525 0
-1528 -507 -489 0
-1528 -507 -537 0
-1528 -507 -561 0
-507 1528 489 537 561 0
-1528 -513 -495 0
-1528 -513 -543 0
-1528 -513 -567 0
-513 1528 495 543 567 0
-1528 -519 -501 0
-1528 -519 -549 0
-1528 -519 -573 0
-519 1528 501 549 573 0
-525 1528 0
-1529 508 514 520 526 0
-1529 -508 -490 0
-1529 -508 -538 0
-1529 -508 -562 0
-508 1529 490 538 562 0
-1529 -514 -496 0
-1529 -514 -544 0
-1529 -514 -568 0
-514 1529 496 544 568 0
-1529 -520 -502 0
-1529 -520 -550 0
-1529 -520 -574 0
-520 1529 502 550 574 0
-526 1529 0
-1530 509 515 521 527 0
-1530 -509 -491 0
-1530 -509 -539 0
-1530 -509 -563 0
-509 1530 491 539 563 0
-1530 -515 -497 0
-1530 -515 -545 0
-1530 -515 -569 0
-515 1530 497 545 569 0
-1530 -521 -503 0
-1530 -521 -551 0
-1530 -521 -575 0
-521 1530 503 551 575 0
-527 1530 0
-1531 528 534 540 546 0
-1531 -528 -486 0
-1531 -528 -510 0
-1531 -528 -558 0
-528 1531 486 510 558 0
-1531 -534 -492 0
-1531 -534 -516 0
-1531 -534 -564 0
-534 1531 492 516 564 0
-1531 -540 -498 0
-1531 -540 -522 0
-1531 -540 -570 0
-540 1531 498 522 570 0
-546 1531 0
-1532 529 535 541 547 0
-1532 -529 -487 0
-1532 -529 -511 0
-1532 -529 -559 0
-529 1532 487 511 559 0
-1532 -535 -493 0
-1532 -535 -517 0
-1532 -535 -565 0
-535 1532 493 517 565 0
-1532 -541 -499 0
-1532 -541 -523 0
-1532 -541 -571 0
-541 1532 499 523 571 0
-547 1532 0
-1533 530 536 542 548 0
-1533 -530 -488 0
-1533 -530 -512 0
-1533 -530 -560 0
-530 1533 488 512 560 0
-1533 -536 -494 0
-1533 -536 -518 0
-1533 -536 -566 0
-536 1533 494 518 566 0
-1533 -542 -500 0
-1533 -542 -524 0
-1533 -542 -572 0
-542 1533 500 524 572 0
-548 1533 0
-1534 531 537 543 549 0
-1534 -531 -489 0
-1534 -531 -513 0
-1534 -531 -561 0
-531 1534 489 513 561 0
-1534 -537 -495 0
-1534 -537 -519 0
-1534 -537 -567 0
-537 1534 495 519 567 0
-1534 -543 -501 0
-1534 -543 -525 0
-1534 -543 -573 0
-543 1534 501 525 573 0
-549 1534 0
-1535 532 538 544 550 0
-1535 -532 -490 0
-1535 -532 -514 0
-1535 -532 -562 0
-532 1535 490 514 562 0
-1535 -538 -496 0
-1535 -538 -520 0
-1535 -538 -568 0
-538 1535 496 520 568 0
-1535 -544 -502 0
-1535 -544 -526 0
-1535 -544 -574 0
-544 1535 502 526 574 0
-550 1535 0
-1536 533 539 545 551 0
-1536 -533 -491 0
-1536 -533 -515 0
-1536 -533 -563 0
-533 1536 491 515 563 0
-1536 -539 -497 0
-1536 -539 -521 0
-1536 -539 -569 0
-539 1536 497 521 569 0
-1536 -545 -503 0
-1536 -545 -527 0
-1536 -545 -575 0
-545 1536 503 527 575 0
-551 1536 0
-1537 552 558 564 570 0
-1537 -552 -486 0
-1537 -552 -510 0
-1537 -552 -534 0
-552 1537 486 510 534 0
-1537 -558 -492 0
-1537 -558 -516 0
-1537 -558 -540 0
-558 1537 492 516 540 0
-1537 -564 -498 0
-1537 -564 -522 0
-1537 -564 -546 0
-564 1537 498 522 546 0
-570 1537 0
-1538 553 559 565 571 0
-1538 -553 -487 0
-1538 -553 -511 0
-1538 -553 -535 0
-553 1538 487 511 535 0
-1538 -559 -493 0
-1538 -559 -517 0
-1538 -559 -541 0
-559 1538 493 517 541 0
-1538 -565 -499 0
-1538 -565 -523 0
-1538 -565 -547 0
-565 1538 499 523 547 0
-571 1538 0
-1539 554 560 566 572 0
-1539 -554 -488 0
-1539 -554 -512 0
-1539 -554 -536 0
-554 1539 488 512 536 0
-1539 -560 -494 0
-1539 -560 -518 0
-1539 -560 -542 0
-560 1539 494 518 542 0
-1539 -566 -500 0
-1539 -566 -524 0
-1539 -566 -548 0
-566 1539 500 524 548 0
-572 1539 0
-1540 555 561 567 573 0
-1540 -555 -489 0
-1540 -555 -513 0
-1540 -555 -537 0
-555 1540 489 513 537 0
-1540 -561 -495 0
-1540 -561 -519 0
-1540 -561 -543 0
-561 1540 495 519 543 0
-1540 -567 -501 0
-1540 -567 -525 0
-1540 -567 -549 0
-567 1540 501 525 549 0
-573 1540 0
-1541 556 562 568 574 0
-1541 -556 -490 0
-1541 -556 -514 0
-1541 -556 -538 0
-556 1541 490 514 538 0
-1541 -562 -496 0
-1541 -562 -520 0
-1541 -562 -544 0
-562 1541 496 520 544 0
-1541 -568 -502 0
-1541 -568 -526 0
-1541 -568 -550 0
-568 1541 502 526 550 0
-574 1541 0
-1542 557 563 569 575 0
-1542 -557 -491 0
-1542 -557 -515 0
-1542 -557 -539 0
-557 1542 491 515 539 0
-1542 -563 -497 0
-1542 -563 -521 0
-1542 -563 -545 0
-563 1542 497 521 545 0
-1542 -569 -503 0
-1542 -569 -527 0
-1542 -569 -551 0
-569 1542 503 527 551 0
-575 1542 0
-268 -480 1519 0
-268 -486 1519 0
-268 -492 1519 0
-268 -498 1519 0
-268 -481 1520 0
-268 -487 1520 0
-268 -493 1520 0
-268 -499 1520 0
-268 -482 1521 0
-268 -488 1521 0
-268 -494 1521 0
-268 -500 1521 0
-268 -483 1522 0
-268 -489 1522 0
-268 -495 1522 0
-268 -501 1522 0
-268 -484 1523 0
-268 -490 1523 0
-268 -496 1523 0
-268 -502 1523 0
-268 -485 1524 0
-268 -491 1524 0
-268 -497 1524 0
-268 -503 1524 0
-43 268 -1519 0
-44 268 -1520 0
-45 268 -1521 0
-46 268 -1522 0
-47 268 -1523 0
-48 268 -1524 0
-269 -504 1525 0
-269 -510 1525 0
-269 -516 1525 0
-269 -522 1525 0
-269 -505 1526 0
-269 -511 1526 0
-269 -517 1526 0
-269 -523 1526 0
-269 -506 1527 0
-269 -512 1527 0
-269 -518 1527 0
-269 -524 1527 0
-269 -507 1528 0
-269 -513 1528 0
-269 -519 1528 0
-269 -525 1528 0
-269 -508 1529 0
-269 -514 1529 0
-269 -520 1529 0
-269 -526 1529 0
-269 -509 1530 0
-269 -515 1530 0
-269 -521 1530 0
-269 -527 1530 0
-49 269 -1525 0
-50 269 -1526 0
-51 269 -1527 0
-52 269 -1528 0
-53 269 -1529 0
-54 269 -1530 0
-270 -528 1531 0
-270 -534 1531 0
-270 -540 1531 0
-270 -546 1531 0
-270 -529 1532 0
-270 -535 1532 0
-270 -541 1532 0
-270 -547 1532 0
-270 -530 1533 0
-270 -536 1533 0
-270 -542 1533 0
-270 -548 1533 0
-270 -531 1534 0
-270 -537 1534 0
-270 -543 1534 0
-270 -549 1534 0
-270 -532 1535 0
-270 -538 1535 0
-270 -544 1535 0
-270 -550 1535 0
-270 -533 1536 0
-270 -539 1536 0
-270 -545 1536 0
-270 -551 1536 0
-55 270 -1531 -1532 0
-56 270 -1532 -1533 0
-57 270 -1533 -1534 0
-58 270 -1534 -1535 0
-59 270 -1535 -1536 0
-271 -552 1537 0
-271 -558 1537 0
-271 -564 1537 0
-271 -570 1537 0
-271 -553 1538 0
-271 -559 1538 0
-271 -565 1538 0
-271 -571 1538 0
-271 -554 1539 0
-271 -560 1539 0
-271 -566 1539 0
-271 -572 1539 0
-271 -555 1540 0
-271 -561 1540 0
-271 -567 1540 0
-271 -573 1540 0
-271 -556 1541 0
-271 -562 1541 0
-271 -568 1541 0
-271 -574 1541 0
-271 -557 1542 0
-271 -563 1542 0
-271 -569 1542 0
-271 -575 1542 0
-60 271 -1537 -1538 -1539 0
-61 271 -1538 -1539 -1540 0
-62 271 -1539 -1540 -1541 0
-63 271 -1540 -1541 -1542 0
64 65 66 67 68 69 0
-64 -65 0
-64 -66 0
-64 -67 0
-64 -68 0
-64 -69 0
-65 -66 0
-65 -67 0
-65 -68 0
-65 -69 0
-66 -67 0
-66 -68 0
-66 -69 0
-67 -68 0
-67 -69 0
-68 -69 0
70 71 72 73 74 75 0
-70 -71 0
-70 -72 0
-70 -73 0
-70 -74 0
-70 -75 0
-71 -72 0
-71 -73 0
-71 -74 0
-71 -75 0
-72 -73 0
-72 -74 0
-72 -75 0
-73 -74 0
-73 -75 0
-74 -75 0
76 77 78 79 80 0
-76 -77 0
-76 -78 0
-76 -79 0
-76 -80 0
-77 -78 0
-77 -79 0
-77 -80 0
-78 -79 0
-78 -80 0
-79 -80 0
81 82 83 84 0
-81 -82 0
-81 -83 0
-81 -84 0
-82 -83 0
-82 -84 0
-83 -84 0
196 197 198 199 0
-196 -197 0
-196 -198 0
-196 -199 0
-197 -198 0
-197 -199 0
-198 -199 0
200 201 202 203 0
-200 -201 0
-200 -202 0
-200 -203 0
-201 -202 0
-201 -203 0
-202 -203 0
204 205 206 207 0
-204 -205 0
-204 -206 0
-204 -207 0
-205 -206 0
-205 -207 0
-206 -207 0
208 209 210 211 0
-208 -209 0
-208 -210 0
-208 -211 0
-209 -210 0
-209 -211 0
-210 -211 0
-576 196 0
-576 64 0
-64 -196 576 0
-577 196 0
-577 65 0
-65 -196 577 0
-578 196 0
-578 66 0
-66 -196 578 0
-579 196 0
-579 67 0
-67 -196 579 0
-580 196 0
-580 68 0
-68 -196 580 0
-581 196 0
-581 69 0
-69 -196 581 0
-582 197 0
-582 64 0
-64 -197 582 0
-583 197 0
-583 65 0
-65 -197 583 0
-584 197 0
-584 66 0
-66 -197 584 0
-585 197 0
-585 67 0
-67 -197 585 0
-586 197 0
-586 68 0
-68 -197 586 0
-587 197 0
-587 69 0
-69 -197 587 0
-588 198 0
-588 64 0
-64 -198 588 0
-589 198 0
-589 65 0
-65 -198 589 0
-590 198 0
-590 66 0
-66 -198 590 0
-591 198 0
-591 67 0
-67 -198 591 0
-592 198 0
-592 68 0
-68 -198 592 0
-593 198 0
-593 69 0
-69 -198 593 0
-594 199 0
-594 64 0
-64 -199 594 0
-595 199 0
-595 65 0
-65 -199 595 0
-596 199 0
-596 66 0
-66 -199 596 0
-597 199 0
-597 67 0
-67 -199 597 0
-598 199 0
-598 68 0
-68 -199 598 0
-599 199 0
-599 69 0
-69 -199 599 0
-600 200 0
-600 70 0
-70 -200 600 0
-601 200 0
-601 71 0
-71 -200 601 0
-602 200 0
-602 72 0
-72 -200 602 0
-603 200 0
-603 73 0
-73 -200 603 0
-604 200 0
-604 74 0
-74 -200 604 0
-605 200 0
-605 75 0
-75 -200 605 0
-606 201 0
-606 70 0
-70 -201 606 0
-607 201 0
-607 71 0
-71 -201 607 0
-608 201 0
-608 72 0
-72 -201 608 0
-609 201 0
-609 73 0
-73 -201 609 0
-610 201 0
-610 74 0
-74 -201 610 0
-611 201 0
-611 75 0
-75 -201 611 0
-612 202 0
-612 70 0
-70 -202 612 0
-613 202 0
-613 71 0
-71 -202 613 0
-614 202 0
-614 72 0
-72 -202 614 0
-615 202 0
-615 73 0
-73 -202 615 0
-616 202 0
-616 74 0
-74 -202 616 0
-617 202 0
-617 75 0
-75 -202 617 0
-618 203 0
-618 70 0
-70 -203 618 0
-619 203 0
-619 71 0
-71 -203 619 0
-620 203 0
-620 72 0
-72 -203 620 0
-621 203 0
-621 73 0
-73 -203 621 0
-622 203 0
-622 74 0
-74 -203 622 0
-623 203 0
-623 75 0
-75 -203 623 0
-624 204 0
-624 76 0
-76 -204 624 0
-625 204 0
-625 76 77 0
-76 -204 625 0
-77 -204 625 0
-626 204 0
-626 77 78 0
-77 -204 626 0
-78 -204 626 0
-627 204 0
-627 78 79 0
-78 -204 627 0
-79 -204 627 0
-628 204 0
-628 79 80 0
-79 -204 628 0
-80 -204 628 0
-629 204 0
-629 80 0
-80 -204 629 0
-630 205 0
-630 76 0
-76 -205 630 0
-631 205 0
-631 76 77 0
-76 -205 631 0
-77 -205 631 0
-632 205 0
-632 77 78 0
-77 -205 632 0
-78 -205 632 0
-633 205 0
-633 78 79 0
-78 -205 633 0
-79 -205 633 0
-634 205 0
-634 79 80 0
-79 -205 634 0
-80 -205 634 0
-635 205 0
-635 80 0
-80 -205 635 0
-636 206 0
-636 76 0
-76 -206 636 0
-637 206 0
-637 76 77 0
-76 -206 637 0
-77 -206 637 0
-638 206 0
-638 77 78 0
-77 -206 638 0
-78 -206 638 0
-639 206 0
-639 78 79 0
-78 -206 639 0
-79 -206 639 0
-640 206 0
-640 79 80 0
-79 -206 640 0
-80 -206 640 0
-641 206 0
-641 80 0
-80 -206 641 0
-642 207 0
-642 76 0
-76 -207 642 0
-643 207 0
-643 76 77 0
-76 -207 643 0
-77 -207 643 0
-644 207 0
-644 77 78 0
-77 -207 644 0
-78 -207 644 0
-645 207 0
-645 78 79 0
-78 -207 645 0
-79 -207 645 0
-646 207 0
-646 79 80 0
-79 -207 646 0
-80 -207 646 0
-647 207 0
-647 80 0
-80 -207 647 0
-648 208 0
-648 81 0
-81 -208 648 0
-649 208 0
-649 81 82 0
-81 -208 649 0
-82 -208 649 0
-650 208 0
-650 81 82 83 0
-81 -208 650 0
-82 -208 650 0
-83 -208 650 0
-651 208 0
-651 82 83 84 0
-82 -208 651 0
-83 -208 651 0
-84 -208 651 0
-652 208 0
-652 83 84 0
-83 -208 652 0
-84 -208 652 0
-653 208 0
-653 84 0
-84 -208 653 0
-654 209 0
-654 81 0
-81 -209 654 0
-655 209 0
-655 81 82 0
-81 -209 655 0
-82 -209 655 0
-656 209 0
-656 81 82 83 0
-81 -209 656 0
-82 -209 656 0
-83 -209 656 0
-657 209 0
-657 82 83 84 0
-82 -209 657 0
-83 -209 657 0
-84 -209 657 0
-658 209 0
-658 83 84 0
-83 -209 658 0
-84 -209 658 0
-659 209 0
-659 84 0
-84 -209 659 0
-660 210 0
-660 81 0
-81 -210 660 0
-661 210 0
-661 81 82 0
-81 -210 661 0
-82 -210 661 0
-662 210 0
-662 81 82 83 0
-81 -210 662 0
-82 -210 662 0
-83 -210 662 0
-663 210 0
-663 82 83 84 0
-82 -210 663 0
-83 -210 663 0
-84 -210 663 0
-664 210 0
-664 83 84 0
-83 -210 664 0
-84 -210 664 0
-665 210 0
-665 84 0
-84 -210 665 0
-666 211 0
-666 81 0
-81 -211 666 0
-667 211 0
-667 81 82 0
-81 -211 667 0
-82 -211 667 0
-668 211 0
-668 81 82 83 0
-81 -211 668 0
-82 -211 668 0
-83 -211 668 0
-669 211 0
-669 82 83 84 0
-82 -211 669 0
-83 -211 669 0
-84 -211 669 0
-670 211 0
-670 83 84 0
-83 -211 670 0
-84 -211 670 0
-671 211 0
-671 84 0
-84 -211 671 0
-576 -600 0
-576 -624 0
-576 -648 0
-600 -624 0
-600 -648 0
-624 -648 0
-577 -601 0
-577 -625 0
-577 -649 0
-601 -625 0
-601 -649 0
-625 -649 0
-578 -602 0
-578 -626 0
-578 -650 0
-602 -626 0
-602 -650 0
-626 -650 0
-579 -603 0
-579 -627 0
-579 -651 0
-603 -627 0
-603 -651 0
-627 -651 0
-580 -604 0
-580 -628 0
-580 -652 0
-604 -628 0
-604 -652 0
-628 -652 0
-581 -605 0
-581 -629 0
-581 -653 0
-605 -629 0
-605 -653 0
-629 -653 0
-582 -606 0
-582 -630 0
-582 -654 0
-606 -630 0
-606 -654 0
-630 -654 0
-583 -607 0
-583 -631 0
-583 -655 0
-607 -631 0
-607 -655 0
-631 -655 0
-584 -608 0
-584 -632 0
-584 -656 0
-608 -632 0
-608 -656 0
-632 -656 0
-585 -609 0
-585 -633 0
-585 -657 0
-609 -633 0
-609 -657 0
-633 -657 0
-586 -610 0
-586 -634 0
-586 -658 0
-610 -634 0
-610 -658 0
-634 -658 0
-587 -611 0
-587 -635 0
-587 -659 0
-611 -635 0
-611 -659 0
-635 -659 0
-588 -612 0
-588 -636 0
-588 -660 0
-612 -636 0
-612 -660 0
-636 -660 0
-589 -613 0
-589 -637 0
-589 -661 0
-613 -637 0
-613 -661 0
-637 -661 0
-590 -614 0
-590 -638 0
-590 -662 0
-614 -638 0
-614 -662 0
-638 -662 0
-591 -615 0
-591 -639 0
-591 -663 0
-615 -639 0
-615 -663 0
-639 -663 0
-592 -616 0
-592 -640 0
-592 -664 0
-616 -640 0
-616 -664 0
-640 -664 0
-593 -617 0
-593 -641 0
-593 -665 0
-617 -641 0
-617 -665 0
-641 -665 0
-594 -618 0
-594 -642 0
-594 -666 0
-618 -642 0
-618 -666 0
-642 -666 0
-595 -619 0
-595 -643 0
-595 -667 0
-619 -643 0
-619 -667 0
-643 -667 0
-596 -620 0
-596 -644 0
-596 -668 0
-620 -644 0
-620 -668 0
-644 -668 0
-597 -621 0
-597 -645 0
-597 -669 0
-621 -645 0
-621 -669 0
-645 -669 0
-598 -622 0
-598 -646 0
-598 -670 0
-622 -646 0
-622 -670 0
-646 -670 0
-599 -623 0
-599 -647 0
-599 -671 0
-623 -647 0
-623 -671 0
-647 -671 0
-64 -197 600 624 648 0
-64 -198 606 630 654 0
-64 -199 612 636 660 0
-65 -197 601 625 649 0
-65 -198 607 631 655 0
-65 -199 613 637 661 0
-66 -197 602 626 650 0
-66 -198 608 632 656 0
-66 -199 614 638 662 0
-67 -197 603 627 651 0
-67 -198 609 633 657 0
-67 -199 615 639 663 0
-68 -197 604 628 652 0
-68 -198 610 634 658 0
-68 -199 616 640 664 0
-69 -197 605 629 653 0
-69 -198 611 635 659 0
-69 -199 617 641 665 0
-70 -201 576 624 648 0
-70 -202 582 630 654 0
-70 -203 588 636 660 0
-71 -201 577 625 649 0
-71 -202 583 631 655 0
-71 -203 589 637 661 0
-72 -201 578 626 650 0
-72 -202 584 632 656 0
-72 -203 590 638 662 0
-73 -201 579 627 651 0
-73 -202 585 633 657 0
-73 -203 591 639 663 0
-74 -201 580 628 652 0
-74 -202 586 634 658 0
-74 -203 592 640 664 0
-75 -201 581 629 653 0
-75 -202 587 635 659 0
-75 -203 593 641 665 0
-76 -205 576 600 648 577 601 649 0
-76 -206 582 606 654 583 607 655 0
-76 -207 588 612 660 589 613 661 0
-77 -205 577 601 649 578 602 650 0
-77 -206 583 607 655 584 608 656 0
-77 -207 589 613 661 590 614 662 0
-78 -205 578 602 650 579 603 651 0
-78 -206 584 608 656 585 609 657 0
-78 -207 590 614 662 591 615 663 0
-79 -205 579 603 651 580 604 652 0
-79 -206 585 609 657 586 610 658 0
-79 -207 591 615 663 592 616 664 0
-80 -205 580 604 652 581 605 653 0
-80 -206 586 610 658 587 611 659 0
-80 -207 592 616 664 593 617 665 0
-81 -209 576 600 624 577 601 625 0
-81 -209 576 600 624 578 602 626 0
-81 -209 577 601 625 578 602 626 0
-81 -210 582 606 630 583 607 631 0
-81 -210 582 606 630 584 608 632 0
-81 -210 583 607 631 584 608 632 0
-81 -211 588 612 636 589 613 637 0
-81 -211 588 612 636 590 614 638 0
-81 -211 589 613 637 590 614 638 0
-82 -209 577 601 625 578 602 626 0
-82 -209 577 601 625 579 603 627 0
-82 -209 578 602 626 579 603 627 0
-82 -210 583 607 631 584 608 632 0
-82 -210 583 607 631 585 609 633 0
-82 -210 584 608 632 585 609 633 0
-82 -211 589 613 637 590 614 638 0
-82 -211 589 613 637 591 615 639 0
-82 -211 590 614 638 591 615 639 0
-83 -209 578 602 626 579 603 627 0
-83 -209 578 602 626 580 604 628 0
-83 -209 579 603 627 580 604 628 0
-83 -210 584 608 632 585 609 633 0
-83 -210 584 608 632 586 610 634 0
-83 -210 585 609 633 586 610 634 0
-83 -211 590 614 638 591 615 639 0
-83 -211 590 614 638 592 616 640 0
-83 -211 591 615 639 592 616 640 0
-84 -209 579 603 627 580 604 628 0
-84 -209 579 603 627 581 605 629 0
-84 -209 580 604 628 581 605 629 0
-84 -210 585 609 633 586 610 634 0
-84 -210 585 609 633 587 611 635 0
-84 -210 586 610 634 587 611 635 0
-84 -211 591 615 639 592 616 640 0
-84 -211 591 615 639 593 617 641 0
-84 -211 592 616 640 593 617 641 0
-1543 576 582 588 594 0
-1543 -576 -606 0
-1543 -576 -630 0
-1543 -576 -654 0
-576 1543 606 630 654 0
-1543 -582 -612 0
-1543 -582 -636 0
-1543 -582 -660 0
-582 1543 612 636 660 0
-1543 -588 -618 0
-1543 -588 -642 0
-1543 -588 -666 0
-588 1543 618 642 666 0
-594 1543 0
-1544 577 583 589 595 0
-1544 -577 -607 0
-1544 -577 -631 0
-1544 -577 -655 0
-577 1544 607 631 655 0
-1544 -583 -613 0
-1544 -583 -637 0
-1544 -583 -661 0
-583 1544 613 637 661 0
-1544 -589 -619 0
-1544 -589 -643 0
-1544 -589 -667 0
-589 1544 619 643 667 0
-595 1544 0
-1545 578 584 590 596 0
-1545 -578 -608 0
-1545 -578 -632 0
-1545 -578 -656 0
-578 1545 608 632 656 0
-1545 -584 -614 0
-1545 -584 -638 0
-1545 -584 -662 0
-584 1545 614 638 662 0
-1545 -590 -620 0
-1545 -590 -644 0
-1545 -590 -668 0
-590 1545 620 644 668 0
-596 1545 0
-1546 579 585 591 597 0
-1546 -579 -609 0
-1546 -579 -633 0
-1546 -579 -657 0
-579 1546 609 633 657 0
-1546 -585 -615 0
-1546 -585 -639 0
-1546 -585 -663 0
-585 1546 615 639 663 0
-1546 -591 -621 0
-1546 -591 -645 0
-1546 -591 -669 0
-591 1546 621 645 669 0
-597 1546 0
-1547 580 586 592 598 0
-1547 -580 -610 0
-1547 -580 -634 0
-1547 -580 -658 0
-580 1547 610 634 658 0
-1547 -586 -616 0
-1547 -586 -640 0
-1547 -586 -664 0
-586 1547 616 640 664 0
-1547 -592 -622 0
-1547 -592 -646 0
-1547 -592 -670 0
-592 1547 622 646 670 0
-598 1547 0
-1548 581 587 593 599 0
-1548 -581 -611 0
-1548 -581 -635 0
-1548 -581 -659 0
-581 1548 611 635 659 0
-1548 -587 -617 0
-1548 -587 -641 0
-1548 -587 -665 0
-587 1548 617 641 665 0
-1548 -593 -623 0
-1548 -593 -647 0
-1548 -593 -671 0
-593 1548 623 647 671 0
-599 1548 0
-1549 600 606 612 618 0
-1549 -600 -582 0
-1549 -600 -630 0
-1549 -600 -654 0
-600 1549 582 630 654 0
-1549 -606 -588 0
-1549 -606 -636 0
-1549 -606 -660 0
-606 1549 588 636 660 0
-1549 -612 -594 0
-1549 -612 -642 0
-1549 -612 -666 0
-612 1549 594 642 666 0
-618 1549 0
-1550 601 607 613 619 0
-1550 -601 -583 0
-1550 -601 -631 0
-1550 -601 -655 0
-601 1550 583 631 655 0
-1550 -607 -589 0
-1550 -607 -637 0
-1550 -607 -661 0
-607 1550 589 637 661 0
-1550 -613 -595 0
-1550 -613 -643 0
-1550 -613 -667 0
-613 1550 595 643 667 0
-619 1550 0
-1551 602 608 614 620 0
-1551 -602 -584 0
-1551 -602 -632 0
-1551 -602 -656 0
-602 1551 584 632 656 0
-1551 -608 -590 0
-1551 -608 -638 0
-1551 -608 -662 0
-608 1551 590 638 662 0
-1551 -614 -596 0
-1551 -614 -644 0
-1551 -614 -668 0
-614 1551 596 644 668 0
-620 1551 0
-1552 603 609 615 621 0
-1552 -603 -585 0
-1552 -603 -633 0
-1552 -603 -657 0
-603 1552 585 633 657 0
-1552 -609 -591 0
-1552 -609 -639 0
-1552 -609 -663 0
-609 1552 591 639 663 0
-1552 -615 -597 0
-1552 -615 -645 0
-1552 -615 -669 0
-615 1552 597 645 669 0
-621 1552 0
-1553 604 610 616 622 0
-1553 -604 -586 0
-1553 -604 -634 0
-1553 -604 -658 0
-604 1553 586 634 658 0
-1553 -610 -592 0
-1553 -610 -640 0
-1553 -610 -664 0
-610 1553 592 640 664 0
-1553 -616 -598 0
-1553 -616 -646 0
-1553 -616 -670 0
-616 1553 598 646 670 0
-622 1553 0
-1554 605 611 617 623 0
-1554 -605 -587 0
-1554 -605 -635 0
-1554 -605 -659 0
-605 1554 587 635 659 0
-1554 -611 -593 0
-1554 -611 -641 0
-1554 -611 -665 0
-611 1554 593 641 665 0
-1554 -617 -599 0
-1554 -617 -647 0
-1554 -617 -671 0
-617 1554 599 647 671 0
-623 1554 0
-1555 624 630 636 642 0
-1555 -624 -582 0
-1555 -624 -606 0
-1555 -624 -654 0
-624 1555 582 606 654 0
-1555 -630 -588 0
-1555 -630 -612 0
-1555 -630 -660 0
-630 1555 588 612 660 0
-1555 -636 -594 0
-1555 -636 -618 0
-1555 -636 -666 0
-636 1555 594 618 666 0
-642 1555 0
-1556 625 631 637 643 0
-1556 -625 -583 0
-1556 -625 -607 0
-1556 -625 -655 0
-625 1556 583 607 655 0
-1556 -631 -589 0
-1556 -631 -613 0
-1556 -631 -661 0
-631 1556 589 613 661 0
-1556 -637 -595 0
-1556 -637 -619 0
-1556 -637 -667 0
-637 1556 595 619 667 0
-643 1556 0
-1557 626 632 638 644 0
-1557 -626 -584 0
-1557 -626 -608 0
-1557 -626 -656 0
-626 1557 584 608 656 0
-1557 -632 -590 0
-1557 -632 -614 0
-1557 -632 -662 0
-632 1557 590 614 662 0
-1557 -638 -596 0
-1557 -638 -620 0
-1557 -638 -668 0
-638 1557 596 620 668 0
-644 1557 0
-1558 627 633 639 645 0
-1558 -627 -585 0
-1558 -627 -609 0
-1558 -627 -657 0
-627 1558 585 609 657 0
-1558 -633 -591 0
-1558 -633 -615 0
-1558 -633 -663 0
-633 1558 591 615 663 0
-1558 -639 -597 0
-1558 -639 -621 0
-1558 -639 -669 0
-639 1558 597 621 669 0
-645 1558 0
-1559 628 634 640 646 0
-1559 -628 -586 0
-1559 -628 -610 0
-1559 -628 -658 0
-628 1559 586 610 658 0
-1559 -634 -592 0
-1559 -634 -616 0
-1559 -634 -664 0
-634 1559 592 616 664 0
-1559 -640 -598 0
-1559 -640 -622 0
-1559 -640 -670 0
-640 1559 598 622 670 0
-646 1559 0
-1560 629 635 641 647 0
-1560 -629 -587 0
-1560 -629 -611 0
-1560 -629 -659 0
-629 1560 587 611 659 0
-1560 -635 -593 0
-1560 -635 -617 0
-1560 -635 -665 0
-635 1560 593 617 665 0
-1560 -641 -599 0
-1560 -641 -623 0
-1560 -641 -671 0
-641 1560 599 623 671 0
-647 1560 0
-1561 648 654 660 666 0
-1561 -648 -582 0
-1561 -648 -606 0
-1561 -648 -630 0
-648 1561 582 606 630 0
-1561 -654 -588 0
-1561 -654 -612 0
-1561 -654 -636 0
-654 1561 588 612 636 0
-1561 -660 -594 0
-1561 -660 -618 0
-1561 -660 -642 0
-660 1561 594 618 642 0
-666 1561 0
-1562 649 655 661 667 0
-1562 -649 -583 0
-1562 -649 -607 0
-1562 -649 -631 0
-649 1562 583 607 631 0
-1562 -655 -589 0
-1562 -655 -613 0
-1562 -655 -637 0
-655 1562 589 613 637 0
-1562 -661 -595 0
-1562 -661 -619 0
-1562 -661 -643 0
-661 1562 595 619 643 0
-667 1562 0
-1563 650 656 662 668 0
-1563 -650 -584 0
-1563 -650 -608 0
-1563 -650 -632 0
-650 1563 584 608 632 0
-1563 -656 -590 0
-1563 -656 -614 0
-1563 -656 -638 0
-656 1563 590 614 638 0
-1563 -662 -596 0
-1563 -662 -620 0
-1563 -662 -644 0
-662 1563 596 620 644 0
-668 1563 0
-1564 651 657 663 669 0
-1564 -651 -585 0
-1564 -651 -609 0
-1564 -651 -633 0
-651 1564 585 609 633 0
-1564 -657 -591 0
-1564 -657 -615 0
-1564 -657 -639 0
-657 1564 591 615 639 0
-1564 -663 -597 0
-1564 -663 -621 0
-1564 -663 -645 0
-663 1564 597 621 645 0
-669 1564 0
-1565 652 658 664 670 0
-1565 -652 -586 0
-1565 -652 -610 0
-1565 -652 -634 0
-652 1565 586 610 634 0
-1565 -658 -592 0
-1565 -658 -616 0
-1565 -658 -640 0
-658 1565 592 616 640 0
-1565 -664 -598 0
-1565 -664 -622 0
-1565 -664 -646 0
-664 1565 598 622 646 0
-670 1565 0
-1566 653 659 665 671 0
-1566 -653 -587 0
-1566 -653 -611 0
-1566 -653 -635 0
-653 1566 587 611 635 0
-1566 -659 -593 0
-1566 -659 -617 0
-1566 -659 -641 0
-659 1566 593 617 641 0
-1566 -665 -599 0
-1566 -665 -623 0
-1566 -665 -647 0
-665 1566 599 623 647 0
-671 1566 0
-272 -576 1543 0
-272 -582 1543 0
-272 -588 1543 0
-272 -594 1543 0
-272 -577 1544 0
-272 -583 1544 0
-272 -589 1544 0
-272 -595 1544 0
-272 -578 1545 0
-272 -584 1545 0
-272 -590 1545 0
-272 -596 1545 0
-272 -579 1546 0
-272 -585 1546 0
-272 -591 1546 0
-272 -597 1546 0
-272 -580 1547 0
-272 -586 1547 0
-272 -592 1547 0
-272 -598 1547 0
-272 -581 1548 0
-272 -587 1548 0
-272 -593 1548 0
-272 -599 1548 0
-64 272 -1543 0
-65 272 -1544 0
-66 272 -1545 0
-67 272 -1546 0
-68 272 -1547 0
-69 272 -1548 0
-273 -600 1549 0
-273 -606 1549 0
-273 -612 1549 0
-273 -618 1549 0
-273 -601 1550 0
-273 -607 1550 0
-273 -613 1550 0
-273 -619 1550 0
-273 -602 1551 0
-273 -608 1551 0
-273 -614 1551 0
-273 -620 1551 0
-273 -603 1552 0
-273 -609 1552 0
-273 -615 1552 0
-273 -621 1552 0
-273 -604 1553 0
-273 -610 1553 0
-273 -616 1553 0
-273 -622 1553 0
-273 -605 1554 0
-273 -611 1554 0
-273 -617 1554 0
-273 -623 1554 0
-70 273 -1549 0
-71 273 -1550 0
-72 273 -1551 0
-73 273 -1552 0
-74 273 -1553 0
-75 273 -1554 0
-274 -624 1555 0
-274 -630 1555 0
-274 -636 1555 0
-274 -642 1555 0
-274 -625 1556 0
-274 -631 1556 0
-274 -637 1556 0
-274 -643 1556 0
-274 -626 1557 0
-274 -632 1557 0
-274 -638 1557 0
-274 -644 1557 0
-274 -627 1558 0
-274 -633 1558 0
-274 -639 1558 0
-274 -645 1558 0
-274 -628 1559 0
-274 -634 1559 0
-274 -640 1559 0
-274 -646 1559 0
-274 -629 1560 0
-274 -635 1560 0
-274 -641 1560 0
-274 -647 1560 0
-76 274 -1555 -1556 0
-77 274 -1556 -1557 0
-78 274 -1557 -1558 0
-79 274 -1558 -1559 0
-80 274 -1559 -1560 0
-275 -648 1561 0
-275 -654 1561 0
-275 -660 1561 0
-275 -666 1561 0
-275 -649 1562 0
-275 -655 1562 0
-275 -661 1562 0
-275 -667 1562 0
-275 -650 1563 0
-275 -656 1563 0
-275 -662 1563 0
-275 -668 1563 0
-275 -651 1564 0
-275 -657 1564 0
-275 -663 1564 0
-275 -669 1564 0
-275 -652 1565 0
-275 -658 1565 0
-275 -664 1565 0
-275 -670 1565 0
-275 -653 1566 0
-275 -659 1566 0
-275 -665 1566 0
-275 -671 1566 0
-81 275 -1561 -1562 -1563 0
-82 275 -1562 -1563 -1564 0
-83 275 -1563 -1564 -1565 0
-84 275 -1564 -1565 -1566 0
85 86 87 88 89 90 0
-85 -86 0
-85 -87 0
-85 -88 0
-85 -89 0
-85 -90 0
-86 -87 0
-86 -88 0
-86 -89 0
-86 -90 0
-87 -88 0
-87 -89 0
-87 -90 0
-88 -89 0
-88 -90 0
-89 -90 0
91 92 93 94 95 96 0
-91 -92 0
-91 -93 0
-91 -94 0
-91 -95 0
-91 -96 0
-92 -93 0
-92 -94 0
-92 -95 0
-92 -96 0
-93 -94 0
-93 -95 0
-93 -96 0
-94 -95 0
-94 -96 0
-95 -96 0
97 98 99 100 101 0
-97 -98 0
-97 -99 0
-97 -100 0
-97 -101 0
-98 -99 0
-98 -100 0
-98 -101 0
-99 -100 0
-99 -101 0
-100 -101 0
102 103 104 105 0
-102 -103 0
-102 -104 0
-102 -105 0
-103 -104 0
-103 -105 0
-104 -105 0
212 213 214 215 0
-212 -213 0
-212 -214 0
-212 -215 0
-213 -214 0
-213 -215 0
-214 -215 0
216 217 218 219 0
-216 -217 0
-216 -218 0
-216 -219 0
-217 -218 0
-217 -219 0
-218 -219 0
220 221 222 223 0
-220 -221 0
-220 -222 0
-220 -223 0
-221 -222 0
-221 -223 0
-222 -223 0
224 225 226 227 0
-224 -225 0
-224 -226 0
-224 -227 0
-225 -226 0
-225 -227 0
-226 -227 0
-672 212 0
-672 85 0
-85 -212 672 0
-673 212 0
-673 86 0
-86 -212 673 0
-674 212 0
-674 87 0
-87 -212 674 0
-675 212 0
-675 88 0
-88 -212 675 0
-676 212 0
-676 89 0
-89 -212 676 0
-677 212 0
-677 90 0
-90 -212 677 0
-678 213 0
-678 85 0
-85 -213 678 0
-679 213 0
-679 86 0
-86 -213 679 0
-680 213 0
-680 87 0
-87 -213 680 0
-681 213 0
-681 88 0
-88 -213 681 0
-682 213 0
-682 89 0
-89 -213 682 0
-683 213 0
-683 90 0
-90 -213 683 0
-684 214 0
-684 85 0
-85 -214 684 0
-685 214 0
-685 86 0
-86 -214 685 0
-686 214 0
-686 87 0
-87 -214 686 0
-687 214 0
-687 88 0
-88 -214 687 0
-688 214 0
-688 89 0
-89 -214 688 0
-689 214 0
-689 90 0
-90 -214 689 0
-690 215 0
-690 85 0
-85 -215 690 0
-691 215 0
-691 86 0
-86 -215 691 0
-692 215 0
-692 87 0
-87 -215 692 0
-693 215 0
-693 88 0
-88 -215 693 0
-694 215 0
-694 89 0
-89 -215 694 0
-695 215 0
-695 90 0
-90 -215 695 0
-696 216 0
-696 91 0
-91 -216 696 0
-697 216 0
-697 92 0
-92 -216 697 0
-698 216 0
-698 93 0
-93 -216 698 0
-699 216 0
-699 94 0
-94 -216 699 0
-700 216 0
-700 95 0
-95 -216 700 0
-701 216 0
-701 96 0
-96 -216 701 0
-702 217 0
-702 91 0
-91 -217 702 0
-703 217 0
-703 92 0
-92 -217 703 0
-704 217 0
-704 93 0
-93 -217 704 0
-705 217 0
-705 94 0
-94 -217 705 0
-706 217 0
-706 95 0
-95 -217 706 0
-707 217 0
-707 96 0
-96 -217 707 0
-708 218 0
-708 91 0
-91 -218 708 0
-709 218 0
-709 92 0
-92 -218 709 0
-710 218 0
-710 93 0
-93 -218 710 0
-711 218 0
-711 94 0
-94 -218 711 0
-712 218 0
-712 95 0
-95 -218 712 0
-713 218 0
-713 96 0
-96 -218 713 0
-714 219 0
-714 91 0
-91 -219 714 0
-715 219 0
-715 92 0
-92 -219 715 0
-716 219 0
-716 93 0
-93 -219 716 0
-717 219 0
-717 94 0
-94 -219 717 0
-718 219 0
-718 95 0
-95 -219 718 0
-719 219 0
-719 96 0
-96 -219 719 0
-720 220 0
-720 97 0
-97 -220 720 0
-721 220 0
-721 97 98 0
-97 -220 721 0
-98 -220 721 0
-722 220 0
-722 98 99 0
-98 -220 722 0
-99 -220 722 0
-723 220 0
-723 99 100 0
-99 -220 723 0
-100 -220 723 0
-724 220 0
-724 100 101 0
-100 -220 724 0
-101 -220 724 0
-725 220 0
-725 101 0
-101 -220 725 0
-726 221 0
-726 97 0
-97 -221 726 0
-727 221 0
-727 97 98 0
-97 -221 727 0
-98 -221 727 0
-728 221 0
-728 98 99 0
-98 -221 728 0
-99 -221 728 0
-729 221 0
-729 99 100 0
-99 -221 729 0
-100 -221 729 0
-730 221 0
-730 100 101 0
-100 -221 730 0
-101 -221 730 0
-731 221 0
-731 101 0
-101 -221 731 0
-732 222 0
-732 97 0
-97 -222 732 0
-733 222 0
-733 97 98 0
-97 -222 733 0
-98 -222 733 0
-734 222 0
-734 98 99 0
-98 -222 734 0
-99 -222 734 0
-735 222 0
-735 99 100 0
-99 -222 735 0
-100 -222 735 0
-736 222 0
-736 100 101 0
-100 -222 736 0
-101 -222 736 0
-737 222 0
-737 101 0
-101 -222 737 0
-738 223 0
-738 97 0
-97 -223 738 0
-739 223 0
-739 97 98 0
-97 -223 739 0
-98 -223 739 0
-740 223 0
-740 98 99 0
-98 -223 740 0
-99 -223 740 0
-741 223 0
-741 99 100 0
-99 -223 741 0
-100 -223 741 0
-742 223 0
-742 100 101 0
-100 -223 742 0
-101 -223 742 0
-743 223 0
-743 101 0
-101 -223 743 0
-744 224 0
-744 102 0
-102 -224 744 0
-745 224 0
-745 102 103 0
-102 -224 745 0
-103 -224 745 0
-746 224 0
-746 102 103 104 0
-102 -224 746 0
-103 -224 746 0
-104 -224 746 0
-747 224 0
-747 103 104 105 0
-103 -224 747 0
-104 -224 747 0
-105 -224 747 0
-748 224 0
-748 104 105 0
-104 -224 748 0
-105 -224 748 0
-749 224 0
-749 105 0
-105 -224 749 0
-750 225 0
-750 102 0
-102 -225 750 0
-751 225 0
-751 102 103 0
-102 -225 751 0
-103 -225 751 0
-752 225 0
-752 102 103 104 0
-102 -225 752 0
-103 -225 752 0
-104 -225 752 0
-753 225 0
-753 103 104 105 0
-103 -225 753 0
-104 -225 753 0
-105 -225 753 0
-754 225 0
-754 104 105 0
-104 -225 754 0
-105 -225 754 0
-755 225 0
-755 105 0
-105 -225 755 0
-756 226 0
-756 102 0
-102 -226 756 0
-757 226 0
-757 102 103 0
-102 -226 757 0
-103 -226 757 0
-758 226 0
-758 102 103 104 0
-102 -226 758 0
-103 -226 758 0
-104 -226 758 0
-759 226 0
-759 103 104 105 0
-103 -226 759 0
-104 -226 759 0
-105 -226 759 0
-760 226 0
-760 104 105 0
-104 -226 760 0
-105 -226 760 0
-761 226 0
-761 105 0
-105 -226 761 0
-762 227 0
-762 102 0
-102 -227 762 0
-763 227 0
-763 102 103 0
-102 -227 763 0
-103 -227 763 0
-764 227 0
-764 102 103 104 0
-102 -227 764 0
-103 -227 764 0
-104 -227 764 0
-765 227 0
-765 103 104 105 0
-103 -227 765 0
-104 -227 765 0
-105 -227 765 0
-766 227 0
-766 104 105 0
-104 -227 766 0
-105 -227 766 0
-767 227 0
-767 105 0
-105 -227 767 0
-672 -696 0
-672 -720 0
-672 -744 0
-696 -720 0
-696 -744 0
-720 -744 0
-673 -697 0
-673 -721 0
-673 -745 0
-697 -721 0
-697 -745 0
-721 -745 0
-674 -698 0
-674 -722 0
-674 -746 0
-698 -722 0
-698 -746 0
-722 -746 0
-675 -699 0
-675 -723 0
-675 -747 0
-699 -723 0
-699 -747 0
-723 -747 0
-676 -700 0
-676 -724 0
-676 -748 0
-700 -724 0
-700 -748 0
-724 -748 0
-677 -701 0
-677 -725 0
-677 -749 0
-701 -725 0
-701 -749 0
-725 -749 0
-678 -702 0
-678 -726 0
-678 -750 0
-702 -726 0
-702 -750 0
-726 -750 0
-679 -703 0
-679 -727 0
-679 -751 0
-703 -727 0
-703 -751 0
-727 -751 0
-680 -704 0
-680 -728 0
-680 -752 0
-704 -728 0
-704 -752 0
-728 -752 0
-681 -705 0
-681 -729 0
-681 -753 0
-705 -729 0
-705 -753 0
-729 -753 0
-682 -706 0
-682 -730 0
-682 -754 0
-706 -730 0
-706 -754 0
-730 -754 0
-683 -707 0
-683 -731 0
-683 -755 0
-707 -731 0
-707 -755 0
-731 -755 0
-684 -708 0
-684 -732 0
-684 -756 0
-708 -732 0
-708 -756 0
-732 -756 0
-685 -709 0
-685 -733 0
-685 -757 0
-709 -733 0
-709 -757 0
-733 -757 0
-686 -710 0
-686 -734 0
-686 -758 0
-710 -734 0
-710 -758 0
-734 -758 0
-687 -711 0
-687 -735 0
-687 -759 0
-711 -735 0
-711 -759 0
-735 -759 0
-688 -712 0
-688 -736 0
-688 -760 0
-712 -736 0
-712 -760 0
-736 -760 0
-689 -713 0
-689 -737 0
-689 -761 0
-713 -737 0
-713 -761 0
-737 -761 0
-690 -714 0
-690 -738 0
-690 -762 0
-714 -738 0
-714 -762 0
-738 -762 0
-691 -715 0
-691 -739 0
-691 -763 0
-715 -739 0
-715 -763 0
-739 -763 0
-692 -716 0
-692 -740 0
-692 -764 0
-716 -740 0
-716 -764 0
-740 -764 0
-693 -717 0
-693 -741 0
-693 -765 0
-717 -741 0
-717 -765 0
-741 -765 0
-694 -718 0
-694 -742 0
-694 -766 0
-718 -742 0
-718 -766 0
-742 -766 0
-695 -719 0
-695 -743 0
-695 -767 0
-719 -743 0
-719 -767 0
-743 -767 0
-85 -213 696 720 744 0
-85 -214 702 726 750 0
-85 -215 708 732 756 0
-86 -213 697 721 745 0
-86 -214 703 727 751 0
-86 -215 709 733 757 0
-87 -213 698 722 746 0
-87 -214 704 728 752 0
-87 -215 710 734 758 0
-88 -213 699 723 747 0
-88 -214 705 729 753 0
-88 -215 711 735 759 0
-89 -213 700 724 748 0
-89 -214 706 730 754 0
-89 -215 712 736 760 0
-90 -213 701 725 749 0
-90 -214 707 731 755 0
-90 -215 713 737 761 0
-91 -217 672 720 744 0
-91 -218 678 726 750 0
-91 -219 684 732 756 0
-92 -217 673 721 745 0
-92 -218 679 727 751 0
-92 -219 685 733 757 0
-93 -217 674 722 746 0
-93 -218 680 728 752 0
-93 -219 686 734 758 0
-94 -217 675 723 747 0
-94 -218 681 729 753 0
-94 -219 687 735 759 0
-95 -217 676 724 748 0
-95 -218 682 730 754 0
-95 -219 688 736 760 0
-96 -217 677 725 749 0
-96 -218 683 731 755 0
-96 -219 689 737 761 0
-97 -221 672 696 744 673 697 745 0
-97 -222 678 702 750 679 703 751 0
-97 -223 684 708 756 685 709 757 0
-98 -221 673 697 745 674 698 746 0
-98 -222 679 703 751 680 704 752 0
-98 -223 685 709 757 686 710 758 0
-99 -221 674 698 746 675 699 747 0
-99 -222 680 704 752 681 705 753 0
-99 -223 686 710 758 687 711 759 0
-100 -221 675 699 747 676 700 748 0
-100 -222 681 705 753 682 706 754 0
-100 -223 687 711 759 688 712 760 0
-101 -221 676 700 748 677 701 749 0
-101 -222 682 706 754 683 707 755 0
-101 -223 688 712 760 689 713 761 0
-102 -225 672 696 720 673 697 721 0
-102 -225 672 696 720 674 698 722 0
-102 -225 673 697 721 674 698 722 0
-102 -226 678 702 726 679 703 727 0
-102 -226 678 702 726 680 704 728 0
-102 -226 679 703 727 680 704 728 0
-102 -227 684 708 732 685 709 733 0
-102 -227 684 708 732 686 710 734 0
-102 -227 685 709 733 686 710 734 0
-103 -225 673 697 721 674 698 722 0
-103 -225 673 697 721 675 699 723 0
-103 -225 674 698 722 675 699 723 0
-103 -226 679 703 727 680 704 728 0
-103 -226 679 703 727 681 705 729 0
-103 -226 680 704 728 681 705 729 0
-103 -227 685 709 733 686 710 734 0
-103 -227 685 709 733 687 711 735 0
-103 -227 686 710 734 687 711 735 0
-104 -225 674 698 722 675 699 723 0
-104 -225 674 698 722 676 700 724 0
-104 -225 675 699 723 676 700 724 0
-104 -226 680 704 728 681 705 729 0
-104 -226 680 704 728 682 706 730 0
-104 -226 681 705 729 682 706 730 0
-104 -227 686 710 734 687 711 735 0
-104 -227 686 710 734 688 712 736 0
-104 -227 687 711 735 688 712 736 0
-105 -225 675 699 723 676 700 724 0
-105 -225 675 699 723 677 701 725 0
-105 -225 676 700 724 677 701 725 0
-105 -226 681 705 729 682 706 730 0
-105 -226 681 705 729 683 707 731 0
-105 -226 682 706 730 683 707 731 0
-105 -227 687 711 735 688 712 736 0
-105 -227 687 711 735 689 713 737 0
-105 -227 688 712 736 689 713 737 0
-1567 672 678 684 690 0
-1567 -672 -702 0
-1567 -672 -726 0
-1567 -672 -750 0
-672 1567 702 726 750 0
-1567 -678 -708 0
-1567 -678 -732 0
-1567 -678 -756 0
-678 1567 708 732 756 0
-1567 -684 -714 0
-1567 -684 -738 0
-1567 -684 -762 0
-684 1567 714 738 762 0
-690 1567 0
-1568 673 679 685 691 0
-1568 -673 -703 0
-1568 -673 -727 0
-1568 -673 -751 0
-673 1568 703 727 751 0
-1568 -679 -709 0
-1568 -679 -733 0
-1568 -679 -757 0
-679 1568 709 733 757 0
-1568 -685 -715 0
-1568 -685 -739 0
-1568 -685 -763 0
-685 1568 715 739 763 0
-691 1568 0
-1569 674 680 686 692 0
-1569 -674 -704 0
-1569 -674 -728 0
-1569 -674 -752 0
-674 1569 704 728 752 0
-1569 -680 -710 0
-1569 -680 -734 0
-1569 -680 -758 0
-680 1569 710 734 758 0
-1569 -686 -716 0
-1569 -686 -740 0
-1569 -686 -764 0
-686 1569 716 740 764 0
-692 1569 0
-1570 675 681 687 693 0
-1570 -675 -705 0
-1570 -675 -729 0
-1570 -675 -753 0
-675 1570 705 729 753 0
-1570 -681 -711 0
-1570 -681 -735 0
-1570 -681 -759 0
-681 1570 711 735 759 0
-1570 -687 -717 0
-1570 -687 -741 0
-1570 -687 -765 0
-687 1570 717 741 765 0
-693 1570 0
-1571 676 682 688 694 0
-1571 -676 -706 0
-1571 -676 -730 0
-1571 -676 -754 0
-676 1571 706 730 754 0
-1571 -682 -712 0
-1571 -682 -736 0
-1571 -682 -760 0
-682 1571 712 736 760 0
-1571 -688 -718 0
-1571 -688 -742 0
-1571 -688 -766 0
-688 1571 718 742 766 0
-694 1571 0
-1572 677 683 689 695 0
-1572 -677 -707 0
-1572 -677 -731 0
-1572 -677 -755 0
-677 1572 707 731 755 0
-1572 -683 -713 0
-1572 -683 -737 0
-1572 -683 -761 0
-683 1572 713 737 761 0
-1572 -689 -719 0
-1572 -689 -743 0
-1572 -689 -767 0
-689 1572 719 743 767 0
-695 1572 0
-1573 696 702 708 714 0
-1573 -696 -678 0
-1573 -696 -726 0
-1573 -696 -750 0
-696 1573 678 726 750 0
-1573 -702 -684 0
-1573 -702 -732 0
-1573 -702 -756 0
-702 1573 684 732 756 0
-1573 -708 -690 0
-1573 -708 -738 0
-1573 -708 -762 0
-708 1573 690 738 762 0
-714 1573 0
-1574 697 703 709 715 0
-1574 -697 -679 0
-1574 -697 -727 0
-1574 -697 -751 0
-697 1574 679 727 751 0
-1574 -703 -685 0
-1574 -703 -733 0
-1574 -703 -757 0
-703 1574 685 733 757 0
-1574 -709 -691 0
-1574 -709 -739 0
-1574 -709 -763 0
-709 1574 691 739 763 0
-715 1574 0
-1575 698 704 710 716 0
-1575 -698 -680 0
-1575 -698 -728 0
-1575 -698 -752 0
-698 1575 680 728 752 0
-1575 -704 -686 0
-1575 -704 -734 0
-1575 -704 -758 0
-704 1575 686 734 758 0
-1575 -710 -692 0
-1575 -710 -740 0
-1575 -710 -764 0
-710 1575 692 740 764 0
-716 1575 0
-1576 699 705 711 717 0
-1576 -699 -681 0
-1576 -699 -729 0
-1576 -699 -753 0
-699 1576 681 729 753 0
-1576 -705 -687 0
-1576 -705 -735 0
-1576 -705 -759 0
-705 1576 687 735 759 0
-1576 -711 -693 0
-1576 -711 -741 0
-1576 -711 -765 0
-711 1576 693 741 765 0
-717 1576 0
-1577 700 706 712 718 0
-1577 -700 -682 0
-1577 -700 -730 0
-1577 -700 -754 0
-700 1577 682 730 754 0
-1577 -706 -688 0
-1577 -706 -736 0
-1577 -706 -760 0
-706 1577 688 736 760 0
-1577 -712 -694 0
-1577 -712 -742 0
-1577 -712 -766 0
-712 1577 694 742 766 0
-718 1577 0
-1578 701 707 713 719 0
-1578 -701 -683 0
-1578 -701 -731 0
-1578 -701 -755 0
-701 1578 683 731 755 0
-1578 -707 -689 0
-1578 -707 -737 0
-1578 -707 -761 0
-707 1578 689 737 761 0
-1578 -713 -695 0
-1578 -713 -743 0
-1578 -713 -767 0
-713 1578 695 743 767 0
-719 1578 0
-1579 720 726 732 738 0
-1579 -720 -678 0
-1579 -720 -702 0
-1579 -720 -750 0
-720 1579 678 702 750 0
-1579 -726 -684 0
-1579 -726 -708 0
-1579 -726 -756 0
-726 1579 684 708 756 0
-1579 -732 -690 0
-1579 -732 -714 0
-1579 -732 -762 0
-732 1579 690 714 762 0
-738 1579 0
-1580 721 727 733 739 0
-1580 -721 -679 0
-1580 -721 -703 0
-1580 -721 -751 0
-721 1580 679 703 751 0
-1580 -727 -685 0
-1580 -727 -709 0
-1580 -727 -757 0
-727 1580 685 709 757 0
-1580 -733 -691 0
-1580 -733 -715 0
-1580 -733 -763 0
-733 1580 691 715 763 0
-739 1580 0
-1581 722 728 734 740 0
-1581 -722 -680 0
-1581 -722 -704 0
-1581 -722 -752 0
-722 1581 680 704 752 0
-1581 -728 -686 0
-1581 -728 -710 0
-1581 -728 -758 0
-728 1581 686 710 758 0
-1581 -734 -692 0
-1581 -734 -716 0
-1581 -734 -764 0
-734 1581 692 716 764 0
-740 1581 0
-1582 723 729 735 741 0
-1582 -723 -681 0
-1582 -723 -705 0
-1582 -723 -753 0
-723 1582 681 705 753 0
-1582 -729 -687 0
-1582 -729 -711 0
-1582 -729 -759 0
-729 1582 687 711 759 0
-1582 -735 -693 0
-1582 -735 -717 0
-1582 -735 -765 0
-735 1582 693 717 765 0
-741 1582 0
-1583 724 730 736 742 0
-1583 -724 -682 0
-1583 -724 -706 0
-1583 -724 -754 0
-724 1583 682 706 754 0
-1583 -730 -688 0
-1583 -730 -712 0
-1583 -730 -760 0
-730 1583 688 712 760 0
-1583 -736 -694 0
-1583 -736 -718 0
-1583 -736 -766 0
-736 1583 694 718 766 0
-742 1583 0
-1584 725 731 737 743 0
-1584 -725 -683 0
-1584 -725 -707 0
-1584 -725 -755 0
-725 1584 683 707 755 0
-1584 -731 -689 0
-1584 -731 -713 0
-1584 -731 -761 0
-731 1584 689 713 761 0
-1584 -737 -695 0
-1584 -737 -719 0
-1584 -737 -767 0
-737 1584 695 719 767 0
-743 1584 0
-1585 744 750 756 762 0
-1585 -744 -678 0
-1585 -744 -702 0
-1585 -744 -726 0
-744 1585 678 702 726 0
-1585 -750 -684 0
-1585 -750 -708 0
-1585 -750 -732 0
-750 1585 684 708 732 0
-1585 -756 -690 0
-1585 -756 -714 0
-1585 -756 -738 0
-756 1585 690 714 738 0
-762 1585 0
-1586 745 751 757 763 0
-1586 -745 -679 0
-1586 -745 -703 0
-1586 -745 -727 0
-745 1586 679 703 727 0
-1586 -751 -685 0
-1586 -751 -709 0
-1586 -751 -733 0
-751 1586 685 709 733 0
-1586 -757 -691 0
-1586 -757 -715 0
-1586 -757 -739 0
-757 1586 691 715 739 0
-763 1586 0
-1587 746 752 758 764 0
-1587 -746 -680 0
-1587 -746 -704 0
-1587 -746 -728 0
-746 1587 680 704 728 0
-1587 -752 -686 0
-1587 -752 -710 0
-1587 -752 -734 0
-752 1587 686 710 734 0
-1587 -758 -692 0
-1587 -758 -716 0
-1587 -758 -740 0
-758 1587 692 716 740 0
-764 1587 0
-1588 747 753 759 765 0
-1588 -747 -681 0
-1588 -747 -705 0
-1588 -747 -729 0
-747 1588 681 705 729 0
-1588 -753 -687 0
-1588 -753 -711 0
-1588 -753 -735 0
-753 1588 687 711 735 0
-1588 -759 -693 0
-1588 -759 -717 0
-1588 -759 -741 0
-759 1588 693 717 741 0
-765 1588 0
-1589 748 754 760 766 0
-1589 -748 -682 0
-1589 -748 -706 0
-1589 -748 -730 0
-748 1589 682 706 730 0
-1589 -754 -688 0
-1589 -754 -712 0
-1589 -754 -736 0
-754 1589 688 712 736 0
-1589 -760 -694 0
-1589 -760 -718 0
-1589 -760 -742 0
-760 1589 694 718 742 0
-766 1589 0
-1590 749 755 761 767 0
-1590 -749 -683 0
-1590 -749 -707 0
-1590 -749 -731 0
-749 1590 683 707 731 0
-1590 -755 -689 0
-1590 -755 -713 0
-1590 -755 -737 0
-755 1590 689 713 737 0
-1590 -761 -695 0
-1590 -761 -719 0
-1590 -761 -743 0
-761 1590 695 719 743 0
-767 1590 0
-276 -672 1567 0
-276 -678 1567 0
-276 -684 1567 0
-276 -690 1567 0
-276 -673 1568 0
-276 -679 1568 0
-276 -685 1568 0
-276 -691 1568 0
-276 -674 1569 0
-276 -680 1569 0
-276 -686 1569 0
-276 -692 1569 0
-276 -675 1570 0
-276 -681 1570 0
-276 -687 1570 0
-276 -693 1570 0
-276 -676 1571 0
-276 -682 1571 0
-276 -688 1571 0
-276 -694 1571 0
-276 -677 1572 0
-276 -683 1572 0
-276 -689 1572 0
-276 -695 1572 0
-85 276 -1567 0
-86 276 -1568 0
-87 276 -1569 0
-88 276 -1570 0
-89 276 -1571 0
-90 276 -1572 0
-277 -696 1573 0
-277 -702 1573 0
-277 -708 1573 0
-277 -714 1573 0
-277 -697 1574 0
-277 -703 1574 0
-277 -709 1574 0
-277 -715 1574 0
-277 -698 1575 0
-277 -704 1575 0
-277 -710 1575 0
-277 -716 1575 0
-277 -699 1576 0
-277 -705 1576 0
-277 -711 1576 0
-277 -717 1576 0
-277 -700 1577 0
-277 -706 1577 0
-277 -712 1577 0
-277 -718 1577 0
-277 -701 1578 0
-277 -707 1578 0
-277 -713 1578 0
-277 -719 1578 0
-91 277 -1573 0
-92 277 -1574 0
-93 277 -1575 0
-94 277 -1576 0
-95 277 -1577 0
-96 277 -1578 0
-278 -720 1579 0
-278 -726 1579 0
-278 -732 1579 0
-278 -738 1579 0
-278 -721 1580 0
-278 -727 1580 0
-278 -733 1580 0
-278 -739 1580 0
-278 -722 1581 0
-278 -728 1581 0
-278 -734 1581 0
-278 -740 1581 0
-278 -723 1582 0
-278 -729 1582 0
-278 -735 1582 0
-278 -741 1582 0
-278 -724 1583 0
-278 -730 1583 0
-278 -736 1583 0
-278 -742 1583 0
-278 -725 1584 0
-278 -731 1584 0
-278 -737 1584 0
-278 -743 1584 0
-97 278 -1579 -1580 0
-98 278 -1580 -1581 0
-99 278 -1581 -1582 0
-100 278 -1582 -1583 0
-101 278 -1583 -1584 0
-279 -744 1585 0
-279 -750 1585 0
-279 -756 1585 0
-279 -762 1585 0
-279 -745 1586 0
-279 -751 1586 0
-279 -757 1586 0
-279 -763 1586 0
-279 -746 1587 0
-279 -752 1587 0
-279 -758 1587 0
-279 -764 1587 0
-279 -747 1588 0
-279 -753 1588 0
-279 -759 1588 0
-279 -765 1588 0
-279 -748 1589 0
-279 -754 1589 0
-279 -760 1589 0
-279 -766 1589 0
-279 -749 1590 0
-279 -755 1590 0
-279 -761 1590 0
-279 -767 1590 0
-102 279 -1585 -1586 -1587 0
-103 279 -1586 -1587 -1588 0
-104 279 -1587 -1588 -1589 0
-105 279 -1588 -1589 -1590 0
106 107 108 109 110 111 0
-106 -107 0
-106 -108 0
-106 -109 0
-106 -110 0
-106 -111 0
-107 -108 0
-107 -109 0
-107 -110 0
-107 -111 0
-108 -109 0
-108 -110 0
-108 -111 0
-109 -110 0
-109 -111 0
-110 -111 0
112 113 114 115 116 117 0
-112 -113 0
-112 -114 0
-112 -115 0
-112 -116 0
-112 -117 0
-113 -114 0
-113 -115 0
-113 -116 0
-113 -117 0
-114 -115 0
-114 -116 0
-114 -117 0
-115 -116 0
-115 -117 0
-116 -117 0
118 119 120 121 122 0
-118 -119 0
-118 -120 0
-118 -121 0
-118 -122 0
-119 -120 0
-119 -121 0
-119 -122 0
-120 -121 0
-120 -122 0
-121 -122 0
123 124 125 126 0
-123 -124 0
-123 -125 0
-123 -126 0
-124 -125 0
-124 -126 0
-125 -126 0
228 229 230 231 0
-228 -229 0
-228 -230 0
-228 -231 0
-229 -230 0
-229 -231 0
-230 -231 0
232 233 234 235 0
-232 -233 0
-232 -234 0
-232 -235 0
-233 -234 0
-233 -235 0
-234 -235 0
236 237 238 239 0
-236 -237 0
-236 -238 0
-236 -239 0
-237 -238 0
-237 -239 0
-238 -239 0
240 241 242 243 0
-240 -241 0
-240 -242 0
-240 -243 0
-241 -242 0
-241 -243 0
-242 -243 0
-768 228 0
-768 106 0
-106 -228 768 0
-769 228 0
-769 107 0
-107 -228 769 0
-770 228 0
-770 108 0
-108 -228 770 0
-771 228 0
-771 109 0
-109 -228 771 0
-772 228 0
-772 110 0
-110 -228 772 0
-773 228 0
-773 111 0
-111 -228 773 0
-774 229 0
-774 106 0
-106 -229 774 0
-775 229 0
-775 107 0
-107 -229 775 0
-776 229 0
-776 108 0
-108 -229 776 0
-777 229 0
-777 109 0
-109 -229 777 0
-778 229 0
-778 110 0
-110 -229 778 0
-779 229 0
-779 111 0
-111 -229 779 0
-780 230 0
-780 106 0
-106 -230 780 0
-781 230 0
-781 107 0
-107 -230 781 0
-782 230 0
-782 108 0
-108 -230 782 0
-783 230 0
-783 109 0
-109 -230 783 0
-784 230 0
-784 110 0
-110 -230 784 0
-785 230 0
-785 111 0
-111 -230 785 0
-786 231 0
-786 106 0
-106 -231 786 0
-787 231 0
-787 107 0
-107 -231 787 0
-788 231 0
-788 108 0
-108 -231 788 0
-789 231 0
-789 109 0
-109 -231 789 0
-790 231 0
-790 110 0
-110 -231 790 0
-791 231 0
-791 111 0
-111 -231 791 0
-792 232 0
-792 112 0
-112 -232 792 0
-793 232 0
-793 113 0
-113 -232 793 0
-794 232 0
-794 114 0
-114 -232 794 0
-795 232 0
-795 115 0
-115 -232 795 0
-796 232 0
-796 116 0
-116 -232 796 0
-797 232 0
-797 117 0
-117 -232 797 0
-798 233 0
-798 112 0
-112 -233 798 0
-799 233 0
-799 113 0
-113 -233 799 0
-800 233 0
-800 114 0
-114 -233 800 0
-801 233 0
-801 115 0
-115 -233 801 0
-802 233 0
-802 116 0
-116 -233 802 0
-803 233 0
-803 117 0
-117 -233 803 0
-804 234 0
-804 112 0
-112 -234 804 0
-805 234 0
-805 113 0
-113 -234 805 0
-806 234 0
-806 114 0
-114 -234 806 0
-807 234 0
-807 115 0
-115 -234 807 0
-808 234 0
-808 116 0
-116 -234 808 0
-809 234 0
-809 117 0
-117 -234 809 0
-810 235 0
-810 112 0
-112 -235 810 0
-811 235 0
-811 113 0
-113 -235 811 0
-812 235 0
-812 114 0
-114 -235 812 0
-813 235 0
-813 115 0
-115 -235 813 0
-814 235 0
-814 116 0
-116 -235 814 0
-815 235 0
-815 117 0
-117 -235 815 0
-816 236 0
-816 118 0
-118 -236 816 0
-817 236 0
-817 118 119 0
-118 -236 817 0
-119 -236 817 0
-818 236 0
-818 119 120 0
-119 -236 818 0
-120 -236 818 0
-819 236 0
-819 120 121 0
-120 -236 819 0
-121 -236 819 0
-820 236 0
-820 121 122 0
-121 -236 820 0
-122 -236 820 0
-821 236 0
-821 122 0
-122 -236 821 0
-822 237 0
-822 118 0
-118 -237 822 0
-823 237 0
-823 118 119 0
-118 -237 823 0
-119 -237 823 0
-824 237 0
-824 119 120 0
-119 -237 824 0
-120 -237 824 0
-825 237 0
-825 120 121 0
-120 -237 825 0
-121 -237 825 0
-826 237 0
-826 121 122 0
-121 -237 826 0
-122 -237 826 0
-827 237 0
-827 122 0
-122 -237 827 0
-828 238 0
-828 118 0
-118 -238 828 0
-829 238 0
-829 118 119 0
-118 -238 829 0
-119 -238 829 0
-830 238 0
-830 119 120 0
-119 -238 830 0
-120 -238 830 0
-831 238 0
-831 120 121 0
-120 -238 831 0
-121 -238 831 0
-832 238 0
-832 121 122 0
-121 -238 832 0
-122 -238 832 0
-833 238 0
-833 122 0
-122 -238 833 0
-834 239 0
-834 118 0
-118 -239 834 0
-835 239 0
-835 118 119 0
-118 -239 835 0
-119 -239 835 0
-836 239 0
-836 119 120 0
-119 -239 836 0
-120 -239 836 0
-837 239 0
-837 120 121 0
-120 -239 837 0
-121 -239 837 0
-838 239 0
-838 121 122 0
-121 -239 838 0
-122 -239 838 0
-839 239 0
-839 122 0
-122 -239 839 0
-840 240 0
-840 123 0
-123 -240 840 0
-841 240 0
-841 123 124 0
-123 -240 841 0
-124 -240 841 0
-842 240 0
-842 123 124 125 0
-123 -240 842 0
-124 -240 842 0
-125 -240 842 0
-843 240 0
-843 124 125 126 0
-124 -240 843 0
-125 -240 843 0
-126 -240 843 0
-844 240 0
-844 125 126 0
-125 -240 844 0
-126 -240 844 0
-845 240 0
-845 126 0
-126 -240 845 0
-846 241 0
-846 123 0
-123 -241 846 0
-847 241 0
-847 123 124 0
-123 -241 847 0
-124 -241 847 0
-848 241 0
-848 123 124 125 0
-123 -241 848 0
-124 -241 848 0
-125 -241 848 0
-849 241 0
-849 124 125 126 0
-124 -241 849 0
-125 -241 849 0
-126 -241 849 0
-850 241 0
-850 125 126 0
-125 -241 850 0
-126 -241 850 0
-851 241 0
-851 126 0
-126 -241 851 0
-852 242 0
-852 123 0
-123 -242 852 0
-853 242 0
-853 123 124 0
-123 -242 853 0
-124 -242 853 0
-854 242 0
-854 123 124 125 0
-123 -242 854 0
-124 -242 854 0
-125 -242 854 0
-855 242 0
-855 124 125 126 0
-124 -242 855 0
-125 -242 855 0
-126 -242 855 0
-856 242 0
-856 125 126 0
-125 -242 856 0
-126 -242 856 0
-857 242 0
-857 126 0
-126 -242 857 0
-858 243 0
-858 123 0
-123 -243 858 0
-859 243 0
-859 123 124 0
-123 -243 859 0
-124 -243 859 0
-860 243 0
-860 123 124 125 0
-123 -243 860 0
-124 -243 860 0
-125 -243 860 0
-861 243 0
-861 124 125 126 0
-124 -243 861 0
-125 -243 861 0
-126 -243 861 0
-862 243 0
-862 125 126 0
-125 -243 862 0
-126 -243 862 0
-863 243 0
-863 126 0
-126 -243 863 0
-768 -792 0
-768 -816 0
-768 -840 0
-792 -816 0
-792 -840 0
-816 -840 0
-769 -793 0
-769 -817 0
-769 -841 0
-793 -817 0
-793 -841 0
-817 -841 0
-770 -794 0
-770 -818 0
-770 -842 0
-794 -818 0
-794 -842 0
-818 -842 0
-771 -795 0
-771 -819 0
-771 -843 0
-795 -819 0
-795 -843 0
-819 -843 0
-772 -796 0
-772 -820 0
-772 -844 0
-796 -820 0
-796 -844 0
-820 -844 0
-773 -797 0
-773 -821 0
-773 -845 0
-797 -821 0
-797 -845 0
-821 -845 0
-774 -798 0
-774 -822 0
-774 -846 0
-798 -822 0
-798 -846 0
-822 -846 0
-775 -799 0
-775 -823 0
-775 -847 0
-799 -823 0
-799 -847 0
-823 -847 0
-776 -800 0
-776 -824 0
-776 -848 0
-800 -824 0
-800 -848 0
-824 -848 0
-777 -801 0
-777 -825 0
-777 -849 0
-801 -825 0
-801 -849 0
-825 -849 0
-778 -802 0
-778 -826 0
-778 -850 0
-802 -826 0
-802 -850 0
-826 -850 0
-779 -803 0
-779 -827 0
-779 -851 0
-803 -827 0
-803 -851 0
-827 -851 0
-780 -804 0
-780 -828 0
-780 -852 0
-804 -828 0
-804 -852 0
-828 -852 0
-781 -805 0
-781 -829 0
-781 -853 0
-805 -829 0
-805 -853 0
-829 -853 0
-782 -806 0
-782 -830 0
-782 -854 0
-806 -830 0
-806 -854 0
-830 -854 0
-783 -807 0
-783 -831 0
-783 -855 0
-807 -831 0
-807 -855 0
-831 -855 0
-784 -808 0
-784 -832 0
-784 -856 0
-808 -832 0
-808 -856 0
-832 -856 0
-785 -809 0
-785 -833 0
-785 -857 0
-809 -833 0
-809 -857 0
-833 -857 0
-786 -810 0
-786 -834 0
-786 -858 0
-810 -834 0
-810 -858 0
-834 -858 0
-787 -811 0
-787 -835 0
-787 -859 0
-811 -835 0
-811 -859 0
-835 -859 0
-788 -812 0
-788 -836 0
-788 -860 0
-812 -836 0
-812 -860 0
-836 -860 0
-789 -813 0
-789 -837 0
-789 -861 0
-813 -837 0
-813 -861 0
-837 -861 0
-790 -814 0
-790 -838 0
-790 -862 0
-814 -838 0
-814 -862 0
-838 -862 0
-791 -815 0
-791 -839 0
-791 -863 0
-815 -839 0
-815 -863 0
-839 -863 0
-106 -229 792 816 840 0
-106 -230 798 822 846 0
-106 -231 804 828 852 0
-107 -229 793 817 841 0
-107 -230 799 823 847 0
-107 -231 805 829 853 0
-108 -229 794 818 842 0
-108 -230 800 824 848 0
-108 -231 806 830 854 0
-109 -229 795 819 843 0
-109 -230 801 825 849 0
-109 -231 807 831 855 0
-110 -229 796 820 844 0
-110 -230 802 826 850 0
-110 -231 808 832 856 0
-111 -229 797 821 845 0
-111 -230 803 827 851 0
-111 -231 809 833 857 0
-112 -233 768 816 840 0
-112 -234 774 822 846 0
-112 -235 780 828 852 0
-113 -233 769 817 841 0
-113 -234 775 823 847 0
-113 -235 781 829 853 0
-114 -233 770 818 842 0
-114 -234 776 824 848 0
-114 -235 782 830 854 0
-115 -233 771 819 843 0
-115 -234 777 825 849 0
-115 -235 783 831 855 0
-116 -233 772 820 844 0
-116 -234 778 826 850 0
-116 -235 784 832 856 0
-117 -233 773 821 845 0
-117 -234 779 827 851 0
-117 -235 785 833 857 0
-118 -237 768 792 840 769 793 841 0
-118 -238 774 798 846 775 799 847 0
-118 -239 780 804 852 781 805 853 0
-119 -237 769 793 841 770 794 842 0
-119 -238 775 799 847 776 800 848 0
-119 -239 781 805 853 782 806 854 0
-120 -237 770 794 842 771 795 843 0
-120 -238 776 800 848 777 801 849 0
-120 -239 782 806 854 783 807 855 0
-121 -237 771 795 843 772 796 844 0
-121 -238 777 801 849 778 802 850 0
-121 -239 783 807 855 784 808 856 0
-122 -237 772 796 844 773 797 845 0
-122 -238 778 802 850 779 803 851 0
-122 -239 784 808 856 785 809 857 0
-123 -241 768 792 816 769 793 817 0
-123 -241 768 792 816 770 794 818 0
-123 -241 769 793 817 770 794 818 0
-123 -242 774 798 822 775 799 823 0
-123 -242 774 798 822 776 800 824 0
-123 -242 775 799 823 776 800 824 0
-123 -243 780 804 828 781 805 829 0
-123 -243 780 804 828 782 806 830 0
-123 -243 781 805 829 782 806 830 0
-124 -241 769 793 817 770 794 818 0
-124 -241 769 793 817 771 795 819 0
-124 -241 770 794 818 771 795 819 0
-124 -242 775 799 823 776 800 824 0
-124 -242 775 799 823 777 801 825 0
-124 -242 776 800 824 777 801 825 0
-124 -243 781 805 829 782 806 830 0
-124 -243 781 805 829 783 807 831 0
-124 -243 782 806 830 783 807 831 0
-125 -241 770 794 818 771 795 819 0
-125 -241 770 794 818 772 796 820 0
-125 -241 771 795 819 772 796 820 0
-125 -242 776 800 824 777 801 825 0
-125 -242 776 800 824 778 802 826 0
-125 -242 777 801 825 778 802 826 0
-125 -243 782 806 830 783 807 831 0
-125 -243 782 806 830 784 808 832 0
-125 -243 783 807 831 784 808 832 0
-126 -241 771 795 819 772 796 820 0
-126 -241 771 795 819 773 797 821 0
-126 -241 772 796 820 773 797 821 0
-126 -242 777 801 825 778 802 826 0
-126 -242 777 801 825 779 803 827 0
-126 -242 778 802 826 779 803 827 0
-126 -243 783 807 831 784 808 832 0
-126 -243 783 807 831 785 809 833 0
-126 -243 784 808 832 785 809 833 0
-1591 768 774 780 786 0
-1591 -768 -798 0
-1591 -768 -822 0
-1591 -768 -846 0
-768 1591 798 822 846 0
-1591 -774 -804 0
-1591 -774 -828 0
-1591 -774 -852 0
-774 1591 804 828 852 0
-1591 -780 -810 0
-1591 -780 -834 0
-1591 -780 -858 0
-780 1591 810 834 858 0
-786 1591 0
-1592 769 775 781 787 0
-1592 -769 -799 0
-1592 -769 -823 0
-1592 -769 -847 0
-769 1592 799 823 847 0
-1592 -775 -805 0
-1592 -775 -829 0
-1592 -775 -853 0
-775 1592 805 829 853 0
-1592 -781 -811 0
-1592 -781 -835 0
-1592 -781 -859 0
-781 1592 811 835 859 0
-787 1592 0
-1593 770 776 782 788 0
-1593 -770 -800 0
-1593 -770 -824 0
-1593 -770 -848 0
-770 1593 800 824 848 0
-1593 -776 -806 0
-1593 -776 -830 0
-1593 -776 -854 0
-776 1593 806 830 854 0
-1593 -782 -812 0
-1593 -782 -836 0
-1593 -782 -860 0
-782 1593 812 836 860 0
-788 1593 0
-1594 771 777 783 789 0
-1594 -771 -801 0
-1594 -771 -825 0
-1594 -771 -849 0
-771 1594 801 825 849 0
-1594 -777 -807 0
-1594 -777 -831 0
-1594 -777 -855 0
-777 1594 807 831 855 0
-1594 -783 -813 0
-1594 -783 -837 0
-1594 -783 -861 0
-783 1594 813 837 861 0
-789 1594 0
-1595 772 778 784 790 0
-1595 -772 -802 0
-1595 -772 -826 0
-1595 -772 -850 0
-772 1595 802 826 850 0
-1595 -778 -808 0
-1595 -778 -832 0
-1595 -778 -856 0
-778 1595 808 832 856 0
-1595 -784 -814 0
-1595 -784 -838 0
-1595 -784 -862 0
-784 1595 814 838 862 0
-790 1595 0
-1596 773 779 785 791 0
-1596 -773 -803 0
-1596 -773 -827 0
-1596 -773 -851 0
-773 1596 803 827 851 0
-1596 -779 -809 0
-1596 -779 -833 0
-1596 -779 -857 0
-779 1596 809 833 857 0
-1596 -785 -815 0
-1596 -785 -839 0
-1596 -785 -863 0
-785 1596 815 839 863 0
-791 1596 0
-1597 792 798 804 810 0
-1597 -792 -774 0
-1597 -792 -822 0
-1597 -792 -846 0
-792 1597 774 822 846 0
-1597 -798 -780 0
-1597 -798 -828 0
-1597 -798 -852 0
-798 1597 780 828 852 0
-1597 -804 -786 0
-1597 -804 -834 0
-1597 -804 -858 0
-804 1597 786 834 858 0
-810 1597 0
-1598 793 799 805 811 0
-1598 -793 -775 0
-1598 -793 -823 0
-1598 -793 -847 0
-793 1598 775 823 847 0
-1598 -799 -781 0
-1598 -799 -829 0
-1598 -799 -853 0
-799 1598 781 829 853 0
-1598 -805 -787 0
-1598 -805 -835 0
-1598 -805 -859 0
-805 1598 787 835 859 0
-811 1598 0
-1599 794 800 806 812 0
-1599 -794 -776 0
-1599 -794 -824 0
-1599 -794 -848 0
-794 1599 776 824 848 0
-1599 -800 -782 0
-1599 -800 -830 0
-1599 -800 -854 0
-800 1599 782 830 854 0
-1599 -806 -788 0
-1599 -806 -836 0
-1599 -806 -860 0
-806 1599 788 836 860 0
-812 1599 0
-1600 795 801 807 813 0
-1600 -795 -777 0
-1600 -795 -825 0
-1600 -795 -849 0
-795 1600 777 825 849 0
-1600 -801 -783 0
-1600 -801 -831 0
-1600 -801 -855 0
-801 1600 783 831 855 0
-1600 -807 -789 0
-1600 -807 -837 0
-1600 -807 -861 0
-807 1600 789 837 861 0
-813 1600 0
-1601 796 802 808 814 0
-1601 -796 -778 0
-1601 -796 -826 0
-1601 -796 -850 0
-796 1601 778 826 850 0
-1601 -802 -784 0
-1601 -802 -832 0
-1601 -802 -856 0
-802 1601 784 832 856 0
-1601 -808 -790 0
-1601 -808 -838 0
-1601 -808 -862 0
-808 1601 790 838 862 0
-814 1601 0
-1602 797 803 809 815 0
-1602 -797 -779 0
-1602 -797 -827 0
-1602 -797 -851 0
-797 1602 779 827 851 0
-1602 -803 -785 0
-1602 -803 -833 0
-1602 -803 -857 0
-803 1602 785 833 857 0
-1602 -809 -791 0
-1602 -809 -839 0
-1602 -809 -863 0
-809 1602 791 839 863 0
-815 1602 0
-1603 816 822 828 834 0
-1603 -816 -774 0
-1603 -816 -798 0
-1603 -816 -846 0
-816 1603 774 798 846 0
-1603 -822 -780 0
-1603 -822 -804 0
-1603 -822 -852 0
-822 1603 780 804 852 0
-1603 -828 -786 0
-1603 -828 -810 0
-1603 -828 -858 0
-828 1603 786 810 858 0
-834 1603 0
-1604 817 823 829 835 0
-1604 -817 -775 0
-1604 -817 -799 0
-1604 -817 -847 0
-817 1604 775 799 847 0
-1604 -823 -781 0
-1604 -823 -805 0
-1604 -823 -853 0
-823 1604 781 805 853 0
-1604 -829 -787 0
-1604 -829 -811 0
-1604 -829 -859 0
-829 1604 787 811 859 0
-835 1604 0
-1605 818 824 830 836 0
-1605 -818 -776 0
-1605 -818 -800 0
-1605 -818 -848 0
-818 1605 776 800 848 0
-1605 -824 -782 0
-1605 -824 -806 0
-1605 -824 -854 0
-824 1605 782 806 854 0
-1605 -830 -788 0
-1605 -830 -812 0
-1605 -830 -860 0
-830 1605 788 812 860 0
-836 1605 0
-1606 819 825 831 837 0
-1606 -819 -777 0
-1606 -819 -801 0
-1606 -819 -849 0
-819 1606 777 801 849 0
-1606 -825 -783 0
-1606 -825 -807 0
-1606 -825 -855 0
-825 1606 783 807 855 0
-1606 -831 -789 0
-1606 -831 -813 0
-1606 -831 -861 0
-831 1606 789 813 861 0
-837 1606 0
-1607 820 826 832 838 0
-1607 -820 -778 0
-1607 -820 -802 0
-1607 -820 -850 0
-820 1607 778 802 850 0
-1607 -826 -784 0
-1607 -826 -808 0
-1607 -826 -856 0
-826 1607 784 808 856 0
-1607 -832 -790 0
-1607 -832 -814 0
-1607 -832 -862 0
-832 1607 790 814 862 0
-838 1607 0
-1608 821 827 833 839 0
-1608 -821 -779 0
-1608 -821 -803 0
-1608 -821 -851 0
-821 1608 779 803 851 0
-1608 -827 -785 0
-1608 -827 -809 0
-1608 -827 -857 0
-827 1608 785 809 857 0
-1608 -833 -791 0
-1608 -833 -815 0
-1608 -833 -863 0
-833 1608 791 815 863 0
-839 1608 0
-1609 840 846 852 858 0
-1609 -840 -774 0
-1609 -840 -798 0
-1609 -840 -822 0
-840 1609 774 798 822 0
-1609 -846 -780 0
-1609 -846 -804 0
-1609 -846 -828 0
-846 1609 780 804 828 0
-1609 -852 -786 0
-1609 -852 -810 0
-1609 -852 -834 0
-852 1609 786 810 834 0
-858 1609 0
-1610 841 847 853 859 0
-1610 -841 -775 0
-1610 -841 -799 0
-1610 -841 -823 0
-841 1610 775 799 823 0
-1610 -847 -781 0
-1610 -847 -805 0
-1610 -847 -829 0
-847 1610 781 805 829 0
-1610 -853 -787 0
-1610 -853 -811 0
-1610 -853 -835 0
-853 1610 787 811 835 0
-859 1610 0
-1611 842 848 854 860 0
-1611 -842 -776 0
-1611 -842 -800 0
-1611 -842 -824 0
-842 1611 776 800 824 0
-1611 -848 -782 0
-1611 -848 -806 0
-1611 -848 -830 0
-848 1611 782 806 830 0
-1611 -854 -788 0
-1611 -854 -812 0
-1611 -854 -836 0
-854 1611 788 812 836 0
-860 1611 0
-1612 843 849 855 861 0
-1612 -843 -777 0
-1612 -843 -801 0
-1612 -843 -825 0
-843 1612 777 801 825 0
-1612 -849 -783 0
-1612 -849 -807 0
-1612 -849 -831 0
-849 1612 783 807 831 0
-1612 -855 -789 0
-1612 -855 -813 0
-1612 -855 -837 0
-855 1612 789 813 837 0
-861 1612 0
-1613 844 850 856 862 0
-1613 -844 -778 0
-1613 -844 -802 0
-1613 -844 -826 0
-844 1613 778 802 826 0
-1613 -850 -784 0
-1613 -850 -808 0
-1613 -850 -832 0
-850 1613 784 808 832 0
-1613 -856 -790 0
-1613 -856 -814 0
-1613 -856 -838 0
-856 1613 790 814 838 0
-862 1613 0
-1614 845 851 857 863 0
-1614 -845 -779 0
-1614 -845 -803 0
-1614 -845 -827 0
-845 1614 779 803 827 0
-1614 -851 -785 0
-1614 -851 -809 0
-1614 -851 -833 0
-851 1614 785 809 833 0
-1614 -857 -791 0
-1614 -857 -815 0
-1614 -857 -839 0
-857 1614 791 815 839 0
-863 1614 0
-280 -768 1591 0
-280 -774 1591 0
-280 -780 1591 0
-280 -786 1591 0
-280 -769 1592 0
-280 -775 1592 0
-280 -781 1592 0
-280 -787 1592 0
-280 -770 1593 0
-280 -776 1593 0
-280 -782 1593 0
-280 -788 1593 0
-280 -771 1594 0
-280 -777 1594 0
-280 -783 1594 0
-280 -789 1594 0
-280 -772 1595 0
-280 -778 1595 0
-280 -784 1595 0
-280 -790 1595 0
-280 -773 1596 0
-280 -779 1596 0
-280 -785 1596 0
-280 -791 1596 0
-106 280 -1591 0
-107 280 -1592 0
-108 280 -1593 0
-109 280 -1594 0
-110 280 -1595 0
-111 280 -1596 0
-281 -792 1597 0
-281 -798 1597 0
-281 -804 1597 0
-281 -810 1597 0
-281 -793 1598 0
-281 -799 1598 0
-281 -805 1598 0
-281 -811 1598 0
-281 -794 1599 0
-281 -800 1599 0
-281 -806 1599 0
-281 -812 1599 0
-281 -795 1600 0
-281 -801 1600 0
-281 -807 1600 0
-281 -813 1600 0
-281 -796 1601 0
-281 -802 1601 0
-281 -808 1601 0
-281 -814 1601 0
-281 -797 1602 0
-281 -803 1602 0
-281 -809 1602 0
-281 -815 1602 0
-112 281 -1597 0
-113 281 -1598 0
-114 281 -1599 0
-115 281 -1600 0
-116 281 -1601 0
-117 281 -1602 0
-282 -816 1603 0
-282 -822 1603 0
-282 -828 1603 0
-282 -834 1603 0
-282 -817 1604 0
-282 -823 1604 0
-282 -829 1604 0
-282 -835 1604 0
-282 -818 1605 0
-282 -824 1605 0
-282 -830 1605 0
-282 -836 1605 0
-282 -819 1606 0
-282 -825 1606 0
-282 -831 1606 0
-282 -837 1606 0
-282 -820 1607 0
-282 -826 1607 0
-282 -832 1607 0
-282 -838 1607 0
-282 -821 1608 0
-282 -827 1608 0
-282 -833 1608 0
-282 -839 1608 0
-118 282 -1603 -1604 0
-119 282 -1604 -1605 0
-120 282 -1605 -1606 0
-121 282 -1606 -1607 0
-122 282 -1607 -1608 0
-283 -840 1609 0
-283 -846 1609 0
-283 -852 1609 0
-283 -858 1609 0
-283 -841 1610 0
-283 -847 1610 0
-283 -853 1610 0
-283 -859 1610 0
-283 -842 1611 0
-283 -848 1611 0
-283 -854 1611 0
-283 -860 1611 0
-283 -843 1612 0
-283 -849 1612 0
-283 -855 1612 0
-283 -861 1612 0
-283 -844 1613 0
-283 -850 1613 0
-283 -856 1613 0
-283 -862 1613 0
-283 -845 1614 0
-283 -851 1614 0
-283 -857 1614 0
-283 -863 1614 0
-123 283 -1609 -1610 -1611 0
-124 283 -1610 -1611 -1612 0
-125 283 -1611 -1612 -1613 0
-126 283 -1612 -1613 -1614 0
127 128 129 130 131 132 0
-127 -128 0
-127 -129 0
-127 -130 0
-127 -131 0
-127 -132 0
-128 -129 0
-128 -130 0
-128 -131 0
-128 -132 0
-129 -130 0
-129 -131 0
-129 -132 0
-130 -131 0
-130 -132 0
-131 -132 0
133 134 135 136 137 138 0
-133 -134 0
-133 -135 0
-133 -136 0
-133 -137 0
-133 -138 0
-134 -135 0
-134 -136 0
-134 -137 0
-134 -138 0
-135 -136 0
-135 -137 0
-135 -138 0
-136 -137 0
-136 -138 0
-137 -138 0
139 140 141 142 143 0
-139 -140 0
-139 -141 0
-139 -142 0
-139 -143 0
-140 -141 0
-140 -142 0
-140 -143 0
-141 -142 0
-141 -143 0
-142 -143 0
144 145 146 147 0
-144 -145 0
-144 -146 0
-144 -147 0
-145 -146 0
-145 -147 0
-146 -147 0
244 245 246 247 0
-244 -245 0
-244 -246 0
-244 -247 0
-245 -246 0
-245 -247 0
-246 -247 0
248 249 250 251 0
-248 -249 0
-248 -250 0
-248 -251 0
-249 -250 0
-249 -251 0
-250 -251 0
252 253 254 255 0
-252 -253 0
-252 -254 0
-252 -255 0
-253 -254 0
-253 -255 0
-254 -255 0
256 257 258 259 0
-256 -257 0
-256 -258 0
-256 -259 0
-257 -258 0
-257 -259 0
-258 -259 0
-864 244 0
-864 127 0
-127 -244 864 0
-865 244 0
-865 128 0
-128 -244 865 0
-866 244 0
-866 129 0
-129 -244 866 0
-867 244 0
-867 130 0
-130 -244 867 0
-868 244 0
-868 131 0
-131 -244 868 0
-869 244 0
-869 132 0
-132 -244 869 0
-870 245 0
-870 127 0
-127 -245 870 0
-871 245 0
-871 128 0
-128 -245 871 0
-872 245 0
-872 129 0
-129 -245 872 0
-873 245 0
-873 130 0
-130 -245 873 0
-874 245 0
-874 131 0
-131 -245 874 0
-875 245 0
-875 132 0
-132 -245 875 0
-876 246 0
-876 127 0
-127 -246 876 0
-877 246 0
-877 128 0
-128 -246 877 0
-878 246 0
-878 129 0
-129 -246 878 0
-879 246 0
-879 130 0
-130 -246 879 0
-880 246 0
-880 131 0
-131 -246 880 0
-881 246 0
-881 132 0
-132 -246 881 0
-882 247 0
-882 127 0
-127 -247 882 0
-883 247 0
-883 128 0
-128 -247 883 0
-884 247 0
-884 129 0
-129 -247 884 0
-885 247 0
-885 130 0
-130 -247 885 0
-886 247 0
-886 131 0
-131 -247 886 0
-887 247 0
-887 132 0
-132 -247 887 0
-888 248 0
-888 133 0
-133 -248 888 0
-889 248 0
-889 134 0
-134 -248 889 0
-890 248 0
-890 135 0
-135 -248 890 0
-891 248 0
-891 136 0
-136 -248 891 0
-892 248 0
-892 137 0
-137 -248 892 0
-893 248 0
-893 138 0
-138 -248 893 0
-894 249 0
-894 133 0
-133 -249 894 0
-895 249 0
-895 134 0
-134 -249 895 0
-896 249 0
-896 135 0
-135 -249 896 0
-897 249 0
-897 136 0
-136 -249 897 0
-898 249 0
-898 137 0
-137 -249 898 0
-899 249 0
-899 138 0
-138 -249 899 0
-900 250 0
-900 133 0
-133 -250 900 0
-901 250 0
-901 134 0
-134 -250 901 0
-902 250 0
-902 135 0
-135 -250 902 0
-903 250 0
-903 136 0
-136 -250 903 0
-904 250 0
-904 137 0
-137 -250 904 0
-905 250 0
-905 138 0
-138 -250 905 0
-906 251 0
-906 133 0
-133 -251 906 0
-907 251 0
-907 134 0
-134 -251 907 0
-908 251 0
-908 135 0
-135 -251 908 0
-909 251 0
-909 136 0
-136 -251 909 0
-910 251 0
-910 137 0
-137 -251 910 0
-911 251 0
-911 138 0
-138 -251 911 0
-912 252 0
-912 139 0
-139 -252 912 0
-913 252 0
-913 139 140 0
-139 -252 913 0
-140 -252 913 0
-914 252 0
-914 140 141 0
-140 -252 914 0
-141 -252 914 0
-915 252 0
-915 141 142 0
-141 -252 915 0
-142 -252 915 0
-916 252 0
-916 142 143 0
-142 -252 916 0
-143 -252 916 0
-917 252 0
-917 143 0
-143 -252 917 0
-918 253 0
-918 139 0
-139 -253 918 0
-919 253 0
-919 139 140 0
-139 -253 919 0
-140 -253 919 0
-920 253 0
-920 140 141 0
-140 -253 920 0
-141 -253 920 0
-921 253 0
-921 141 142 0
-141 -253 921 0
-142 -253 921 0
-922 253 0
-922 142 143 0
-142 -253 922 0
-143 -253 922 0
-923 253 0
-923 143 0
-143 -253 923 0
-924 254 0
-924 139 0
-139 -254 924 0
-925 254 0
-925 139 140 0
-139 -254 925 0
-140 -254 925 0
-926 254 0
-926 140 141 0
-140 -254 926 0
-141 -254 926 0
-927 254 0
-927 141 142 0
-141 -254 927 0
-142 -254 927 0
-928 254 0
-928 142 143 0
-142 -254 928 0
-143 -254 928 0
-929 254 0
-929 143 0
-143 -254 929 0
-930 255 0
-930 139 0
-139 -255 930 0
-931 255 0
-931 139 140 0
-139 -255 931 0
-140 -255 931 0
-932 255 0
-932 140 141 0
-140 -255 932 0
-141 -255 932 0
-933 255 0
-933 141 142 0
-141 -255 933 0
-142 -255 933 0
-934 255 0
-934 142 143 0
-142 -255 934 0
-143 -255 934 0
-935 255 0
-935 143 0
-143 -255 935 0
-936 256 0
-936 144 0
-144 -256 936 0
-937 256 0
-937 144 145 0
-144 -256 937 0
-145 -256 937 0
-938 256 0
-938 144 145 146 0
-144 -256 938 0
-145 -256 938 0
-146 -256 938 0
-939 256 0
-939 145 146 147 0
-145 -256 939 0
-146 -256 939 0
-147 -256 939 0
-940 256 0
-940 146 147 0
-146 -256 940 0
-147 -256 940 0
-941 256 0
-941 147 0
-147 -256 941 0
-942 257 0
-942 144 0
-144 -257 942 0
-943 257 0
-943 144 145 0
-144 -257 943 0
-145 -257 943 0
-944 257 0
-944 144 145 146 0
-144 -257 944 0
-145 -257 944 0
-146 -257 944 0
-945 257 0
-945 145 146 147 0
-145 -257 945 0
-146 -257 945 0
-147 -257 945 0
-946 257 0
-946 146 147 0
-146 -257 946 0
-147 -257 946 0
-947 257 0
-947 147 0
-147 -257 947 0
-948 258 0
-948 144 0
-144 -258 948 0
-949 258 0
-949 144 145 0
-144 -258 949 0
-145 -258 949 0
-950 258 0
-950 144 145 146 0
-144 -258 950 0
-145 -258 950 0
-146 -258 950 0
-951 258 0
-951 145 146 147 0
-145 -258 951 0
-146 -258 951 0
-147 -258 951 0
-952 258 0
-952 146 147 0
-146 -258 952 0
-147 -258 952 0
-953 258 0
-953 147 0
-147 -258 953 0
-954 259 0
-954 144 0
-144 -259 954 0
-955 259 0
-955 144 145 0
-144 -259 955 0
-145 -259 955 0
-956 259 0
-956 144 145 146 0
-144 -259 956 0
-145 -259 956 0
-146 -259 956 0
-957 259 0
-957 145 146 147 0
-145 -259 957 0
-146 -259 957 0
-147 -259 957 0
-958 259 0
-958 146 147 0
-146 -259 958 0
-147 -259 958 0
-959 259 0
-959 147 0
-147 -259 959 0
-864 -888 0
-864 -912 0
-864 -936 0
-888 -912 0
-888 -936 0
-912 -936 0
-865 -889 0
-865 -913 0
-865 -937 0
-889 -913 0
-889 -937 0
-913 -937 0
-866 -890 0
-866 -914 0
-866 -938 0
-890 -914 0
-890 -938 0
-914 -938 0
-867 -891 0
-867 -915 0
-867 -939 0
-891 -915 0
-891 -939 0
-915 -939 0
-868 -892 0
-868 -916 0
-868 -940 0
-892 -916 0
-892 -940 0
-916 -940 0
-869 -893 0
-869 -917 0
-869 -941 0
-893 -917 0
-893 -941 0
-917 -941 0
-870 -894 0
-870 -918 0
-870 -942 0
-894 -918 0
-894 -942 0
-918 -942 0
-871 -895 0
-871 -919 0
-871 -943 0
-895 -919 0
-895 -943 0
-919 -943 0
-872 -896 0
-872 -920 0
-872 -944 0
-896 -920 0
-896 -944 0
-920 -944 0
-873 -897 0
-873 -921 0
-873 -945 0
-897 -921 0
-897 -945 0
-921 -945 0
-874 -898 0
-874 -922 0
-874 -946 0
-898 -922 0
-898 -946 0
-922 -946 0
-875 -899 0
-875 -923 0
-875 -947 0
-899 -923 0
-899 -947 0
-923 -947 0
-876 -900 0
-876 -924 0
-876 -948 0
-900 -924 0
-900 -948 0
-924 -948 0
-877 -901 0
-877 -925 0
-877 -949 0
-901 -925 0
-901 -949 0
-925 -949 0
-878 -902 0
-878 -926 0
-878 -950 0
-902 -926 0
-902 -950 0
-926 -950 0
-879 -903 0
-879 -927 0
-879 -951 0
-903 -927 0
-903 -951 0
-927 -951 0
-880 -904 0
-880 -928 0
-880 -952 0
-904 -928 0
-904 -952 0
-928 -952 0
-881 -905 0
-881 -929 0
-881 -953 0
-905 -929 0
-905 -953 0
-929 -953 0
-882 -906 0
-882 -930 0
-882 -954 0
-906 -930 0
-906 -954 0
-930 -954 0
-883 -907 0
-883 -931 0
-883 -955 0
-907 -931 0
-907 -955 0
-931 -955 0
-884 -908 0
-884 -932 0
-884 -956 0
-908 -932 0
-908 -956 0
-932 -956 0
-885 -909 0
-885 -933 0
-885 -957 0
-909 -933 0
-909 -957 0
-933 -957 0
-886 -910 0
-886 -934 0
-886 -958 0
-910 -934 0
-910 -958 0
-934 -958 0
-887 -911 0
-887 -935 0
-887 -959 0
-911 -935 0
-911 -959 0
-935 -959 0
-127 -245 888 912 936 0
-127 -246 894 918 942 0
-127 -247 900 924 948 0
-128 -245 889 913 937 0
-128 -246 895 919 943 0
-128 -247 901 925 949 0
-129 -245 890 914 938 0
-129 -246 896 920 944 0
-129 -247 902 926 950 0
-130 -245 891 915 939 0
-130 -246 897 921 945 0
-130 -247 903 927 951 0
-131 -245 892 916 940 0
-131 -246 898 922 946 0
-131 -247 904 928 952 0
-132 -245 893 917 941 0
-132 -246 899 923 947 0
-132 -247 905 929 953 0
-133 -249 864 912 936 0
-133 -250 870 918 942 0
-133 -251 876 924 948 0
-134 -249 865 913 937 0
-134 -250 871 919 943 0
-134 -251 877 925 949 0
-135 -249 866 914 938 0
-135 -250 872 920 944 0
-135 -251 878 926 950 0
-136 -249 867 915 939 0
-136 -250 873 921 945 0
-136 -251 879 927 951 0
-137 -249 868 916 940 0
-137 -250 874 922 946 0
-137 -251 880 928 952 0
-138 -249 869 917 941 0
-138 -250 875 923 947 0
-138 -251 881 929 953 0
-139 -253 864 888 936 865 889 937 0
-139 -254 870 894 942 871 895 943 0
-139 -255 876 900 948 877 901 949 0
-140 -253 865 889 937 866 890 938 0
-140 -254 871 895 943 872 896 944 0
-140 -255 877 901 949 878 902 950 0
-141 -253 866 890 938 867 891 939 0
-141 -254 872 896 944 873 897 945 0
-141 -255 878 902 950 879 903 951 0
-142 -253 867 891 939 868 892 940 0
-142 -254 873 897 945 874 898 946 0
-142 -255 879 903 951 880 904 952 0
-143 -253 868 892 940 869 893 941 0
-143 -254 874 898 946 875 899 947 0
-143 -255 880 904 952 881 905 953 0
-144 -257 864 888 912 865 889 913 0
-144 -257 864 888 912 866 890 914 0
-144 -257 865 889 913 866 890 914 0
-144 -258 870 894 918 871 895 919 0
-144 -258 870 894 918 872 896 920 0
-144 -258 871 895 919 872 896 920 0
-144 -259 876 900 924 877 901 925 0
-144 -259 876 900 924 878 902 926 0
-144 -259 877 901 925 878 902 926 0
-145 -257 865 889 913 866 890 914 0
-145 -257 865 889 913 867 891 915 0
-145 -257 866 890 914 867 891 915 0
-145 -258 871 895 919 872 896 920 0
-145 -258 871 895 919 873 897 921 0
-145 -258 872 896 920 873 897 921 0
-145 -259 877 901 925 878 902 926 0
-145 -259 877 901 925 879 903 927 0
-145 -259 878 902 926 879 903 927 0
-146 -257 866 890 914 867 891 915 0
-146 -257 866 890 914 868 892 916 0
-146 -257 867 891 915 868 892 916 0
-146 -258 872 896 920 873 897 921 0
-146 -258 872 896 920 874 898 922 0
-146 -258 873 897 921 874 898 922 0
-146 -259 878 902 926 879 903 927 0
-146 -259 878 902 926 880 904 928 0
-146 -259 879 903 927 880 904 928 0
-147 -257 867 891 915 868 892 916 0
-147 -257 867 891 915 869 893 917 0
-147 -257 868 892 916 869 893 917 0
-147 -258 873 897 921 874 898 922 0
-147 -258 873 897 921 875 899 923 0
-147 -258 874 898 922 875 899 923 0
-147 -259 879 903 927 880 904 928 0
-147 -259 879 903 927 881 905 929 0
-147 -259 880 904 928 881 905 929 0
-1615 864 870 876 882 0
-1615 -864 -894 0
-1615 -864 -918 0
-1615 -864 -942 0
-864 1615 894 918 942 0
-1615 -870 -900 0
-1615 -870 -924 0
-1615 -870 -948 0
-870 1615 900 924 948 0
-1615 -876 -906 0
-1615 -876 -930 0
-1615 -876 -954 0
-876 1615 906 930 954 0
-882 1615 0
-1616 865 871 877 883 0
-1616 -865 -895 0
-1616 -865 -919 0
-1616 -865 -943 0
-865 1616 895 919 943 0
-1616 -871 -901 0
-1616 -871 -925 0
-1616 -871 -949 0
-871 1616 901 925 949 0
-1616 -877 -907 0
-1616 -877 -931 0
-1616 -877 -955 0
-877 1616 907 931 955 0
-883 1616 0
-1617 866 872 878 884 0
-1617 -866 -896 0
-1617 -866 -920 0
-1617 -866 -944 0
-866 1617 896 920 944 0
-1617 -872 -902 0
-1617 -872 -926 0
-1617 -872 -950 0
-872 1617 902 926 950 0
-1617 -878 -908 0
-1617 -878 -932 0
-1617 -878 -956 0
-878 1617 908 932 956 0
-884 1617 0
-1618 867 873 879 885 0
-1618 -867 -897 0
-1618 -867 -921 0
-1618 -867 -945 0
-867 1618 897 921 945 0
-1618 -873 -903 0
-1618 -873 -927 0
-1618 -873 -951 0
-873 1618 903 927 951 0
-1618 -879 -909 0
-1618 -879 -933 0
-1618 -879 -957 0
-879 1618 909 933 957 0
-885 1618 0
-1619 868 874 880 886 0
-1619 -868 -898 0
-1619 -868 -922 0
-1619 -868 -946 0
-868 1619 898 922 946 0
-1619 -874 -904 0
-1619 -874 -928 0
-1619 -874 -952 0
-874 1619 904 928 952 0
-1619 -880 -910 0
-1619 -880 -934 0
-1619 -880 -958 0
-880 1619 910 934 958 0
-886 1619 0
-1620 869 875 881 887 0
-1620 -869 -899 0
-1620 -869 -923 0
-1620 -869 -947 0
-869 1620 899 923 947 0
-1620 -875 -905 0
-1620 -875 -929 0
-1620 -875 -953 0
-875 1620 905 929 953 0
-1620 -881 -911 0
-1620 -881 -935 0
-1620 -881 -959 0
-881 1620 911 935 959 0
-887 1620 0
-1621 888 894 900 906 0
-1621 -888 -870 0
-1621 -888 -918 0
-1621 -888 -942 0
-888 1621 870 918 942 0
-1621 -894 -876 0
-1621 -894 -924 0
-1621 -894 -948 0
-894 1621 876 924 948 0
-1621 -900 -882 0
-1621 -900 -930 0
-1621 -900 -954 0
-900 1621 882 930 954 0
-906 1621 0
-1622 889 895 901 907 0
-1622 -889 -871 0
-1622 -889 -919 0
-1622 -889 -943 0
-889 1622 871 919 943 0
-1622 -895 -877 0
-1622 -895 -925 0
-1622 -895 -949 0
-895 1622 877 925 949 0
-1622 -901 -883 0
-1622 -901 -931 0
-1622 -901 -955 0
-901 1622 883 931 955 0
-907 1622 0
-1623 890 896 902 908 0
-1623 -890 -872 0
-1623 -890 -920 0
-1623 -890 -944 0
-890 1623 872 920 944 0
-1623 -896 -878 0
-1623 -896 -926 0
-1623 -896 -950 0
-896 1623 878 926 950 0
-1623 -902 -884 0
-1623 -902 -932 0
-1623 -902 -956 0
-902 1623 884 932 956 0
-908 1623 0
-1624 891 897 903 909 0
-1624 -891 -873 0
-1624 -891 -921 0
-1624 -891 -945 0
-891 1624 873 921 945 0
-1624 -897 -879 0
-1624 -897 -927 0
-1624 -897 -951 0
-897 1624 879 927 951 0
-1624 -903 -885 0
-1624 -903 -933 0
-1624 -903 -957 0
-903 1624 885 933 957 0
-909 1624 0
-1625 892 898 904 910 0
-1625 -892 -874 0
-1625 -892 -922 0
-1625 -892 -946 0
-892 1625 874 922 946 0
-1625 -898 -880 0
-1625 -898 -928 0
-1625 -898 -952 0
-898 1625 880 928 952 0
-1625 -904 -886 0
-1625 -904 -934 0
-1625 -904 -958 0
-904 1625 886 934 958 0
-910 1625 0
-1626 893 899 905 911 0
-1626 -893 -875 0
-1626 -893 -923 0
-1626 -893 -947 0
-893 1626 875 923 947 0
-1626 -899 -881 0
-1626 -899 -929 0
-1626 -899 -953 0
-899 1626 881 929 953 0
-1626 -905 -887 0
-1626 -905 -935 0
-1626 -905 -959 0
-905 1626 887 935 959 0
-911 1626 0
-1627 912 918 924 930 0
-1627 -912 -870 0
-1627 -912 -894 0
-1627 -912 -942 0
-912 1627 870 894 942 0
-1627 -918 -876 0
-1627 -918 -900 0
-1627 -918 -948 0
-918 1627 876 900 948 0
-1627 -924 -882 0
-1627 -924 -906 0
-1627 -924 -954 0
-924 1627 882 906 954 0
-930 1627 0
-1628 913 919 925 931 0
-1628 -913 -871 0
-1628 -913 -895 0
-1628 -913 -943 0
-913 1628 871 895 943 0
-1628 -919 -877 0
-1628 -919 -901 0
-1628 -919 -949 0
-919 1628 877 901 949 0
-1628 -925 -883 0
-1628 -925 -907 0
-1628 -925 -955 0
-925 1628 883 907 955 0
-931 1628 0
-1629 914 920 926 932 0
-1629 -914 -872 0
-1629 -914 -896 0
-1629 -914 -944 0
-914 1629 872 896 944 0
-1629 -920 -878 0
-1629 -920 -902 0
-1629 -920 -950 0
-920 1629 878 902 950 0
-1629 -926 -884 0
-1629 -926 -908 0
-1629 -926 -956 0
-926 1629 884 908 956 0
-932 1629 0
-1630 915 921 927 933 0
-1630 -915 -873 0
-1630 -915 -897 0
-1630 -915 -945 0
-915 1630 873 897 945 0
-1630 -921 -879 0
-1630 -921 -903 0
-1630 -921 -951 0
-921 1630 879 903 951 0
-1630 -927 -885 0
-1630 -927 -909 0
-1630 -927 -957 0
-927 1630 885 909 957 0
-933 1630 0
-1631 916 922 928 934 0
-1631 -916 -874 0
-1631 -916 -898 0
-1631 -916 -946 0
-916 1631 874 898 946 0
-1631 -922 -880 0
-1631 -922 -904 0
-1631 -922 -952 0
-922 1631 880 904 952 0
-1631 -928 -886 0
-1631 -928 -910 0
-1631 -928 -958 0
-928 1631 886 910 958 0
-934 1631 0
-1632 917 923 929 935 0
-1632 -917 -875 0
-1632 -917 -899 0
-1632 -917 -947 0
-917 1632 875 899 947 0
-1632 -923 -881 0
-1632 -923 -905 0
-1632 -923 -953 0
-923 1632 881 905 953 0
-1632 -929 -887 0
-1632 -929 -911 0
-1632 -929 -959 0
-929 1632 887 911 959 0
-935 1632 0
-1633 936 942 948 954 0
-1633 -936 -870 0
-1633 -936 -894 0
-1633 -936 -918 0
-936 1633 870 894 918 0
-1633 -942 -876 0
-1633 -942 -900 0
-1633 -942 -924 0
-942 1633 876 900 924 0
-1633 -948 -882 0
-1633 -948 -906 0
-1633 -948 -930 0
-948 1633 882 906 930 0
-954 1633 0
-1634 937 943 949 955 0
-1634 -937 -871 0
-1634 -937 -895 0
-1634 -937 -919 0
-937 1634 871 895 919 0
-1634 -943 -877 0
-1634 -943 -901 0
-1634 -943 -925 0
-943 1634 877 901 925 0
-1634 -949 -883 0
-1634 -949 -907 0
-1634 -949 -931 0
-949 1634 883 907 931 0
-955 1634 0
-1635 938 944 950 956 0
-1635 -938 -872 0
-1635 -938 -896 0
-1635 -938 -920 0
-938 1635 872 896 920 0
-1635 -944 -878 0
-1635 -944 -902 0
-1635 -944 -926 0
-944 1635 878 902 926 0
-1635 -950 -884 0
-1635 -950 -908 0
-1635 -950 -932 0
-950 1635 884 908 932 0
-956 1635 0
-1636 939 945 951 957 0
-1636 -939 -873 0
-1636 -939 -897 0
-1636 -939 -921 0
-939 1636 873 897 921 0
-1636 -945 -879 0
-1636 -945 -903 0
-1636 -945 -927 0
-945 1636 879 903 927 0
-1636 -951 -885 0
-1636 -951 -909 0
-1636 -951 -933 0
-951 1636 885 909 933 0
-957 1636 0
-1637 940 946 952 958 0
-1637 -940 -874 0
-1637 -940 -898 0
-1637 -940 -922 0
-940 1637 874 898 922 0
-1637 -946 -880 0
-1637 -946 -904 0
-1637 -946 -928 0
-946 1637 880 904 928 0
-1637 -952 -886 0
-1637 -952 -910 0
-1637 -952 -934 0
-952 1637 886 910 934 0
-958 1637 0
-1638 941 947 953 959 0
-1638 -941 -875 0
-1638 -941 -899 0
-1638 -941 -923 0
-941 1638 875 899 923 0
-1638 -947 -881 0
-1638 -947 -905 0
-1638 -947 -929 0
-947 1638 881 905 929 0
-1638 -953 -887 0
-1638 -953 -911 0
-1638 -953 -935 0
-953 1638 887 911 935 0
-959 1638 0
-284 -864 1615 0
-284 -870 1615 0
-284 -876 1615 0
-284 -882 1615 0
-284 -865 1616 0
-284 -871 1616 0
-284 -877 1616 0
-284 -883 1616 0
-284 -866 1617 0
-284 -872 1617 0
-284 -878 1617 0
-284 -884 1617 0
-284 -867 1618 0
-284 -873 1618 0
-284 -879 1618 0
-284 -885 1618 0
-284 -868 1619 0
-284 -874 1619 0
-284 -880 1619 0
-284 -886 1619 0
-284 -869 1620 0
-284 -875 1620 0
-284 -881 1620 0
-284 -887 1620 0
-127 284 -1615 0
-128 284 -1616 0
-129 284 -1617 0
-130 284 -1618 0
-131 284 -1619 0
-132 284 -1620 0
-285 -888 1621 0
-285 -894 1621 0
-285 -900 1621 0
-285 -906 1621 0
-285 -889 1622 0
-285 -895 1622 0
-285 -901 1622 0
-285 -907 1622 0
-285 -890 1623 0
-285 -896 1623 0
-285 -902 1623 0
-285 -908 1623 0
-285 -891 1624 0
-285 -897 1624 0
-285 -903 1624 0
-285 -909 1624 0
-285 -892 1625 0
-285 -898 1625 0
-285 -904 1625 0
-285 -910 1625 0
-285 -893 1626 0
-285 -899 1626 0
-285 -905 1626 0
-285 -911 1626 0
-133 285 -1621 0
-134 285 -1622 0
-135 285 -1623 0
-136 285 -1624 0
-137 285 -1625 0
-138 285 -1626 0
-286 -912 1627 0
-286 -918 1627 0
-286 -924 1627 0
-286 -930 1627 0
-286 -913 1628 0
-286 -919 1628 0
-286 -925 1628 0
-286 -931 1628 0
-286 -914 1629 0
-286 -920 1629 0
-286 -926 1629 0
-286 -932 1629 0
-286 -915 1630 0
-286 -921 1630 0
-286 -927 1630 0
-286 -933 1630 0
-286 -916 1631 0
-286 -922 1631 0
-286 -928 1631 0
-286 -934 1631 0
-286 -917 1632 0
-286 -923 1632 0
-286 -929 1632 0
-286 -935 1632 0
-139 286 -1627 -1628 0
-140 286 -1628 -1629 0
-141 286 -1629 -1630 0
-142 286 -1630 -1631 0
-143 286 -1631 -1632 0
-287 -936 1633 0
-287 -942 1633 0
-287 -948 1633 0
-287 -954 1633 0
-287 -937 1634 0
-287 -943 1634 0
-287 -949 1634 0
-287 -955 1634 0
-287 -938 1635 0
-287 -944 1635 0
-287 -950 1635 0
-287 -956 1635 0
-287 -939 1636 0
-287 -945 1636 0
-287 -951 1636 0
-287 -957 1636 0
-287 -940 1637 0
-287 -946 1637 0
-287 -952 1637 0
-287 -958 1637 0
-287 -941 1638 0
-287 -947 1638 0
-287 -953 1638 0
-287 -959 1638 0
-144 287 -1633 -1634 -1635 0
-145 287 -1634 -1635 -1636 0
-146 287 -1635 -1636 -1637 0
-147 287 -1636 -1637 -1638 0
-960 260 0
-960 -1 -152 -149 0
-960 -1 -153 -150 0
-960 -1 -154 -151 0
-960 7 0
-960 -7 -152 1477 294 0
-960 -7 -153 1477 300 0
-960 -7 -154 1477 306 0
-960 -152 -318 0
-960 -152 -342 0
-960 -152 -366 0
-960 -152 -324 0
-960 -152 -348 0
-960 -152 -372 0
-960 -152 -330 0
-960 -152 -354 0
-960 -152 -378 0
-960 -153 -324 0
-960 -153 -348 0
-960 -153 -372 0
-960 -153 -330 0
-960 -153 -354 0
-960 -153 -378 0
-960 -154 -330 0
-960 -154 -354 0
-960 -154 -378 0
-960 -155 0
-960 22 0
-960 -152 165 0
-960 -153 166 0
-960 -154 167 0
-960 -265 0
-961 260 0
-961 -2 -152 -149 0
-961 -2 -153 -150 0
-961 -2 -154 -151 0
-961 8 0
-961 -8 -152 1478 295 0
-961 -8 -153 1478 301 0
-961 -8 -154 1478 307 0
-961 -152 -319 0
-961 -152 -343 0
-961 -152 -367 0
-961 -152 -325 0
-961 -152 -349 0
-961 -152 -373 0
-961 -152 -331 0
-961 -152 -355 0
-961 -152 -379 0
-961 -153 -325 0
-961 -153 -349 0
-961 -153 -373 0
-961 -153 -331 0
-961 -153 -355 0
-961 -153 -379 0
-961 -154 -331 0
-961 -154 -355 0
-961 -154 -379 0
-961 -155 0
-961 23 0
-961 -152 165 0
-961 -153 166 0
-961 -154 167 0
-961 -265 0
-962 260 0
-962 -3 -152 -149 0
-962 -3 -153 -150 0
-962 -3 -154 -151 0
-962 9 0
-962 -9 -152 1479 296 0
-962 -9 -153 1479 302 0
-962 -9 -154 1479 308 0
-962 -152 -320 0
-962 -152 -344 0
-962 -152 -368 0
-962 -152 -326 0
-962 -152 -350 0
-962 -152 -374 0
-962 -152 -332 0
-962 -152 -356 0
-962 -152 -380 0
-962 -153 -326 0
-962 -153 -350 0
-962 -153 -374 0
-962 -153 -332 0
-962 -153 -356 0
-962 -153 -380 0
-962 -154 -332 0
-962 -154 -356 0
-962 -154 -380 0
-962 -155 0
-962 24 0
-962 -152 165 0
-962 -153 166 0
-962 -154 167 0
-962 -265 0
-963 260 0
-963 -4 -152 -149 0
-963 -4 -153 -150 0
-963 -4 -154 -151 0
-963 10 0
-963 -10 -152 1480 297 0
-963 -10 -153 1480 303 0
-963 -10 -154 1480 309 0
-963 -152 -321 0
-963 -152 -345 0
-963 -152 -369 0
-963 -152 -327 0
-963 -152 -351 0
-963 -152 -375 0
-963 -152 -333 0
-963 -152 -357 0
-963 -152 -381 0
-963 -153 -327 0
-963 -153 -351 0
-963 -153 -375 0
-963 -153 -333 0
-963 -153 -357 0
-963 -153 -381 0
-963 -154 -333 0
-963 -154 -357 0
-963 -154 -381 0
-963 -155 0
-963 25 0
-963 -152 165 0
-963 -153 166 0
-963 -154 167 0
-963 -265 0
-964 260 0
-964 -5 -152 -149 0
-964 -5 -153 -150 0
-964 -5 -154 -151 0
-964 11 0
-964 -11 -152 1481 298 0
-964 -11 -153 1481 304 0
-964 -11 -154 1481 310 0
-964 -152 -322 0
-964 -152 -346 0
-964 -152 -370 0
-964 -152 -328 0
-964 -152 -352 0
-964 -152 -376 0
-964 -152 -334 0
-964 -152 -358 0
-964 -152 -382 0
-964 -153 -328 0
-964 -153 -352 0
-964 -153 -376 0
-964 -153 -334 0
-964 -153 -358 0
-964 -153 -382 0
-964 -154 -334 0
-964 -154 -358 0
-964 -154 -382 0
-964 -155 0
-964 26 0
-964 -152 165 0
-964 -153 166 0
-964 -154 167 0
-964 -265 0
-965 260 0
-965 -6 -152 -149 0
-965 -6 -153 -150 0
-965 -6 -154 -151 0
-965 12 0
-965 -12 -152 1482 299 0
-965 -12 -153 1482 305 0
-965 -12 -154 1482 311 0
-965 -152 -323 0
-965 -152 -347 0
-965 -152 -371 0
-965 -152 -329 0
-965 -152 -353 0
-965 -152 -377 0
-965 -152 -335 0
-965 -152 -359 0
-965 -152 -383 0
-965 -153 -329 0
-965 -153 -353 0
-965 -153 -377 0
-965 -153 -335 0
-965 -153 -359 0
-965 -153 -383 0
-965 -154 -335 0
-965 -154 -359 0
-965 -154 -383 0
-965 -155 0
-965 27 0
-965 -152 165 0
-965 -153 166 0
-965 -154 167 0
-965 -265 0
-966 260 0
-966 -1 -156 -149 0
-966 -1 -157 -150 0
-966 -1 -158 -151 0
-966 13 0
-966 -13 -156 1483 294 0
-966 -13 -157 1483 300 0
-966 -13 -158 1483 306 0
-966 -156 -318 0
-966 -156 -342 0
-966 -156 -366 0
-966 -156 -324 0
-966 -156 -348 0
-966 -156 -372 0
-966 -156 -330 0
-966 -156 -354 0
-966 -156 -378 0
-966 -157 -324 0
-966 -157 -348 0
-966 -157 -372 0
-966 -157 -330 0
-966 -157 -354 0
-966 -157 -378 0
-966 -158 -330 0
-966 -158 -354 0
-966 -158 -378 0
-966 -159 0
-966 22 0
-966 -156 165 0
-966 -157 166 0
-966 -158 167 0
-966 -266 0
-967 260 0
-967 -2 -156 -149 0
-967 -2 -157 -150 0
-967 -2 -158 -151 0
-967 13 14 0
-967 -13 -156 1484 295 0
-967 -13 -157 1484 301 0
-967 -13 -158 1484 307 0
-967 -14 -156 1484 295 0
-967 -14 -157 1484 301 0
-967 -14 -158 1484 307 0
-967 -156 -319 0
-967 -156 -343 0
-967 -156 -367 0
-967 -156 -325 0
-967 -156 -349 0
-967 -156 -373 0
-967 -156 -331 0
-967 -156 -355 0
-967 -156 -379 0
-967 -157 -325 0
-967 -157 -349 0
-967 -157 -373 0
-967 -157 -331 0
-967 -157 -355 0
-967 -157 -379 0
-967 -158 -331 0
-967 -158 -355 0
-967 -158 -379 0
-967 -159 0
-967 23 0
-967 -156 165 0
-967 -157 166 0
-967 -158 167 0
-967 -266 0
-968 260 0
-968 -3 -156 -149 0
-968 -3 -157 -150 0
-968 -3 -158 -151 0
-968 14 15 0
-968 -14 -156 1485 296 0
-968 -14 -157 1485 302 0
-968 -14 -158 1485 308 0
-968 -15 -156 1485 296 0
-968 -15 -157 1485 302 0
-968 -15 -158 1485 308 0
-968 -156 -320 0
-968 -156 -344 0
-968 -156 -368 0
-968 -156 -326 0
-968 -156 -350 0
-968 -156 -374 0
-968 -156 -332 0
-968 -156 -356 0
-968 -156 -380 0
-968 -157 -326 0
-968 -157 -350 0
-968 -157 -374 0
-968 -157 -332 0
-968 -157 -356 0
-968 -157 -380 0
-968 -158 -332 0
-968 -158 -356 0
-968 -158 -380 0
-968 -159 0
-968 24 0
-968 -156 165 0
-968 -157 166 0
-968 -158 167 0
-968 -266 0
-969 260 0
-969 -4 -156 -149 0
-969 -4 -157 -150 0
-969 -4 -158 -151 0
-969 15 16 0
-969 -15 -156 1486 297 0
-969 -15 -157 1486 303 0
-969 -15 -158 1486 309 0
-969 -16 -156 1486 297 0
-969 -16 -157 1486 303 0
-969 -16 -158 1486 309 0
-969 -156 -321 0
-969 -156 -345 0
-969 -156 -369 0
-969 -156 -327 0
-969 -156 -351 0
-969 -156 -375 0
-969 -156 -333 0
-969 -156 -357 0
-969 -156 -381 0
-969 -157 -327 0
-969 -157 -351 0
-969 -157 -375 0
-969 -157 -333 0
-969 -157 -357 0
-969 -157 -381 0
-969 -158 -333 0
-969 -158 -357 0
-969 -158 -381 0
-969 -159 0
-969 25 0
-969 -156 165 0
-969 -157 166 0
-969 -158 167 0
-969 -266 0
-970 260 0
-970 -5 -156 -149 0
-970 -5 -157 -150 0
-970 -5 -158 -151 0
-970 16 17 0
-970 -16 -156 1487 298 0
-970 -16 -157 1487 304 0
-970 -16 -158 1487 310 0
-970 -17 -156 1487 298 0
-970 -17 -157 1487 304 0
-970 -17 -158 1487 310 0
-970 -156 -322 0
-970 -156 -346 0
-970 -156 -370 0
-970 -156 -328 0
-970 -156 -352 0
-970 -156 -376 0
-970 -156 -334 0
-970 -156 -358 0
-970 -156 -382 0
-970 -157 -328 0
-970 -157 -352 0
-970 -157 -376 0
-970 -157 -334 0
-970 -157 -358 0
-970 -157 -382 0
-970 -158 -334 0
-970 -158 -358 0
-970 -158 -382 0
-970 -159 0
-970 26 0
-970 -156 165 0
-970 -157 166 0
-970 -158 167 0
-970 -266 0
-971 260 0
-971 -6 -156 -149 0
-971 -6 -157 -150 0
-971 -6 -158 -151 0
-971 17 0
-971 -17 -156 1488 299 0
-971 -17 -157 1488 305 0
-971 -17 -158 1488 311 0
-971 -156 -323 0
-971 -156 -347 0
-971 -156 -371 0
-971 -156 -329 0
-971 -156 -353 0
-971 -156 -377 0
-971 -156 -335 0
-971 -156 -359 0
-971 -156 -383 0
-971 -157 -329 0
-971 -157 -353 0
-971 -157 -377 0
-971 -157 -335 0
-971 -157 -359 0
-971 -157 -383 0
-971 -158 -335 0
-971 -158 -359 0
-971 -158 -383 0
-971 -159 0
-971 27 0
-971 -156 165 0
-971 -157 166 0
-971 -158 167 0
-971 -266 0
-972 260 0
-972 -1 -160 -149 0
-972 -1 -161 -150 0
-972 -1 -162 -151 0
-972 18 0
-972 -18 -160 1489 294 0
-972 -18 -161 1489 300 0
-972 -18 -162 1489 306 0
-972 -160 -318 0
-972 -160 -342 0
-972 -160 -366 0
-972 -160 -324 0
-972 -160 -348 0
-972 -160 -372 0
-972 -160 -330 0
-972 -160 -354 0
-972 -160 -378 0
-972 -161 -324 0
-972 -161 -348 0
-972 -161 -372 0
-972 -161 -330 0
-972 -161 -354 0
-972 -161 -378 0
-972 -162 -330 0
-972 -162 -354 0
-972 -162 -378 0
-972 -163 0
-972 22 0
-972 -160 165 0
-972 -161 166 0
-972 -162 167 0
-972 -267 0
-973 260 0
-973 -2 -160 -149 0
-973 -2 -161 -150 0
-973 -2 -162 -151 0
-973 18 19 0
-973 -18 -160 1490 295 0
-973 -18 -161 1490 301 0
-973 -18 -162 1490 307 0
-973 -19 -160 1490 295 0
-973 -19 -161 1490 301 0
-973 -19 -162 1490 307 0
-973 -160 -319 0
-973 -160 -343 0
-973 -160 -367 0
-973 -160 -325 0
-973 -160 -349 0
-973 -160 -373 0
-973 -160 -331 0
-973 -160 -355 0
-973 -160 -379 0
-973 -161 -325 0
-973 -161 -349 0
-973 -161 -373 0
-973 -161 -331 0
-973 -161 -355 0
-973 -161 -379 0
-973 -162 -331 0
-973 -162 -355 0
-973 -162 -379 0
-973 -163 0
-973 23 0
-973 -160 165 0
-973 -161 166 0
-973 -162 167 0
-973 -267 0
-974 260 0
-974 -3 -160 -149 0
-974 -3 -161 -150 0
-974 -3 -162 -151 0
-974 18 19 20 0
-974 -18 -160 1491 296 0
-974 -18 -161 1491 302 0
-974 -18 -162 1491 308 0
-974 -19 -160 1491 296 0
-974 -19 -161 1491 302 0
-974 -19 -162 1491 308 0
-974 -20 -160 1491 296 0
-974 -20 -161 1491 302 0
-974 -20 -162 1491 308 0
-974 -160 -320 0
-974 -160 -344 0
-974 -160 -368 0
-974 -160 -326 0
-974 -160 -350 0
-974 -160 -374 0
-974 -160 -332 0
-974 -160 -356 0
-974 -160 -380 0
-974 -161 -326 0
-974 -161 -350 0
-974 -161 -374 0
-974 -161 -332 0
-974 -161 -356 0
-974 -161 -380 0
-974 -162 -332 0
-974 -162 -356 0
-974 -162 -380 0
-974 -163 0
-974 24 0
-974 -160 165 0
-974 -161 166 0
-974 -162 167 0
-974 -267 0
-975 260 0
-975 -4 -160 -149 0
-975 -4 -161 -150 0
-975 -4 -162 -151 0
-975 19 20 21 0
-975 -19 -160 1492 297 0
-975 -19 -161 1492 303 0
-975 -19 -162 1492 309 0
-975 -20 -160 1492 297 0
-975 -20 -161 1492 303 0
-975 -20 -162 1492 309 0
-975 -21 -160 1492 297 0
-975 -21 -161 1492 303 0
-975 -21 -162 1492 309 0
-975 -160 -321 0
-975 -160 -345 0
-975 -160 -369 0
-975 -160 -327 0
-975 -160 -351 0
-975 -160 -375 0
-975 -160 -333 0
-975 -160 -357 0
-975 -160 -381 0
-975 -161 -327 0
-975 -161 -351 0
-975 -161 -375 0
-975 -161 -333 0
-975 -161 -357 0
-975 -161 -381 0
-975 -162 -333 0
-975 -162 -357 0
-975 -162 -381 0
-975 -163 0
-975 25 0
-975 -160 165 0
-975 -161 166 0
-975 -162 167 0
-975 -267 0
-976 260 0
-976 -5 -160 -149 0
-976 -5 -161 -150 0
-976 -5 -162 -151 0
-976 20 21 0
-976 -20 -160 1493 298 0
-976 -20 -161 1493 304 0
-976 -20 -162 1493 310 0
-976 -21 -160 1493 298 0
-976 -21 -161 1493 304 0
-976 -21 -162 1493 310 0
-976 -160 -322 0
-976 -160 -346 0
-976 -160 -370 0
-976 -160 -328 0
-976 -160 -352 0
-976 -160 -376 0
-976 -160 -334 0
-976 -160 -358 0
-976 -160 -382 0
-976 -161 -328 0
-976 -161 -352 0
-976 -161 -376 0
-976 -161 -334 0
-976 -161 -358 0
-976 -161 -382 0
-976 -162 -334 0
-976 -162 -358 0
-976 -162 -382 0
-976 -163 0
-976 26 0
-976 -160 165 0
-976 -161 166 0
-976 -162 167 0
-976 -267 0
-977 260 0
-977 -6 -160 -149 0
-977 -6 -161 -150 0
-977 -6 -162 -151 0
-977 21 0
-977 -21 -160 1494 299 0
-977 -21 -161 1494 305 0
-977 -21 -162 1494 311 0
-977 -160 -323 0
-977 -160 -347 0
-977 -160 -371 0
-977 -160 -329 0
-977 -160 -353 0
-977 -160 -377 0
-977 -160 -335 0
-977 -160 -359 0
-977 -160 -383 0
-977 -161 -329 0
-977 -161 -353 0
-977 -161 -377 0
-977 -161 -335 0
-977 -161 -359 0
-977 -161 -383 0
-977 -162 -335 0
-977 -162 -359 0
-977 -162 -383 0
-977 -163 0
-977 27 0
-977 -160 165 0
-977 -161 166 0
-977 -162 167 0
-977 -267 0
-978 260 0
-978 -1 -148 0
-978 -312 0
-978 -336 0
-978 -360 0
-978 -318 0
-978 -342 0
-978 -366 0
-978 -324 0
-978 -348 0
-978 -372 0
-978 -330 0
-978 -354 0
-978 -378 0
-978 22 0
-978 164 0
-979 260 0
-979 -2 -148 0
-979 -313 0
-979 -337 0
-979 -361 0
-979 -319 0
-979 -343 0
-979 -367 0
-979 -325 0
-979 -349 0
-979 -373 0
-979 -331 0
-979 -355 0
-979 -379 0
-979 23 0
-979 164 0
-980 260 0
-980 -3 -148 0
-980 -314 0
-980 -338 0
-980 -362 0
-980 -320 0
-980 -344 0
-980 -368 0
-980 -326 0
-980 -350 0
-980 -374 0
-980 -332 0
-980 -356 0
-980 -380 0
-980 24 0
-980 164 0
-981 260 0
-981 -4 -148 0
-981 -315 0
-981 -339 0
-981 -363 0
-981 -321 0
-981 -345 0
-981 -369 0
-981 -327 0
-981 -351 0
-981 -375 0
-981 -333 0
-981 -357 0
-981 -381 0
-981 25 0
-981 164 0
-982 260 0
-982 -5 -148 0
-982 -316 0
-982 -340 0
-982 -364 0
-982 -322 0
-982 -346 0
-982 -370 0
-982 -328 0
-982 -352 0
-982 -376 0
-982 -334 0
-982 -358 0
-982 -382 0
-982 26 0
-982 164 0
-983 260 0
-983 -6 -148 0
-983 -317 0
-983 -341 0
-983 -365 0
-983 -323 0
-983 -347 0
-983 -371 0
-983 -329 0
-983 -353 0
-983 -377 0
-983 -335 0
-983 -359 0
-983 -383 0
-983 27 0
-983 164 0
-984 261 0
-984 -7 -148 -153 0
-984 -7 -149 -154 0
-984 -7 -150 -155 0
-984 1 0
-984 -1 -148 1471 318 0
-984 -1 -149 1471 324 0
-984 -1 -150 1471 330 0
-984 -148 -294 0
-984 -148 -342 0
-984 -148 -366 0
-984 -148 -300 0
-984 -148 -348 0
-984 -148 -372 0
-984 -148 -306 0
-984 -148 -354 0
-984 -148 -378 0
-984 -149 -300 0
-984 -149 -348 0
-984 -149 -372 0
-984 -149 -306 0
-984 -149 -354 0
-984 -149 -378 0
-984 -150 -306 0
-984 -150 -354 0
-984 -150 -378 0
-984 -151 0
-984 28 0
-984 -148 169 0
-984 -149 170 0
-984 -150 171 0
-984 -264 0
-985 261 0
-985 -8 -148 -153 0
-985 -8 -149 -154 0
-985 -8 -150 -155 0
-985 2 0
-985 -2 -148 1472 319 0
-985 -2 -149 1472 325 0
-985 -2 -150 1472 331 0
-985 -148 -295 0
-985 -148 -343 0
-985 -148 -367 0
-985 -148 -301 0
-985 -148 -349 0
-985 -148 -373 0
-985 -148 -307 0
-985 -148 -355 0
-985 -148 -379 0
-985 -149 -301 0
-985 -149 -349 0
-985 -149 -373 0
-985 -149 -307 0
-985 -149 -355 0
-985 -149 -379 0
-985 -150 -307 0
-985 -150 -355 0
-985 -150 -379 0
-985 -151 0
-985 29 0
-985 -148 169 0
-985 -149 170 0
-985 -150 171 0
-985 -264 0
-986 261 0
-986 -9 -148 -153 0
-986 -9 -149 -154 0
-986 -9 -150 -155 0
-986 3 0
-986 -3 -148 1473 320 0
-986 -3 -149 1473 326 0
-986 -3 -150 1473 332 0
-986 -148 -296 0
-986 -148 -344 0
-986 -148 -368 0
-986 -148 -302 0
-986 -148 -350 0
-986 -148 -374 0
-986 -148 -308 0
-986 -148 -356 0
-986 -148 -380 0
-986 -149 -302 0
-986 -149 -350 0
-986 -149 -374 0
-986 -149 -308 0
-986 -149 -356 0
-986 -149 -380 0
-986 -150 -308 0
-986 -150 -356 0
-986 -150 -380 0
-986 -151 0
-986 30 0
-986 -148 169 0
-986 -149 170 0
-986 -150 171 0
-986 -264 0
-987 261 0
-987 -10 -148 -153 0
-987 -10 -149 -154 0
-987 -10 -150 -155 0
-987 4 0
-987 -4 -148 1474 321 0
-987 -4 -149 1474 327 0
-987 -4 -150 1474 333 0
-987 -148 -297 0
-987 -148 -345 0
-987 -148 -369 0
-987 -148 -303 0
-987 -148 -351 0
-987 -148 -375 0
-987 -148 -309 0
-987 -148 -357 0
-987 -148 -381 0
-987 -149 -303 0
-987 -149 -351 0
-987 -149 -375 0
-987 -149 -309 0
-987 -149 -357 0
-987 -149 -381 0
-987 -150 -309 0
-987 -150 -357 0
-987 -150 -381 0
-987 -151 0
-987 31 0
-987 -148 169 0
-987 -149 170 0
-987 -150 171 0
-987 -264 0
-988 261 0
-988 -11 -148 -153 0
-988 -11 -149 -154 0
-988 -11 -150 -155 0
-988 5 0
-988 -5 -148 1475 322 0
-988 -5 -149 1475 328 0
-988 -5 -150 1475 334 0
-988 -148 -298 0
-988 -148 -346 0
-988 -148 -370 0
-988 -148 -304 0
-988 -148 -352 0
-988 -148 -376 0
-988 -148 -310 0
-988 -148 -358 0
-988 -148 -382 0
-988 -149 -304 0
-988 -149 -352 0
-988 -149 -376 0
-988 -149 -310 0
-988 -149 -358 0
-988 -149 -382 0
-988 -150 -310 0
-988 -150 -358 0
-988 -150 -382 0
-988 -151 0
-988 32 0
-988 -148 169 0
-988 -149 170 0
-988 -150 171 0
-988 -264 0
-989 261 0
-989 -12 -148 -153 0
-989 -12 -149 -154 0
-989 -12 -150 -155 0
-989 6 0
-989 -6 -148 1476 323 0
-989 -6 -149 1476 329 0
-989 -6 -150 1476 335 0
-989 -148 -299 0
-989 -148 -347 0
-989 -148 -371 0
-989 -148 -305 0
-989 -148 -353 0
-989 -148 -377 0
-989 -148 -311 0
-989 -148 -359 0
-989 -148 -383 0
-989 -149 -305 0
-989 -149 -353 0
-989 -149 -377 0
-989 -149 -311 0
-989 -149 -359 0
-989 -149 -383 0
-989 -150 -311 0
-989 -150 -359 0
-989 -150 -383 0
-989 -151 0
-989 33 0
-989 -148 169 0
-989 -149 170 0
-989 -150 171 0
-989 -264 0
-990 261 0
-990 -7 -156 -153 0
-990 -7 -157 -154 0
-990 -7 -158 -155 0
-990 13 0
-990 -13 -156 1483 318 0
-990 -13 -157 1483 324 0
-990 -13 -158 1483 330 0
-990 -156 -294 0
-990 -156 -342 0
-990 -156 -366 0
-990 -156 -300 0
-990 -156 -348 0
-990 -156 -372 0
-990 -156 -306 0
-990 -156 -354 0
-990 -156 -378 0
-990 -157 -300 0
-990 -157 -348 0
-990 -157 -372 0
-990 -157 -306 0
-990 -157 -354 0
-990 -157 -378 0
-990 -158 -306 0
-990 -158 -354 0
-990 -158 -378 0
-990 -159 0
-990 28 0
-990 -156 169 0
-990 -157 170 0
-990 -158 171 0
-990 -266 0
-991 261 0
-991 -8 -156 -153 0
-991 -8 -157 -154 0
-991 -8 -158 -155 0
-991 13 14 0
-991 -13 -156 1484 319 0
-991 -13 -157 1484 325 0
-991 -13 -158 1484 331 0
-991 -14 -156 1484 319 0
-991 -14 -157 1484 325 0
-991 -14 -158 1484 331 0
-991 -156 -295 0
-991 -156 -343 0
-991 -156 -367 0
-991 -156 -301 0
-991 -156 -349 0
-991 -156 -373 0
-991 -156 -307 0
-991 -156 -355 0
-991 -156 -379 0
-991 -157 -301 0
-991 -157 -349 0
-991 -157 -373 0
-991 -157 -307 0
-991 -157 -355 0
-991 -157 -379 0
-991 -158 -307 0
-991 -158 -355 0
-991 -158 -379 0
-991 -159 0
-991 29 0
-991 -156 169 0
-991 -157 170 0
-991 -158 171 0
-991 -266 0
-992 261 0
-992 -9 -156 -153 0
-992 -9 -157 -154 0
-992 -9 -158 -155 0
-992 14 15 0
-992 -14 -156 1485 320 0
-992 -14 -157 1485 326 0
-992 -14 -158 1485 332 0
-992 -15 -156 1485 320 0
-992 -15 -157 1485 326 0
-992 -15 -158 1485 332 0
-992 -156 -296 0
-992 -156 -344 0
-992 -156 -368 0
-992 -156 -302 0
-992 -156 -350 0
-992 -156 -374 0
-992 -156 -308 0
-992 -156 -356 0
-992 -156 -380 0
-992 -157 -302 0
-992 -157 -350 0
-992 -157 -374 0
-992 -157 -308 0
-992 -157 -356 0
-992 -157 -380 0
-992 -158 -308 0
-992 -158 -356 0
-992 -158 -380 0
-992 -159 0
-992 30 0
-992 -156 169 0
-992 -157 170 0
-992 -158 171 0
-992 -266 0
-993 261 0
-993 -10 -156 -153 0
-993 -10 -157 -154 0
-993 -10 -158 -155 0
-993 15 16 0
-993 -15 -156 1486 321 0
-993 -15 -157 1486 327 0
-993 -15 -158 1486 333 0
-993 -16 -156 1486 321 0
-993 -16 -157 1486 327 0
-993 -16 -158 1486 333 0
-993 -156 -297 0
-993 -156 -345 0
-993 -156 -369 0
-993 -156 -303 0
-993 -156 -351 0
-993 -156 -375 0
-993 -156 -309 0
-993 -156 -357 0
-993 -156 -381 0
-993 -157 -303 0
-993 -157 -351 0
-993 -157 -375 0
-993 -157 -309 0
-993 -157 -357 0
-993 -157 -381 0
-993 -158 -309 0
-993 -158 -357 0
-993 -158 -381 0
-993 -159 0
-993 31 0
-993 -156 169 0
-993 -157 170 0
-993 -158 171 0
-993 -266 0
-994 261 0
-994 -11 -156 -153 0
-994 -11 -157 -154 0
-994 -11 -158 -155 0
-994 16 17 0
-994 -16 -156 1487 322 0
-994 -16 -157 1487 328 0
-994 -16 -158 1487 334 0
-994 -17 -156 1487 322 0
-994 -17 -157 1487 328 0
-994 -17 -158 1487 334 0
-994 -156 -298 0
-994 -156 -346 0
-994 -156 -370 0
-994 -156 -304 0
-994 -156 -352 0
-994 -156 -376 0
-994 -156 -310 0
-994 -156 -358 0
-994 -156 -382 0
-994 -157 -304 0
-994 -157 -352 0
-994 -157 -376 0
-994 -157 -310 0
-994 -157 -358 0
-994 -157 -382 0
-994 -158 -310 0
-994 -158 -358 0
-994 -158 -382 0
-994 -159 0
-994 32 0
-994 -156 169 0
-994 -157 170 0
-994 -158 171 0
-994 -266 0
-995 261 0
-995 -12 -156 -153 0
-995 -12 -157 -154 0
-995 -12 -158 -155 0
-995 17 0
-995 -17 -156 1488 323 0
-995 -17 -157 1488 329 0
-995 -17 -158 1488 335 0
-995 -156 -299 0
-995 -156 -347 0
-995 -156 -371 0
-995 -156 -305 0
-995 -156 -353 0
-995 -156 -377 0
-995 -156 -311 0
-995 -156 -359 0
-995 -156 -383 0
-995 -157 -305 0
-995 -157 -353 0
-995 -157 -377 0
-995 -157 -311 0
-995 -157 -359 0
-995 -157 -383 0
-995 -158 -311 0
-995 -158 -359 0
-995 -158 -383 0
-995 -159 0
-995 33 0
-995 -156 169 0
-995 -157 170 0
-995 -158 171 0
-995 -266 0
-996 261 0
-996 -7 -160 -153 0
-996 -7 -161 -154 0
-996 -7 -162 -155 0
-996 18 0
-996 -18 -160 1489 318 0
-996 -18 -161 1489 324 0
-996 -18 -162 1489 330 0
-996 -160 -294 0
-996 -160 -342 0
-996 -160 -366 0
-996 -160 -300 0
-996 -160 -348 0
-996 -160 -372 0
-996 -160 -306 0
-996 -160 -354 0
-996 -160 -378 0
-996 -161 -300 0
-996 -161 -348 0
-996 -161 -372 0
-996 -161 -306 0
-996 -161 -354 0
-996 -161 -378 0
-996 -162 -306 0
-996 -162 -354 0
-996 -162 -378 0
-996 -163 0
-996 28 0
-996 -160 169 0
-996 -161 170 0
-996 -162 171 0
-996 -267 0
-997 261 0
-997 -8 -160 -153 0
-997 -8 -161 -154 0
-997 -8 -162 -155 0
-997 18 19 0
-997 -18 -160 1490 319 0
-997 -18 -161 1490 325 0
-997 -18 -162 1490 331 0
-997 -19 -160 1490 319 0
-997 -19 -161 1490 325 0
-997 -19 -162 1490 331 0
-997 -160 -295 0
-997 -160 -343 0
-997 -160 -367 0
-997 -160 -301 0
-997 -160 -349 0
-997 -160 -373 0
-997 -160 -307 0
-997 -160 -355 0
-997 -160 -379 0
-997 -161 -301 0
-997 -161 -349 0
-997 -161 -373 0
-997 -161 -307 0
-997 -161 -355 0
-997 -161 -379 0
-997 -162 -307 0
-997 -162 -355 0
-997 -162 -379 0
-997 -163 0
-997 29 0
-997 -160 169 0
-997 -161 170 0
-997 -162 171 0
-997 -267 0
-998 261 0
-998 -9 -160 -153 0
-998 -9 -161 -154 0
-998 -9 -162 -155 0
-998 18 19 20 0
-998 -18 -160 1491 320 0
-998 -18 -161 1491 326 0
-998 -18 -162 1491 332 0
-998 -19 -160 1491 320 0
-998 -19 -161 1491 326 0
-998 -19 -162 1491 332 0
-998 -20 -160 1491 320 0
-998 -20 -161 1491 326 0
-998 -20 -162 1491 332 0
-998 -160 -296 0
-998 -160 -344 0
-998 -160 -368 0
-998 -160 -302 0
-998 -160 -350 0
-998 -160 -374 0
-998 -160 -308 0
-998 -160 -356 0
-998 -160 -380 0
-998 -161 -302 0
-998 -161 -350 0
-998 -161 -374 0
-998 -161 -308 0
-998 -161 -356 0
-998 -161 -380 0
-998 -162 -308 0
-998 -162 -356 0
-998 -162 -380 0
-998 -163 0
-998 30 0
-998 -160 169 0
-998 -161 170 0
-998 -162 171 0
-998 -267 0
-999 261 0
-999 -10 -160 -153 0
-999 -10 -161 -154 0
-999 -10 -162 -155 0
-999 19 20 21 0
-999 -19 -160 1492 321 0
-999 -19 -161 1492 327 0
-999 -19 -162 1492 333 0
-999 -20 -160 1492 321 0
-999 -20 -161 1492 327 0
-999 -20 -162 1492 333 0
-999 -21 -160 1492 321 0
-999 -21 -161 1492 327 0
-999 -21 -162 1492 333 0
-999 -160 -297 0
-999 -160 -345 0
-999 -160 -369 0
-999 -160 -303 0
-999 -160 -351 0
-999 -160 -375 0
-999 -160 -309 0
-999 -160 -357 0
-999 -160 -381 0
-999 -161 -303 0
-999 -161 -351 0
-999 -161 -375 0
-999 -161 -309 0
-999 -161 -357 0
-999 -161 -381 0
-999 -162 -309 0
-999 -162 -357 0
-999 -162 -381 0
-999 -163 0
-999 31 0
-999 -160 169 0
-999 -161 170 0
-999 -162 171 0
-999 -267 0
-1000 261 0
-1000 -11 -160 -153 0
-1000 -11 -161 -154 0
-1000 -11 -162 -155 0
-1000 20 21 0
-1000 -20 -160 1493 322 0
-1000 -20 -161 1493 328 0
-1000 -20 -162 1493 334 0
-1000 -21 -160 1493 322 0
-1000 -21 -161 1493 328 0
-1000 -21 -162 1493 334 0
-1000 -160 -298 0
-1000 -160 -346 0
-1000 -160 -370 0
-1000 -160 -304 0
-1000 -160 -352 0
-1000 -160 -376 0
-1000 -160 -310 0
-1000 -160 -358 0
-1000 -160 -382 0
-1000 -161 -304 0
-1000 -161 -352 0
-1000 -161 -376 0
-1000 -161 -310 0
-1000 -161 -358 0
-1000 -161 -382 0
-1000 -162 -310 0
-1000 -162 -358 0
-1000 -162 -382 0
-1000 -163 0
-1000 32 0
-1000 -160 169 0
-1000 -161 170 0
-1000 -162 171 0
-1000 -267 0
-1001 261 0
-1001 -12 -160 -153 0
-1001 -12 -161 -154 0
-1001 -12 -162 -155 0
-1001 21 0
-1001 -21 -160 1494 323 0
-1001 -21 -161 1494 329 0
-1001 -21 -162 1494 335 0
-1001 -160 -299 0
-1001 -160 -347 0
-1001 -160 -371 0
-1001 -160 -305 0
-1001 -160 -353 0
-1001 -160 -377 0
-1001 -160 -311 0
-1001 -160 -359 0
-1001 -160 -383 0
-1001 -161 -305 0
-1001 -161 -353 0
-1001 -161 -377 0
-1001 -161 -311 0
-1001 -161 -359 0
-1001 -161 -383 0
-1001 -162 -311 0
-1001 -162 -359 0
-1001 -162 -383 0
-1001 -163 0
-1001 33 0
-1001 -160 169 0
-1001 -161 170 0
-1001 -162 171 0
-1001 -267 0
-1002 261 0
-1002 -7 -152 0
-1002 -288 0
-1002 -336 0
-1002 -360 0
-1002 -294 0
-1002 -342 0
-1002 -366 0
-1002 -300 0
-1002 -348 0
-1002 -372 0
-1002 -306 0
-1002 -354 0
-1002 -378 0
-1002 28 0
-1002 168 0
-1003 261 0
-1003 -8 -152 0
-1003 -289 0
-1003 -337 0
-1003 -361 0
-1003 -295 0
-1003 -343 0
-1003 -367 0
-1003 -301 0
-1003 -349 0
-1003 -373 0
-1003 -307 0
-1003 -355 0
-1003 -379 0
-1003 29 0
-1003 168 0
-1004 261 0
-1004 -9 -152 0
-1004 -290 0
-1004 -338 0
-1004 -362 0
-1004 -296 0
-1004 -344 0
-1004 -368 0
-1004 -302 0
-1004 -350 0
-1004 -374 0
-1004 -308 0
-1004 -356 0
-1004 -380 0
-1004 30 0
-1004 168 0
-1005 261 0
-1005 -10 -152 0
-1005 -291 0
-1005 -339 0
-1005 -363 0
-1005 -297 0
-1005 -345 0
-1005 -369 0
-1005 -303 0
-1005 -351 0
-1005 -375 0
-1005 -309 0
-1005 -357 0
-1005 -381 0
-1005 31 0
-1005 168 0
-1006 261 0
-1006 -11 -152 0
-1006 -292 0
-1006 -340 0
-1006 -364 0
-1006 -298 0
-1006 -346 0
-1006 -370 0
-1006 -304 0
-1006 -352 0
-1006 -376 0
-1006 -310 0
-1006 -358 0
-1006 -382 0
-1006 32 0
-1006 168 0
-1007 261 0
-1007 -12 -152 0
-1007 -293 0
-1007 -341 0
-1007 -365 0
-1007 -299 0
-1007 -347 0
-1007 -371 0
-1007 -305 0
-1007 -353 0
-1007 -377 0
-1007 -311 0
-1007 -359 0
-1007 -383 0
-1007 33 0
-1007 168 0
-1008 262 0
-1008 -13 -148 -157 0
-1008 -13 -149 -158 0
-1008 -13 -150 -159 0
-1008 1 2 0
-1008 -1 -148 1471 342 0
-1008 -1 -149 1471 348 0
-1008 -1 -150 1471 354 0
-1008 -2 -148 1472 343 0
-1008 -2 -149 1472 349 0
-1008 -2 -150 1472 355 0
-1008 -148 -294 0
-1008 -148 -318 0
-1008 -148 -366 0
-1008 -148 -300 0
-1008 -148 -324 0
-1008 -148 -372 0
-1008 -148 -306 0
-1008 -148 -330 0
-1008 -148 -378 0
-1008 -148 -295 0
-1008 -148 -319 0
-1008 -148 -367 0
-1008 -148 -301 0
-1008 -148 -325 0
-1008 -148 -373 0
-1008 -148 -307 0
-1008 -148 -331 0
-1008 -148 -379 0
-1008 -149 -300 0
-1008 -149 -324 0
-1008 -149 -372 0
-1008 -149 -306 0
-1008 -149 -330 0
-1008 -149 -378 0
-1008 -149 -301 0
-1008 -149 -325 0
-1008 -149 -373 0
-1008 -149 -307 0
-1008 -149 -331 0
-1008 -149 -379 0
-1008 -150 -306 0
-1008 -150 -330 0
-1008 -150 -378 0
-1008 -150 -307 0
-1008 -150 -331 0
-1008 -150 -379 0
-1008 -151 0
-1008 34 0
-1008 -148 173 0
-1008 -149 174 0
-1008 -150 175 0
-1008 -264 0
-1009 262 0
-1009 -14 -148 -157 0
-1009 -14 -149 -158 0
-1009 -14 -150 -159 0
-1009 2 3 0
-1009 -2 -148 1472 343 0
-1009 -2 -149 1472 349 0
-1009 -2 -150 1472 355 0
-1009 -3 -148 1473 344 0
-1009 -3 -149 1473 350 0
-1009 -3 -150 1473 356 0
-1009 -148 -295 0
-1009 -148 -319 0
-1009 -148 -367 0
-1009 -148 -301 0
-1009 -148 -325 0
-1009 -148 -373 0
-1009 -148 -307 0
-1009 -148 -331 0
-1009 -148 -379 0
-1009 -148 -296 0
-1009 -148 -320 0
-1009 -148 -368 0
-1009 -148 -302 0
-1009 -148 -326 0
-1009 -148 -374 0
-1009 -148 -308 0
-1009 -148 -332 0
-1009 -148 -380 0
-1009 -149 -301 0
-1009 -149 -325 0
-1009 -149 -373 0
-1009 -149 -307 0
-1009 -149 -331 0
-1009 -149 -379 0
-1009 -149 -302 0
-1009 -149 -326 0
-1009 -149 -374 0
-1009 -149 -308 0
-1009 -149 -332 0
-1009 -149 -380 0
-1009 -150 -307 0
-1009 -150 -331 0
-1009 -150 -379 0
-1009 -150 -308 0
-1009 -150 -332 0
-1009 -150 -380 0
-1009 -151 0
-1009 35 0
-1009 -148 173 0
-1009 -149 174 0
-1009 -150 175 0
-1009 -264 0
-1010 262 0
-1010 -15 -148 -157 0
-1010 -15 -149 -158 0
-1010 -15 -150 -159 0
-1010 3 4 0
-1010 -3 -148 1473 344 0
-1010 -3 -149 1473 350 0
-1010 -3 -150 1473 356 0
-1010 -4 -148 1474 345 0
-1010 -4 -149 1474 351 0
-1010 -4 -150 1474 357 0
-1010 -148 -296 0
-1010 -148 -320 0
-1010 -148 -368 0
-1010 -148 -302 0
-1010 -148 -326 0
-1010 -148 -374 0
-1010 -148 -308 0
-1010 -148 -332 0
-1010 -148 -380 0
-1010 -148 -297 0
-1010 -148 -321 0
-1010 -148 -369 0
-1010 -148 -303 0
-1010 -148 -327 0
-1010 -148 -375 0
-1010 -148 -309 0
-1010 -148 -333 0
-1010 -148 -381 0
-1010 -149 -302 0
-1010 -149 -326 0
-1010 -149 -374 0
-1010 -149 -308 0
-1010 -149 -332 0
-1010 -149 -380 0
-1010 -149 -303 0
-1010 -149 -327 0
-1010 -149 -375 0
-1010 -149 -309 0
-1010 -149 -333 0
-1010 -149 -381 0
-1010 -150 -308 0
-1010 -150 -332 0
-1010 -150 -380 0
-1010 -150 -309 0
-1010 -150 -333 0
-1010 -150 -381 0
-1010 -151 0
-1010 36 0
-1010 -148 173 0
-1010 -149 174 0
-1010 -150 175 0
-1010 -264 0
-1011 262 0
-1011 -16 -148 -157 0
-1011 -16 -149 -158 0
-1011 -16 -150 -159 0
-1011 4 5 0
-1011 -4 -148 1474 345 0
-1011 -4 -149 1474 351 0
-1011 -4 -150 1474 357 0
-1011 -5 -148 1475 346 0
-1011 -5 -149 1475 352 0
-1011 -5 -150 1475 358 0
-1011 -148 -297 0
-1011 -148 -321 0
-1011 -148 -369 0
-1011 -148 -303 0
-1011 -148 -327 0
-1011 -148 -375 0
-1011 -148 -309 0
-1011 -148 -333 0
-1011 -148 -381 0
-1011 -148 -298 0
-1011 -148 -322 0
-1011 -148 -370 0
-1011 -148 -304 0
-1011 -148 -328 0
-1011 -148 -376 0
-1011 -148 -310 0
-1011 -148 -334 0
-1011 -148 -382 0
-1011 -149 -303 0
-1011 -149 -327 0
-1011 -149 -375 0
-1011 -149 -309 0
-1011 -149 -333 0
-1011 -149 -381 0
-1011 -149 -304 0
-1011 -149 -328 0
-1011 -149 -376 0
-1011 -149 -310 0
-1011 -149 -334 0
-1011 -149 -382 0
-1011 -150 -309 0
-1011 -150 -333 0
-1011 -150 -381 0
-1011 -150 -310 0
-1011 -150 -334 0
-1011 -150 -382 0
-1011 -151 0
-1011 37 0
-1011 -148 173 0
-1011 -149 174 0
-1011 -150 175 0
-1011 -264 0
-1012 262 0
-1012 -17 -148 -157 0
-1012 -17 -149 -158 0
-1012 -17 -150 -159 0
-1012 5 6 0
-1012 -5 -148 1475 346 0
-1012 -5 -149 1475 352 0
-1012 -5 -150 1475 358 0
-1012 -6 -148 1476 347 0
-1012 -6 -149 1476 353 0
-1012 -6 -150 1476 359 0
-1012 -148 -298 0
-1012 -148 -322 0
-1012 -148 -370 0
-1012 -148 -304 0
-1012 -148 -328 0
-1012 -148 -376 0
-1012 -148 -310 0
-1012 -148 -334 0
-1012 -148 -382 0
-1012 -148 -299 0
-1012 -148 -323 0
-1012 -148 -371 0
-1012 -148 -305 0
-1012 -148 -329 0
-1012 -148 -377 0
-1012 -148 -311 0
-1012 -148 -335 0
-1012 -148 -383 0
-1012 -149 -304 0
-1012 -149 -328 0
-1012 -149 -376 0
-1012 -149 -310 0
-1012 -149 -334 0
-1012 -149 -382 0
-1012 -149 -305 0
-1012 -149 -329 0
-1012 -149 -377 0
-1012 -149 -311 0
-1012 -149 -335 0
-1012 -149 -383 0
-1012 -150 -310 0
-1012 -150 -334 0
-1012 -150 -382 0
-1012 -150 -311 0
-1012 -150 -335 0
-1012 -150 -383 0
-1012 -151 0
-1012 38 0
-1012 -148 173 0
-1012 -149 174 0
-1012 -150 175 0
-1012 -264 0
-1013 262 0
-1013 -13 -152 -157 0
-1013 -13 -153 -158 0
-1013 -13 -154 -159 0
-1013 7 8 0
-1013 -7 -152 1477 342 0
-1013 -7 -153 1477 348 0
-1013 -7 -154 1477 354 0
-1013 -8 -152 1478 343 0
-1013 -8 -153 1478 349 0
-1013 -8 -154 1478 355 0
-1013 -152 -294 0
-1013 -152 -318 0
-1013 -152 -366 0
-1013 -152 -300 0
-1013 -152 -324 0
-1013 -152 -372 0
-1013 -152 -306 0
-1013 -152 -330 0
-1013 -152 -378 0
-1013 -152 -295 0
-1013 -152 -319 0
-1013 -152 -367 0
-1013 -152 -301 0
-1013 -152 -325 0
-1013 -152 -373 0
-1013 -152 -307 0
-1013 -152 -331 0
-1013 -152 -379 0
-1013 -153 -300 0
-1013 -153 -324 0
-1013 -153 -372 0
-1013 -153 -306 0
-1013 -153 -330 0
-1013 -153 -378 0
-1013 -153 -301 0
-1013 -153 -325 0
-1013 -153 -373 0
-1013 -153 -307 0
-1013 -153 -331 0
-1013 -153 -379 0
-1013 -154 -306 0
-1013 -154 -330 0
-1013 -154 -378 0
-1013 -154 -307 0
-1013 -154 -331 0
-1013 -154 -379 0
-1013 -155 0
-1013 34 0
-1013 -152 173 0
-1013 -153 174 0
-1013 -154 175 0
-1013 -265 0
-1014 262 0
-1014 -14 -152 -157 0
-1014 -14 -153 -158 0
-1014 -14 -154 -159 0
-1014 8 9 0
-1014 -8 -152 1478 343 0
-1014 -8 -153 1478 349 0
-1014 -8 -154 1478 355 0
-1014 -9 -152 1479 344 0
-1014 -9 -153 1479 350 0
-1014 -9 -154 1479 356 0
-1014 -152 -295 0
-1014 -152 -319 0
-1014 -152 -367 0
-1014 -152 -301 0
-1014 -152 -325 0
-1014 -152 -373 0
-1014 -152 -307 0
-1014 -152 -331 0
-1014 -152 -379 0
-1014 -152 -296 0
-1014 -152 -320 0
-1014 -152 -368 0
-1014 -152 -302 0
-1014 -152 -326 0
-1014 -152 -374 0
-1014 -152 -308 0
-1014 -152 -332 0
-1014 -152 -380 0
-1014 -153 -301 0
-1014 -153 -325 0
-1014 -153 -373 0
-1014 -153 -307 0
-1014 -153 -331 0
-1014 -153 -379 0
-1014 -153 -302 0
-1014 -153 -326 0
-1014 -153 -374 0
-1014 -153 -308 0
-1014 -153 -332 0
-1014 -153 -380 0
-1014 -154 -307 0
-1014 -154 -331 0
-1014 -154 -379 0
-1014 -154 -308 0
-1014 -154 -332 0
-1014 -154 -380 0
-1014 -155 0
-1014 35 0
-1014 -152 173 0
-1014 -153 174 0
-1014 -154 175 0
-1014 -265 0
-1015 262 0
-1015 -15 -152 -157 0
-1015 -15 -153 -158 0
-1015 -15 -154 -159 0
-1015 9 10 0
-1015 -9 -152 1479 344 0
-1015 -9 -153 1479 350 0
-1015 -9 -154 1479 356 0
-1015 -10 -152 1480 345 0
-1015 -10 -153 1480 351 0
-1015 -10 -154 1480 357 0
-1015 -152 -296 0
-1015 -152 -320 0
-1015 -152 -368 0
-1015 -152 -302 0
-1015 -152 -326 0
-1015 -152 -374 0
-1015 -152 -308 0
-1015 -152 -332 0
-1015 -152 -380 0
-1015 -152 -297 0
-1015 -152 -321 0
-1015 -152 -369 0
-1015 -152 -303 0
-1015 -152 -327 0
-1015 -152 -375 0
-1015 -152 -309 0
-1015 -152 -333 0
-1015 -152 -381 0
-1015 -153 -302 0
-1015 -153 -326 0
-1015 -153 -374 0
-1015 -153 -308 0
-1015 -153 -332 0
-1015 -153 -380 0
-1015 -153 -303 0
-1015 -153 -327 0
-1015 -153 -375 0
-1015 -153 -309 0
-1015 -153 -333 0
-1015 -153 -381 0
-1015 -154 -308 0
-1015 -154 -332 0
-1015 -154 -380 0
-1015 -154 -309 0
-1015 -154 -333 0
-1015 -154 -381 0
-1015 -155 0
-1015 36 0
-1015 -152 173 0
-1015 -153 174 0
-1015 -154 175 0
-1015 -265 0
-1016 262 0
-1016 -16 -152 -157 0
-1016 -16 -153 -158 0
-1016 -16 -154 -159 0
-1016 10 11 0
-1016 -10 -152 1480 345 0
-1016 -10 -153 1480 351 0
-1016 -10 -154 1480 357 0
-1016 -11 -152 1481 346 0
-1016 -11 -153 1481 352 0
-1016 -11 -154 1481 358 0
-1016 -152 -297 0
-1016 -152 -321 0
-1016 -152 -369 0
-1016 -152 -303 0
-1016 -152 -327 0
-1016 -152 -375 0
-1016 -152 -309 0
-1016 -152 -333 0
-1016 -152 -381 0
-1016 -152 -298 0
-1016 -152 -322 0
-1016 -152 -370 0
-1016 -152 -304 0
-1016 -152 -328 0
-1016 -152 -376 0
-1016 -152 -310 0
-1016 -152 -334 0
-1016 -152 -382 0
-1016 -153 -303 0
-1016 -153 -327 0
-1016 -153 -375 0
-1016 -153 -309 0
-1016 -153 -333 0
-1016 -153 -381 0
-1016 -153 -304 0
-1016 -153 -328 0
-1016 -153 -376 0
-1016 -153 -310 0
-1016 -153 -334 0
-1016 -153 -382 0
-1016 -154 -309 0
-1016 -154 -333 0
-1016 -154 -381 0
-1016 -154 -310 0
-1016 -154 -334 0
-1016 -154 -382 0
-1016 -155 0
-1016 37 0
-1016 -152 173 0
-1016 -153 174 0
-1016 -154 175 0
-1016 -265 0
-1017 262 0
-1017 -17 -152 -157 0
-1017 -17 -153 -158 0
-1017 -17 -154 -159 0
-1017 11 12 0
-1017 -11 -152 1481 346 0
-1017 -11 -153 1481 352 0
-1017 -11 -154 1481 358 0
-1017 -12 -152 1482 347 0
-1017 -12 -153 1482 353 0
-1017 -12 -154 1482 359 0
-1017 -152 -298 0
-1017 -152 -322 0
-1017 -152 -370 0
-1017 -152 -304 0
-1017 -152 -328 0
-1017 -152 -376 0
-1017 -152 -310 0
-1017 -152 -334 0
-1017 -152 -382 0
-1017 -152 -299 0
-1017 -152 -323 0
-1017 -152 -371 0
-1017 -152 -305 0
-1017 -152 -329 0
-1017 -152 -377 0
-1017 -152 -311 0
-1017 -152 -335 0
-1017 -152 -383 0
-1017 -153 -304 0
-1017 -153 -328 0
-1017 -153 -376 0
-1017 -153 -310 0
-1017 -153 -334 0
-1017 -153 -382 0
-1017 -153 -305 0
-1017 -153 -329 0
-1017 -153 -377 0
-1017 -153 -311 0
-1017 -153 -335 0
-1017 -153 -383 0
-1017 -154 -310 0
-1017 -154 -334 0
-1017 -154 -382 0
-1017 -154 -311 0
-1017 -154 -335 0
-1017 -154 -383 0
-1017 -155 0
-1017 38 0
-1017 -152 173 0
-1017 -153 174 0
-1017 -154 175 0
-1017 -265 0
-1018 262 0
-1018 -13 -160 -157 0
-1018 -13 -161 -158 0
-1018 -13 -162 -159 0
-1018 18 19 0
-1018 -18 -160 1489 342 0
-1018 -18 -161 1489 348 0
-1018 -18 -162 1489 354 0
-1018 -18 -160 1490 343 0
-1018 -18 -161 1490 349 0
-1018 -18 -162 1490 355 0
-1018 -19 -160 1490 343 0
-1018 -19 -161 1490 349 0
-1018 -19 -162 1490 355 0
-1018 -160 -294 0
-1018 -160 -318 0
-1018 -160 -366 0
-1018 -160 -300 0
-1018 -160 -324 0
-1018 -160 -372 0
-1018 -160 -306 0
-1018 -160 -330 0
-1018 -160 -378 0
-1018 -160 -295 0
-1018 -160 -319 0
-1018 -160 -367 0
-1018 -160 -301 0
-1018 -160 -325 0
-1018 -160 -373 0
-1018 -160 -307 0
-1018 -160 -331 0
-1018 -160 -379 0
-1018 -161 -300 0
-1018 -161 -324 0
-1018 -161 -372 0
-1018 -161 -306 0
-1018 -161 -330 0
-1018 -161 -378 0
-1018 -161 -301 0
-1018 -161 -325 0
-1018 -161 -373 0
-1018 -161 -307 0
-1018 -161 -331 0
-1018 -161 -379 0
-1018 -162 -306 0
-1018 -162 -330 0
-1018 -162 -378 0
-1018 -162 -307 0
-1018 -162 -331 0
-1018 -162 -379 0
-1018 -163 0
-1018 34 0
-1018 -160 173 0
-1018 -161 174 0
-1018 -162 175 0
-1018 -267 0
-1019 262 0
-1019 -14 -160 -157 0
-1019 -14 -161 -158 0
-1019 -14 -162 -159 0
-1019 18 19 20 0
-1019 -18 -160 1490 343 0
-1019 -18 -161 1490 349 0
-1019 -18 -162 1490 355 0
-1019 -18 -160 1491 344 0
-1019 -18 -161 1491 350 0
-1019 -18 -162 1491 356 0
-1019 -19 -160 1490 343 0
-1019 -19 -161 1490 349 0
-1019 -19 -162 1490 355 0
-1019 -19 -160 1491 344 0
-1019 -19 -161 1491 350 0
-1019 -19 -162 1491 356 0
-1019 -20 -160 1491 344 0
-1019 -20 -161 1491 350 0
-1019 -20 -162 1491 356 0
-1019 -160 -295 0
-1019 -160 -319 0
-1019 -160 -367 0
-1019 -160 -301 0
-1019 -160 -325 0
-1019 -160 -373 0
-1019 -160 -307 0
-1019 -160 -331 0
-1019 -160 -379 0
-1019 -160 -296 0
-1019 -160 -320 0
-1019 -160 -368 0
-1019 -160 -302 0
-1019 -160 -326 0
-1019 -160 -374 0
-1019 -160 -308 0
-1019 -160 -332 0
-1019 -160 -380 0
-1019 -161 -301 0
-1019 -161 -325 0
-1019 -161 -373 0
-1019 -161 -307 0
-1019 -161 -331 0
-1019 -161 -379 0
-1019 -161 -302 0
-1019 -161 -326 0
-1019 -161 -374 0
-1019 -161 -308 0
-1019 -161 -332 0
-1019 -161 -380 0
-1019 -162 -307 0
-1019 -162 -331 0
-1019 -162 -379 0
-1019 -162 -308 0
-1019 -162 -332 0
-1019 -162 -380 0
-1019 -163 0
-1019 35 0
-1019 -160 173 0
-1019 -161 174 0
-1019 -162 175 0
-1019 -267 0
-1020 262 0
-1020 -15 -160 -157 0
-1020 -15 -161 -158 0
-1020 -15 -162 -159 0
-1020 18 19 20 21 0
-1020 -18 -160 1491 344 0
-1020 -18 -161 1491 350 0
-1020 -18 -162 1491 356 0
-1020 -19 -160 1491 344 0
-1020 -19 -161 1491 350 0
-1020 -19 -162 1491 356 0
-1020 -19 -160 1492 345 0
-1020 -19 -161 1492 351 0
-1020 -19 -162 1492 357 0
-1020 -20 -160 1491 344 0
-1020 -20 -161 1491 350 0
-1020 -20 -162 1491 356 0
-1020 -20 -160 1492 345 0
-1020 -20 -161 1492 351 0
-1020 -20 -162 1492 357 0
-1020 -21 -160 1492 345 0
-1020 -21 -161 1492 351 0
-1020 -21 -162 1492 357 0
-1020 -160 -296 0
-1020 -160 -320 0
-1020 -160 -368 0
-1020 -160 -302 0
-1020 -160 -326 0
-1020 -160 -374 0
-1020 -160 -308 0
-1020 -160 -332 0
-1020 -160 -380 0
-1020 -160 -297 0
-1020 -160 -321 0
-1020 -160 -369 0
-1020 -160 -303 0
-1020 -160 -327 0
-1020 -160 -375 0
-1020 -160 -309 0
-1020 -160 -333 0
-1020 -160 -381 0
-1020 -161 -302 0
-1020 -161 -326 0
-1020 -161 -374 0
-1020 -161 -308 0
-1020 -161 -332 0
-1020 -161 -380 0
-1020 -161 -303 0
-1020 -161 -327 0
-1020 -161 -375 0
-1020 -161 -309 0
-1020 -161 -333 0
-1020 -161 -381 0
-1020 -162 -308 0
-1020 -162 -332 0
-1020 -162 -380 0
-1020 -162 -309 0
-1020 -162 -333 0
-1020 -162 -381 0
-1020 -163 0
-1020 36 0
-1020 -160 173 0
-1020 -161 174 0
-1020 -162 175 0
-1020 -267 0
-1021 262 0
-1021 -16 -160 -157 0
-1021 -16 -161 -158 0
-1021 -16 -162 -159 0
-1021 19 20 21 0
-1021 -19 -160 1492 345 0
-1021 -19 -161 1492 351 0
-1021 -19 -162 1492 357 0
-1021 -20 -160 1492 345 0
-1021 -20 -161 1492 351 0
-1021 -20 -162 1492 357 0
-1021 -20 -160 1493 346 0
-1021 -20 -161 1493 352 0
-1021 -20 -162 1493 358 0
-1021 -21 -160 1492 345 0
-1021 -21 -161 1492 351 0
-1021 -21 -162 1492 357 0
-1021 -21 -160 1493 346 0
-1021 -21 -161 1493 352 0
-1021 -21 -162 1493 358 0
-1021 -160 -297 0
-1021 -160 -321 0
-1021 -160 -369 0
-1021 -160 -303 0
-1021 -160 -327 0
-1021 -160 -375 0
-1021 -160 -309 0
-1021 -160 -333 0
-1021 -160 -381 0
-1021 -160 -298 0
-1021 -160 -322 0
-1021 -160 -370 0
-1021 -160 -304 0
-1021 -160 -328 0
-1021 -160 -376 0
-1021 -160 -310 0
-1021 -160 -334 0
-1021 -160 -382 0
-1021 -161 -303 0
-1021 -161 -327 0
-1021 -161 -375 0
-1021 -161 -309 0
-1021 -161 -333 0
-1021 -161 -381 0
-1021 -161 -304 0
-1021 -161 -328 0
-1021 -161 -376 0
-1021 -161 -310 0
-1021 -161 -334 0
-1021 -161 -382 0
-1021 -162 -309 0
-1021 -162 -333 0
-1021 -162 -381 0
-1021 -162 -310 0
-1021 -162 -334 0
-1021 -162 -382 0
-1021 -163 0
-1021 37 0
-1021 -160 173 0
-1021 -161 174 0
-1021 -162 175 0
-1021 -267 0
-1022 262 0
-1022 -17 -160 -157 0
-1022 -17 -161 -158 0
-1022 -17 -162 -159 0
-1022 20 21 0
-1022 -20 -160 1493 346 0
-1022 -20 -161 1493 352 0
-1022 -20 -162 1493 358 0
-1022 -21 -160 1493 346 0
-1022 -21 -161 1493 352 0
-1022 -21 -162 1493 358 0
-1022 -21 -160 1494 347 0
-1022 -21 -161 1494 353 0
-1022 -21 -162 1494 359 0
-1022 -160 -298 0
-1022 -160 -322 0
-1022 -160 -370 0
-1022 -160 -304 0
-1022 -160 -328 0
-1022 -160 -376 0
-1022 -160 -310 0
-1022 -160 -334 0
-1022 -160 -382 0
-1022 -160 -299 0
-1022 -160 -323 0
-1022 -160 -371 0
-1022 -160 -305 0
-1022 -160 -329 0
-1022 -160 -377 0
-1022 -160 -311 0
-1022 -160 -335 0
-1022 -160 -383 0
-1022 -161 -304 0
-1022 -161 -328 0
-1022 -161 -376 0
-1022 -161 -310 0
-1022 -161 -334 0
-1022 -161 -382 0
-1022 -161 -305 0
-1022 -161 -329 0
-1022 -161 -377 0
-1022 -161 -311 0
-1022 -161 -335 0
-1022 -161 -383 0
-1022 -162 -310 0
-1022 -162 -334 0
-1022 -162 -382 0
-1022 -162 -311 0
-1022 -162 -335 0
-1022 -162 -383 0
-1022 -163 0
-1022 38 0
-1022 -160 173 0
-1022 -161 174 0
-1022 -162 175 0
-1022 -267 0
-1023 262 0
-1023 -13 -156 0
-1023 -288 0
-1023 -312 0
-1023 -360 0
-1023 -294 0
-1023 -318 0
-1023 -366 0
-1023 -300 0
-1023 -324 0
-1023 -372 0
-1023 -306 0
-1023 -330 0
-1023 -378 0
-1023 -289 0
-1023 -313 0
-1023 -361 0
-1023 -295 0
-1023 -319 0
-1023 -367 0
-1023 -301 0
-1023 -325 0
-1023 -373 0
-1023 -307 0
-1023 -331 0
-1023 -379 0
-1023 34 0
-1023 172 0
-1024 262 0
-1024 -14 -156 0
-1024 -289 0
-1024 -313 0
-1024 -361 0
-1024 -295 0
-1024 -319 0
-1024 -367 0
-1024 -301 0
-1024 -325 0
-1024 -373 0
-1024 -307 0
-1024 -331 0
-1024 -379 0
-1024 -290 0
-1024 -314 0
-1024 -362 0
-1024 -296 0
-1024 -320 0
-1024 -368 0
-1024 -302 0
-1024 -326 0
-1024 -374 0
-1024 -308 0
-1024 -332 0
-1024 -380 0
-1024 35 0
-1024 172 0
-1025 262 0
-1025 -15 -156 0
-1025 -290 0
-1025 -314 0
-1025 -362 0
-1025 -296 0
-1025 -320 0
-1025 -368 0
-1025 -302 0
-1025 -326 0
-1025 -374 0
-1025 -308 0
-1025 -332 0
-1025 -380 0
-1025 -291 0
-1025 -315 0
-1025 -363 0
-1025 -297 0
-1025 -321 0
-1025 -369 0
-1025 -303 0
-1025 -327 0
-1025 -375 0
-1025 -309 0
-1025 -333 0
-1025 -381 0
-1025 36 0
-1025 172 0
-1026 262 0
-1026 -16 -156 0
-1026 -291 0
-1026 -315 0
-1026 -363 0
-1026 -297 0
-1026 -321 0
-1026 -369 0
-1026 -303 0
-1026 -327 0
-1026 -375 0
-1026 -309 0
-1026 -333 0
-1026 -381 0
-1026 -292 0
-1026 -316 0
-1026 -364 0
-1026 -298 0
-1026 -322 0
-1026 -370 0
-1026 -304 0
-1026 -328 0
-1026 -376 0
-1026 -310 0
-1026 -334 0
-1026 -382 0
-1026 37 0
-1026 172 0
-1027 262 0
-1027 -17 -156 0
-1027 -292 0
-1027 -316 0
-1027 -364 0
-1027 -298 0
-1027 -322 0
-1027 -370 0
-1027 -304 0
-1027 -328 0
-1027 -376 0
-1027 -310 0
-1027 -334 0
-1027 -382 0
-1027 -293 0
-1027 -317 0
-1027 -365 0
-1027 -299 0
-1027 -323 0
-1027 -371 0
-1027 -305 0
-1027 -329 0
-1027 -377 0
-1027 -311 0
-1027 -335 0
-1027 -383 0
-1027 38 0
-1027 172 0
-1028 263 0
-1028 -18 -148 -161 0
-1028 -18 -149 -162 0
-1028 -18 -150 -163 0
-1028 1 2 3 0
-1028 -1 -148 1471 366 0
-1028 -1 -149 1471 372 0
-1028 -1 -150 1471 378 0
-1028 -2 -148 1472 367 0
-1028 -2 -149 1472 373 0
-1028 -2 -150 1472 379 0
-1028 -3 -148 1473 368 0
-1028 -3 -149 1473 374 0
-1028 -3 -150 1473 380 0
-1028 -148 -294 0
-1028 -148 -318 0
-1028 -148 -342 0
-1028 -148 -300 0
-1028 -148 -324 0
-1028 -148 -348 0
-1028 -148 -306 0
-1028 -148 -330 0
-1028 -148 -354 0
-1028 -148 -295 0
-1028 -148 -319 0
-1028 -148 -343 0
-1028 -148 -301 0
-1028 -148 -325 0
-1028 -148 -349 0
-1028 -148 -307 0
-1028 -148 -331 0
-1028 -148 -355 0
-1028 -148 -296 0
-1028 -148 -320 0
-1028 -148 -344 0
-1028 -148 -302 0
-1028 -148 -326 0
-1028 -148 -350 0
-1028 -148 -308 0
-1028 -148 -332 0
-1028 -148 -356 0
-1028 -149 -300 0
-1028 -149 -324 0
-1028 -149 -348 0
-1028 -149 -306 0
-1028 -149 -330 0
-1028 -149 -354 0
-1028 -149 -301 0
-1028 -149 -325 0
-1028 -149 -349 0
-1028 -149 -307 0
-1028 -149 -331 0
-1028 -149 -355 0
-1028 -149 -302 0
-1028 -149 -326 0
-1028 -149 -350 0
-1028 -149 -308 0
-1028 -149 -332 0
-1028 -149 -356 0
-1028 -150 -306 0
-1028 -150 -330 0
-1028 -150 -354 0
-1028 -150 -307 0
-1028 -150 -331 0
-1028 -150 -355 0
-1028 -150 -308 0
-1028 -150 -332 0
-1028 -150 -356 0
-1028 -151 0
-1028 39 0
-1028 -148 177 0
-1028 -149 178 0
-1028 -150 179 0
-1028 -264 0
-1029 263 0
-1029 -19 -148 -161 0
-1029 -19 -149 -162 0
-1029 -19 -150 -163 0
-1029 2 3 4 0
-1029 -2 -148 1472 367 0
-1029 -2 -149 1472 373 0
-1029 -2 -150 1472 379 0
-1029 -3 -148 1473 368 0
-1029 -3 -149 1473 374 0
-1029 -3 -150 1473 380 0
-1029 -4 -148 1474 369 0
-1029 -4 -149 1474 375 0
-1029 -4 -150 1474 381 0
-1029 -148 -295 0
-1029 -148 -319 0
-1029 -148 -343 0
-1029 -148 -301 0
-1029 -148 -325 0
-1029 -148 -349 0
-1029 -148 -307 0
-1029 -148 -331 0
-1029 -148 -355 0
-1029 -148 -296 0
-1029 -148 -320 0
-1029 -148 -344 0
-1029 -148 -302 0
-1029 -148 -326 0
-1029 -148 -350 0
-1029 -148 -308 0
-1029 -148 -332 0
-1029 -148 -356 0
-1029 -148 -297 0
-1029 -148 -321 0
-1029 -148 -345 0
-1029 -148 -303 0
-1029 -148 -327 0
-1029 -148 -351 0
-1029 -148 -309 0
-1029 -148 -333 0
-1029 -148 -357 0
-1029 -149 -301 0
-1029 -149 -325 0
-1029 -149 -349 0
-1029 -149 -307 0
-1029 -149 -331 0
-1029 -149 -355 0
-1029 -149 -302 0
-1029 -149 -326 0
-1029 -149 -350 0
-1029 -149 -308 0
-1029 -149 -332 0
-1029 -149 -356 0
-1029 -149 -303 0
-1029 -149 -327 0
-1029 -149 -351 0
-1029 -149 -309 0
-1029 -149 -333 0
-1029 -149 -357 0
-1029 -150 -307 0
-1029 -150 -331 0
-1029 -150 -355 0
-1029 -150 -308 0
-1029 -150 -332 0
-1029 -150 -356 0
-1029 -150 -309 0
-1029 -150 -333 0
-1029 -150 -357 0
-1029 -151 0
-1029 40 0
-1029 -148 177 0
-1029 -149 178 0
-1029 -150 179 0
-1029 -264 0
-1030 263 0
-1030 -20 -148 -161 0
-1030 -20 -149 -162 0
-1030 -20 -150 -163 0
-1030 3 4 5 0
-1030 -3 -148 1473 368 0
-1030 -3 -149 1473 374 0
-1030 -3 -150 1473 380 0
-1030 -4 -148 1474 369 0
-1030 -4 -149 1474 375 0
-1030 -4 -150 1474 381 0
-1030 -5 -148 1475 370 0
-1030 -5 -149 1475 376 0
-1030 -5 -150 1475 382 0
-1030 -148 -296 0
-1030 -148 -320 0
-1030 -148 -344 0
-1030 -148 -302 0
-1030 -148 -326 0
-1030 -148 -350 0
-1030 -148 -308 0
-1030 -148 -332 0
-1030 -148 -356 0
-1030 -148 -297 0
-1030 -148 -321 0
-1030 -148 -345 0
-1030 -148 -303 0
-1030 -148 -327 0
-1030 -148 -351 0
-1030 -148 -309 0
-1030 -148 -333 0
-1030 -148 -357 0
-1030 -148 -298 0
-1030 -148 -322 0
-1030 -148 -346 0
-1030 -148 -304 0
-1030 -148 -328 0
-1030 -148 -352 0
-1030 -148 -310 0
-1030 -148 -334 0
-1030 -148 -358 0
-1030 -149 -302 0
-1030 -149 -326 0
-1030 -149 -350 0
-1030 -149 -308 0
-1030 -149 -332 0
-1030 -149 -356 0
-1030 -149 -303 0
-1030 -149 -327 0
-1030 -149 -351 0
-1030 -149 -309 0
-1030 -149 -333 0
-1030 -149 -357 0
-1030 -149 -304 0
-1030 -149 -328 0
-1030 -149 -352 0
-1030 -149 -310 0
-1030 -149 -334 0
-1030 -149 -358 0
-1030 -150 -308 0
-1030 -150 -332 0
-1030 -150 -356 0
-1030 -150 -309 0
-1030 -150 -333 0
-1030 -150 -357 0
-1030 -150 -310 0
-1030 -150 -334 0
-1030 -150 -358 0
-1030 -151 0
-1030 41 0
-1030 -148 177 0
-1030 -149 178 0
-1030 -150 179 0
-1030 -264 0
-1031 263 0
-1031 -21 -148 -161 0
-1031 -21 -149 -162 0
-1031 -21 -150 -163 0
-1031 4 5 6 0
-1031 -4 -148 1474 369 0
-1031 -4 -149 1474 375 0
-1031 -4 -150 1474 381 0
-1031 -5 -148 1475 370 0
-1031 -5 -149 1475 376 0
-1031 -5 -150 1475 382 0
-1031 -6 -148 1476 371 0
-1031 -6 -149 1476 377 0
-1031 -6 -150 1476 383 0
-1031 -148 -297 0
-1031 -148 -321 0
-1031 -148 -345 0
-1031 -148 -303 0
-1031 -148 -327 0
-1031 -148 -351 0
-1031 -148 -309 0
-1031 -148 -333 0
-1031 -148 -357 0
-1031 -148 -298 0
-1031 -148 -322 0
-1031 -148 -346 0
-1031 -148 -304 0
-1031 -148 -328 0
-1031 -148 -352 0
-1031 -148 -310 0
-1031 -148 -334 0
-1031 -148 -358 0
-1031 -148 -299 0
-1031 -148 -323 0
-1031 -148 -347 0
-1031 -148 -305 0
-1031 -148 -329 0
-1031 -148 -353 0
-1031 -148 -311 0
-1031 -148 -335 0
-1031 -148 -359 0
-1031 -149 -303 0
-1031 -149 -327 0
-1031 -149 -351 0
-1031 -149 -309 0
-1031 -149 -333 0
-1031 -149 -357 0
-1031 -149 -304 0
-1031 -149 -328 0
-1031 -149 -352 0
-1031 -149 -310 0
-1031 -149 -334 0
-1031 -149 -358 0
-1031 -149 -305 0
-1031 -149 -329 0
-1031 -149 -353 0
-1031 -149 -311 0
-1031 -149 -335 0
-1031 -149 -359 0
-1031 -150 -309 0
-1031 -150 -333 0
-1031 -150 -357 0
-1031 -150 -310 0
-1031 -150 -334 0
-1031 -150 -358 0
-1031 -150 -311 0
-1031 -150 -335 0
-1031 -150 -359 0
-1031 -151 0
-1031 42 0
-1031 -148 177 0
-1031 -149 178 0
-1031 -150 179 0
-1031 -264 0
-1032 263 0
-1032 -18 -152 -161 0
-1032 -18 -153 -162 0
-1032 -18 -154 -163 0
-1032 7 8 9 0
-1032 -7 -152 1477 366 0
-1032 -7 -153 1477 372 0
-1032 -7 -154 1477 378 0
-1032 -8 -152 1478 367 0
-1032 -8 -153 1478 373 0
-1032 -8 -154 1478 379 0
-1032 -9 -152 1479 368 0
-1032 -9 -153 1479 374 0
-1032 -9 -154 1479 380 0
-1032 -152 -294 0
-1032 -152 -318 0
-1032 -152 -342 0
-1032 -152 -300 0
-1032 -152 -324 0
-1032 -152 -348 0
-1032 -152 -306 0
-1032 -152 -330 0
-1032 -152 -354 0
-1032 -152 -295 0
-1032 -152 -319 0
-1032 -152 -343 0
-1032 -152 -301 0
-1032 -152 -325 0
-1032 -152 -349 0
-1032 -152 -307 0
-1032 -152 -331 0
-1032 -152 -355 0
-1032 -152 -296 0
-1032 -152 -320 0
-1032 -152 -344 0
-1032 -152 -302 0
-1032 -152 -326 0
-1032 -152 -350 0
-1032 -152 -308 0
-1032 -152 -332 0
-1032 -152 -356 0
-1032 -153 -300 0
-1032 -153 -324 0
-1032 -153 -348 0
-1032 -153 -306 0
-1032 -153 -330 0
-1032 -153 -354 0
-1032 -153 -301 0
-1032 -153 -325 0
-1032 -153 -349 0
-1032 -153 -307 0
-1032 -153 -331 0
-1032 -153 -355 0
-1032 -153 -302 0
-1032 -153 -326 0
-1032 -153 -350 0
-1032 -153 -308 0
-1032 -153 -332 0
-1032 -153 -356 0
-1032 -154 -306 0
-1032 -154 -330 0
-1032 -154 -354 0
-1032 -154 -307 0
-1032 -154 -331 0
-1032 -154 -355 0
-1032 -154 -308 0
-1032 -154 -332 0
-1032 -154 -356 0
-1032 -155 0
-1032 39 0
-1032 -152 177 0
-1032 -153 178 0
-1032 -154 179 0
-1032 -265 0
-1033 263 0
-1033 -19 -152 -161 0
-1033 -19 -153 -162 0
-1033 -19 -154 -163 0
-1033 8 9 10 0
-1033 -8 -152 1478 367 0
-1033 -8 -153 1478 373 0
-1033 -8 -154 1478 379 0
-1033 -9 -152 1479 368 0
-1033 -9 -153 1479 374 0
-1033 -9 -154 1479 380 0
-1033 -10 -152 1480 369 0
-1033 -10 -153 1480 375 0
-1033 -10 -154 1480 381 0
-1033 -152 -295 0
-1033 -152 -319 0
-1033 -152 -343 0
-1033 -152 -301 0
-1033 -152 -325 0
-1033 -152 -349 0
-1033 -152 -307 0
-1033 -152 -331 0
-1033 -152 -355 0
-1033 -152 -296 0
-1033 -152 -320 0
-1033 -152 -344 0
-1033 -152 -302 0
-1033 -152 -326 0
-1033 -152 -350 0
-1033 -152 -308 0
-1033 -152 -332 0
-1033 -152 -356 0
-1033 -152 -297 0
-1033 -152 -321 0
-1033 -152 -345 0
-1033 -152 -303 0
-1033 -152 -327 0
-1033 -152 -351 0
-1033 -152 -309 0
-1033 -152 -333 0
-1033 -152 -357 0
-1033 -153 -301 0
-1033 -153 -325 0
-1033 -153 -349 0
-1033 -153 -307 0
-1033 -153 -331 0
-1033 -153 -355 0
-1033 -153 -302 0
-1033 -153 -326 0
-1033 -153 -350 0
-1033 -153 -308 0
-1033 -153 -332 0
-1033 -153 -356 0
-1033 -153 -303 0
-1033 -153 -327 0
-1033 -153 -351 0
-1033 -153 -309 0
-1033 -153 -333 0
-1033 -153 -357 0
-1033 -154 -307 0
-1033 -154 -331 0
-1033 -154 -355 0
-1033 -154 -308 0
-1033 -154 -332 0
-1033 -154 -356 0
-1033 -154 -309 0
-1033 -154 -333 0
-1033 -154 -357 0
-1033 -155 0
-1033 40 0
-1033 -152 177 0
-1033 -153 178 0
-1033 -154 179 0
-1033 -265 0
-1034 263 0
-1034 -20 -152 -161 0
-1034 -20 -153 -162 0
-1034 -20 -154 -163 0
-1034 9 10 11 0
-1034 -9 -152 1479 368 0
-1034 -9 -153 1479 374 0
-1034 -9 -154 1479 380 0
-1034 -10 -152 1480 369 0
-1034 -10 -153 1480 375 0
-1034 -10 -154 1480 381 0
-1034 -11 -152 1481 370 0
-1034 -11 -153 1481 376 0
-1034 -11 -154 1481 382 0
-1034 -152 -296 0
-1034 -152 -320 0
-1034 -152 -344 0
-1034 -152 -302 0
-1034 -152 -326 0
-1034 -152 -350 0
-1034 -152 -308 0
-1034 -152 -332 0
-1034 -152 -356 0
-1034 -152 -297 0
-1034 -152 -321 0
-1034 -152 -345 0
-1034 -152 -303 0
-1034 -152 -327 0
-1034 -152 -351 0
-1034 -152 -309 0
-1034 -152 -333 0
-1034 -152 -357 0
-1034 -152 -298 0
-1034 -152 -322 0
-1034 -152 -346 0
-1034 -152 -304 0
-1034 -152 -328 0
-1034 -152 -352 0
-1034 -152 -310 0
-1034 -152 -334 0
-1034 -152 -358 0
-1034 -153 -302 0
-1034 -153 -326 0
-1034 -153 -350 0
-1034 -153 -308 0
-1034 -153 -332 0
-1034 -153 -356 0
-1034 -153 -303 0
-1034 -153 -327 0
-1034 -153 -351 0
-1034 -153 -309 0
-1034 -153 -333 0
-1034 -153 -357 0
-1034 -153 -304 0
-1034 -153 -328 0
-1034 -153 -352 0
-1034 -153 -310 0
-1034 -153 -334 0
-1034 -153 -358 0
-1034 -154 -308 0
-1034 -154 -332 0
-1034 -154 -356 0
-1034 -154 -309 0
-1034 -154 -333 0
-1034 -154 -357 0
-1034 -154 -310 0
-1034 -154 -334 0
-1034 -154 -358 0
-1034 -155 0
-1034 41 0
-1034 -152 177 0
-1034 -153 178 0
-1034 -154 179 0
-1034 -265 0
-1035 263 0
-1035 -21 -152 -161 0
-1035 -21 -153 -162 0
-1035 -21 -154 -163 0
-1035 10 11 12 0
-1035 -10 -152 1480 369 0
-1035 -10 -153 1480 375 0
-1035 -10 -154 1480 381 0
-1035 -11 -152 1481 370 0
-1035 -11 -153 1481 376 0
-1035 -11 -154 1481 382 0
-1035 -12 -152 1482 371 0
-1035 -12 -153 1482 377 0
-1035 -12 -154 1482 383 0
-1035 -152 -297 0
-1035 -152 -321 0
-1035 -152 -345 0
-1035 -152 -303 0
-1035 -152 -327 0
-1035 -152 -351 0
-1035 -152 -309 0
-1035 -152 -333 0
-1035 -152 -357 0
-1035 -152 -298 0
-1035 -152 -322 0
-1035 -152 -346 0
-1035 -152 -304 0
-1035 -152 -328 0
-1035 -152 -352 0
-1035 -152 -310 0
-1035 -152 -334 0
-1035 -152 -358 0
-1035 -152 -299 0
-1035 -152 -323 0
-1035 -152 -347 0
-1035 -152 -305 0
-1035 -152 -329 0
-1035 -152 -353 0
-1035 -152 -311 0
-1035 -152 -335 0
-1035 -152 -359 0
-1035 -153 -303 0
-1035 -153 -327 0
-1035 -153 -351 0
-1035 -153 -309 0
-1035 -153 -333 0
-1035 -153 -357 0
-1035 -153 -304 0
-1035 -153 -328 0
-1035 -153 -352 0
-1035 -153 -310 0
-1035 -153 -334 0
-1035 -153 -358 0
-1035 -153 -305 0
-1035 -153 -329 0
-1035 -153 -353 0
-1035 -153 -311 0
-1035 -153 -335 0
-1035 -153 -359 0
-1035 -154 -309 0
-1035 -154 -333 0
-1035 -154 -357 0
-1035 -154 -310 0
-1035 -154 -334 0
-1035 -154 -358 0
-1035 -154 -311 0
-1035 -154 -335 0
-1035 -154 -359 0
-1035 -155 0
-1035 42 0
-1035 -152 177 0
-1035 -153 178 0
-1035 -154 179 0
-1035 -265 0
-1036 263 0
-1036 -18 -156 -161 0
-1036 -18 -157 -162 0
-1036 -18 -158 -163 0
-1036 13 14 15 0
-1036 -13 -156 1483 366 0
-1036 -13 -157 1483 372 0
-1036 -13 -158 1483 378 0
-1036 -13 -156 1484 367 0
-1036 -13 -157 1484 373 0
-1036 -13 -158 1484 379 0
-1036 -14 -156 1484 367 0
-1036 -14 -157 1484 373 0
-1036 -14 -158 1484 379 0
-1036 -14 -156 1485 368 0
-1036 -14 -157 1485 374 0
-1036 -14 -158 1485 380 0
-1036 -15 -156 1485 368 0
-1036 -15 -157 1485 374 0
-1036 -15 -158 1485 380 0
-1036 -156 -294 0
-1036 -156 -318 0
-1036 -156 -342 0
-1036 -156 -300 0
-1036 -156 -324 0
-1036 -156 -348 0
-1036 -156 -306 0
-1036 -156 -330 0
-1036 -156 -354 0
-1036 -156 -295 0
-1036 -156 -319 0
-1036 -156 -343 0
-1036 -156 -301 0
-1036 -156 -325 0
-1036 -156 -349 0
-1036 -156 -307 0
-1036 -156 -331 0
-1036 -156 -355 0
-1036 -156 -296 0
-1036 -156 -320 0
-1036 -156 -344 0
-1036 -156 -302 0
-1036 -156 -326 0
-1036 -156 -350 0
-1036 -156 -308 0
-1036 -156 -332 0
-1036 -156 -356 0
-1036 -157 -300 0
-1036 -157 -324 0
-1036 -157 -348 0
-1036 -157 -306 0
-1036 -157 -330 0
-1036 -157 -354 0
-1036 -157 -301 0
-1036 -157 -325 0
-1036 -157 -349 0
-1036 -157 -307 0
-1036 -157 -331 0
-1036 -157 -355 0
-1036 -157 -302 0
-1036 -157 -326 0
-1036 -157 -350 0
-1036 -157 -308 0
-1036 -157 -332 0
-1036 -157 -356 0
-1036 -158 -306 0
-1036 -158 -330 0
-1036 -158 -354 0
-1036 -158 -307 0
-1036 -158 -331 0
-1036 -158 -355 0
-1036 -158 -308 0
-1036 -158 -332 0
-1036 -158 -356 0
-1036 -159 0
-1036 39 0
-1036 -156 177 0
-1036 -157 178 0
-1036 -158 179 0
-1036 -266 0
-1037 263 0
-1037 -19 -156 -161 0
-1037 -19 -157 -162 0
-1037 -19 -158 -163 0
-1037 13 14 15 16 0
-1037 -13 -156 1484 367 0
-1037 -13 -157 1484 373 0
-1037 -13 -158 1484 379 0
-1037 -14 -156 1484 367 0
-1037 -14 -157 1484 373 0
-1037 -14 -158 1484 379 0
-1037 -14 -156 1485 368 0
-1037 -14 -157 1485 374 0
-1037 -14 -158 1485 380 0
-1037 -15 -156 1485 368 0
-1037 -15 -157 1485 374 0
-1037 -15 -158 1485 380 0
-1037 -15 -156 1486 369 0
-1037 -15 -157 1486 375 0
-1037 -15 -158 1486 381 0
-1037 -16 -156 1486 369 0
-1037 -16 -157 1486 375 0
-1037 -16 -158 1486 381 0
-1037 -156 -295 0
-1037 -156 -319 0
-1037 -156 -343 0
-1037 -156 -301 0
-1037 -156 -325 0
-1037 -156 -349 0
-1037 -156 -307 0
-1037 -156 -331 0
-1037 -156 -355 0
-1037 -156 -296 0
-1037 -156 -320 0
-1037 -156 -344 0
-1037 -156 -302 0
-1037 -156 -326 0
-1037 -156 -350 0
-1037 -156 -308 0
-1037 -156 -332 0
-1037 -156 -356 0
-1037 -156 -297 0
-1037 -156 -321 0
-1037 -156 -345 0
-1037 -156 -303 0
-1037 -156 -327 0
-1037 -156 -351 0
-1037 -156 -309 0
-1037 -156 -333 0
-1037 -156 -357 0
-1037 -157 -301 0
-1037 -157 -325 0
-1037 -157 -349 0
-1037 -157 -307 0
-1037 -157 -331 0
-1037 -157 -355 0
-1037 -157 -302 0
-1037 -157 -326 0
-1037 -157 -350 0
-1037 -157 -308 0
-1037 -157 -332 0
-1037 -157 -356 0
-1037 -157 -303 0
-1037 -157 -327 0
-1037 -157 -351 0
-1037 -157 -309 0
-1037 -157 -333 0
-1037 -157 -357 0
-1037 -158 -307 0
-1037 -158 -331 0
-1037 -158 -355 0
-1037 -158 -308 0
-1037 -158 -332 0
-1037 -158 -356 0
-1037 -158 -309 0
-1037 -158 -333 0
-1037 -158 -357 0
-1037 -159 0
-1037 40 0
-1037 -156 177 0
-1037 -157 178 0
-1037 -158 179 0
-1037 -266 0
-1038 263 0
-1038 -20 -156 -161 0
-1038 -20 -157 -162 0
-1038 -20 -158 -163 0
-1038 14 15 16 17 0
-1038 -14 -156 1485 368 0
-1038 -14 -157 1485 374 0
-1038 -14 -158 1485 380 0
-1038 -15 -156 1485 368 0
-1038 -15 -157 1485 374 0
-1038 -15 -158 1485 380 0
-1038 -15 -156 1486 369 0
-1038 -15 -157 1486 375 0
-1038 -15 -158 1486 381 0
-1038 -16 -156 1486 369 0
-1038 -16 -157 1486 375 0
-1038 -16 -158 1486 381 0
-1038 -16 -156 1487 370 0
-1038 -16 -157 1487 376 0
-1038 -16 -158 1487 382 0
-1038 -17 -156 1487 370 0
-1038 -17 -157 1487 376 0
-1038 -17 -158 1487 382 0
-1038 -156 -296 0
-1038 -156 -320 0
-1038 -156 -344 0
-1038 -156 -302 0
-1038 -156 -326 0
-1038 -156 -350 0
-1038 -156 -308 0
-1038 -156 -332 0
-1038 -156 -356 0
-1038 -156 -297 0
-1038 -156 -321 0
-1038 -156 -345 0
-1038 -156 -303 0
-1038 -156 -327 0
-1038 -156 -351 0
-1038 -156 -309 0
-1038 -156 -333 0
-1038 -156 -357 0
-1038 -156 -298 0
-1038 -156 -322 0
-1038 -156 -346 0
-1038 -156 -304 0
-1038 -156 -328 0
-1038 -156 -352 0
-1038 -156 -310 0
-1038 -156 -334 0
-1038 -156 -358 0
-1038 -157 -302 0
-1038 -157 -326 0
-1038 -157 -350 0
-1038 -157 -308 0
-1038 -157 -332 0
-1038 -157 -356 0
-1038 -157 -303 0
-1038 -157 -327 0
-1038 -157 -351 0
-1038 -157 -309 0
-1038 -157 -333 0
-1038 -157 -357 0
-1038 -157 -304 0
-1038 -157 -328 0
-1038 -157 -352 0
-1038 -157 -310 0
-1038 -157 -334 0
-1038 -157 -358 0
-1038 -158 -308 0
-1038 -158 -332 0
-1038 -158 -356 0
-1038 -158 -309 0
-1038 -158 -333 0
-1038 -158 -357 0
-1038 -158 -310 0
-1038 -158 -334 0
-1038 -158 -358 0
-1038 -159 0
-1038 41 0
-1038 -156 177 0
-1038 -157 178 0
-1038 -158 179 0
-1038 -266 0
-1039 263 0
-1039 -21 -156 -161 0
-1039 -21 -157 -162 0
-1039 -21 -158 -163 0
-1039 15 16 17 0
-1039 -15 -156 1486 369 0
-1039 -15 -157 1486 375 0
-1039 -15 -158 1486 381 0
-1039 -16 -156 1486 369 0
-1039 -16 -157 1486 375 0
-1039 -16 -158 1486 381 0
-1039 -16 -156 1487 370 0
-1039 -16 -157 1487 376 0
-1039 -16 -158 1487 382 0
-1039 -17 -156 1487 370 0
-1039 -17 -157 1487 376 0
-1039 -17 -158 1487 382 0
-1039 -17 -156 1488 371 0
-1039 -17 -157 1488 377 0
-1039 -17 -158 1488 383 0
-1039 -156 -297 0
-1039 -156 -321 0
-1039 -156 -345 0
-1039 -156 -303 0
-1039 -156 -327 0
-1039 -156 -351 0
-1039 -156 -309 0
-1039 -156 -333 0
-1039 -156 -357 0
-1039 -156 -298 0
-1039 -156 -322 0
-1039 -156 -346 0
-1039 -156 -304 0
-1039 -156 -328 0
-1039 -156 -352 0
-1039 -156 -310 0
-1039 -156 -334 0
-1039 -156 -358 0
-1039 -156 -299 0
-1039 -156 -323 0
-1039 -156 -347 0
-1039 -156 -305 0
-1039 -156 -329 0
-1039 -156 -353 0
-1039 -156 -311 0
-1039 -156 -335 0
-1039 -156 -359 0
-1039 -157 -303 0
-1039 -157 -327 0
-1039 -157 -351 0
-1039 -157 -309 0
-1039 -157 -333 0
-1039 -157 -357 0
-1039 -157 -304 0
-1039 -157 -328 0
-1039 -157 -352 0
-1039 -157 -310 0
-1039 -157 -334 0
-1039 -157 -358 0
-1039 -157 -305 0
-1039 -157 -329 0
-1039 -157 -353 0
-1039 -157 -311 0
-1039 -157 -335 0
-1039 -157 -359 0
-1039 -158 -309 0
-1039 -158 -333 0
-1039 -158 -357 0
-1039 -158 -310 0
-1039 -158 -334 0
-1039 -158 -358 0
-1039 -158 -311 0
-1039 -158 -335 0
-1039 -158 -359 0
-1039 -159 0
-1039 42 0
-1039 -156 177 0
-1039 -157 178 0
-1039 -158 179 0
-1039 -266 0
-1040 263 0
-1040 -18 -160 0
-1040 -288 0
-1040 -312 0
-1040 -336 0
-1040 -294 0
-1040 -318 0
-1040 -342 0
-1040 -300 0
-1040 -324 0
-1040 -348 0
-1040 -306 0
-1040 -330 0
-1040 -354 0
-1040 -289 0
-1040 -313 0
-1040 -337 0
-1040 -295 0
-1040 -319 0
-1040 -343 0
-1040 -301 0
-1040 -325 0
-1040 -349 0
-1040 -307 0
-1040 -331 0
-1040 -355 0
-1040 -290 0
-1040 -314 0
-1040 -338 0
-1040 -296 0
-1040 -320 0
-1040 -344 0
-1040 -302 0
-1040 -326 0
-1040 -350 0
-1040 -308 0
-1040 -332 0
-1040 -356 0
-1040 39 0
-1040 176 0
-1041 263 0
-1041 -19 -160 0
-1041 -289 0
-1041 -313 0
-1041 -337 0
-1041 -295 0
-1041 -319 0
-1041 -343 0
-1041 -301 0
-1041 -325 0
-1041 -349 0
-1041 -307 0
-1041 -331 0
-1041 -355 0
-1041 -290 0
-1041 -314 0
-1041 -338 0
-1041 -296 0
-1041 -320 0
-1041 -344 0
-1041 -302 0
-1041 -326 0
-1041 -350 0
-1041 -308 0
-1041 -332 0
-1041 -356 0
-1041 -291 0
-1041 -315 0
-1041 -339 0
-1041 -297 0
-1041 -321 0
-1041 -345 0
-1041 -303 0
-1041 -327 0
-1041 -351 0
-1041 -309 0
-1041 -333 0
-1041 -357 0
-1041 40 0
-1041 176 0
-1042 263 0
-1042 -20 -160 0
-1042 -290 0
-1042 -314 0
-1042 -338 0
-1042 -296 0
-1042 -320 0
-1042 -344 0
-1042 -302 0
-1042 -326 0
-1042 -350 0
-1042 -308 0
-1042 -332 0
-1042 -356 0
-1042 -291 0
-1042 -315 0
-1042 -339 0
-1042 -297 0
-1042 -321 0
-1042 -345 0
-1042 -303 0
-1042 -327 0
-1042 -351 0
-1042 -309 0
-1042 -333 0
-1042 -357 0
-1042 -292 0
-1042 -316 0
-1042 -340 0
-1042 -298 0
-1042 -322 0
-1042 -346 0
-1042 -304 0
-1042 -328 0
-1042 -352 0
-1042 -310 0
-1042 -334 0
-1042 -358 0
-1042 41 0
-1042 176 0
-1043 263 0
-1043 -21 -160 0
-1043 -291 0
-1043 -315 0
-1043 -339 0
-1043 -297 0
-1043 -321 0
-1043 -345 0
-1043 -303 0
-1043 -327 0
-1043 -351 0
-1043 -309 0
-1043 -333 0
-1043 -357 0
-1043 -292 0
-1043 -316 0
-1043 -340 0
-1043 -298 0
-1043 -322 0
-1043 -346 0
-1043 -304 0
-1043 -328 0
-1043 -352 0
-1043 -310 0
-1043 -334 0
-1043 -358 0
-1043 -293 0
-1043 -317 0
-1043 -341 0
-1043 -299 0
-1043 -323 0
-1043 -347 0
-1043 -305 0
-1043 -329 0
-1043 -353 0
-1043 -311 0
-1043 -335 0
-1043 -359 0
-1043 42 0
-1043 176 0
1 -22 960 961 962 963 964 965 966 967 968 969 970 971 972 973 974 975 976 977 978 979 980 981 982 983 0
-1 22 960 961 962 963 964 965 966 967 968 969 970 971 972 973 974 975 976 977 978 979 980 981 982 983 0
2 -23 960 961 962 963 964 965 966 967 968 969 970 971 972 973 974 975 976 977 978 979 980 981 982 983 0
-2 23 960 961 962 963 964 965 966 967 968 969 970 971 972 973 974 975 976 977 978 979 980 981 982 983 0
3 -24 960 961 962 963 964 965 966 967 968 969 970 971 972 973 974 975 976 977 978 979 980 981 982 983 0
-3 24 960 961 962 963 964 965 966 967 968 969 970 971 972 973 974 975 976 977 978 979 980 981 982 983 0
4 -25 960 961 962 963 964 965 966 967 968 969 970 971 972 973 974 975 976 977 978 979 980 981 982 983 0
-4 25 960 961 962 963 964 965 966 967 968 969 970 971 972 973 974 975 976 977 978 979 980 981 982 983 0
5 -26 960 961 962 963 964 965 966 967 968 969 970 971 972 973 974 975 976 977 978 979 980 981 982 983 0
-5 26 960 961 962 963 964 965 966 967 968 969 970 971 972 973 974 975 976 977 978 979 980 981 982 983 0
6 -27 960 961 962 963 964 965 966 967 968 969 970 971 972 973 974 975 976 977 978 979 980 981 982 983 0
-6 27 960 961 962 963 964 965 966 967 968 969 970 971 972 973 974 975 976 977 978 979 980 981 982 983 0
148 -164 960 961 962 963 964 965 966 967 968 969 970 971 972 973 974 975 976 977 978 979 980 981 982 983 0
-148 164 960 961 962 963 964 965 966 967 968 969 970 971 972 973 974 975 976 977 978 979 980 981 982 983 0
149 -165 960 961 962 963 964 965 966 967 968 969 970 971 972 973 974 975 976 977 978 979 980 981 982 983 0
-149 165 960 961 962 963 964 965 966 967 968 969 970 971 972 973 974 975 976 977 978 979 980 981 982 983 0
150 -166 960 961 962 963 964 965 966 967 968 969 970 971 972 973 974 975 976 977 978 979 980 981 982 983 0
-150 166 960 961 962 963 964 965 966 967 968 969 970 971 972 973 974 975 976 977 978 979 980 981 982 983 0
151 -167 960 961 962 963 964 965 966 967 968 969 970 971 972 973 974 975 976 977 978 979 980 981 982 983 0
-151 167 960 961 962 963 964 965 966 967 968 969 970 971 972 973 974 975 976 977 978 979 980 981 982 983 0
7 -28 984 985 986 987 988 989 990 991 992 993 994 995 996 997 998 999 1000 1001 1002 1003 1004 1005 1006 1007 0
-7 28 984 985 986 987 988 989 990 991 992 993 994 995 996 997 998 999 1000 1001 1002 1003 1004 1005 1006 1007 0
8 -29 984 985 986 987 988 989 990 991 992 993 994 995 996 997 998 999 1000 1001 1002 1003 1004 1005 1006 1007 0
-8 29 984 985 986 987 988 989 990 991 992 993 994 995 996 997 998 999 1000 1001 1002 1003 1004 1005 1006 1007 0
9 -30 984 985 986 987 988 989 990 991 992 993 994 995 996 997 998 999 1000 1001 1002 1003 1004 1005 1006 1007 0
-9 30 984 985 986 987 988 989 990 991 992 993 994 995 996 997 998 999 1000 1001 1002 1003 1004 1005 1006 1007 0
10 -31 984 985 986 987 988 989 990 991 992 993 994 995 996 997 998 999 1000 1001 1002 1003 1004 1005 1006 1007 0
-10 31 984 985 986 987 988 989 990 991 992 993 994 995 996 997 998 999 1000 1001 1002 1003 1004 1005 1006 1007 0
11 -32 984 985 986 987 988 989 990 991 992 993 994 995 996 997 998 999 1000 1001 1002 1003 1004 1005 1006 1007 0
-11 32 984 985 986 987 988 989 990 991 992 993 994 995 996 997 998 999 1000 1001 1002 1003 1004 1005 1006 1007 0
12 -33 984 985 986 987 988 989 990 991 992 993 994 995 996 997 998 999 1000 1001 1002 1003 1004 1005 1006 1007 0
-12 33 984 985 986 987 988 989 990 991 992 993 994 995 996 997 998 999 1000 1001 1002 1003 1004 1005 1006 1007 0
152 -168 984 985 986 987 988 989 990 991 992 993 994 995 996 997 998 999 1000 1001 1002 1003 1004 1005 1006 1007 0
-152 168 984 985 986 987 988 989 990 991 992 993 994 995 996 997 998 999 1000 1001 1002 1003 1004 1005 1006 1007 0
153 -169 984 985 986 987 988 989 990 991 992 993 994 995 996 997 998 999 1000 1001 1002 1003 1004 1005 1006 1007 0
-153 169 984 985 986 987 988 989 990 991 992 993 994 995 996 997 998 999 1000 1001 1002 1003 1004 1005 1006 1007 0
154 -170 984 985 986 987 988 989 990 991 992 993 994 995 996 997 998 999 1000 1001 1002 1003 1004 1005 1006 1007 0
-154 170 984 985 986 987 988 989 990 991 992 993 994 995 996 997 998 999 1000 1001 1002 1003 1004 1005 1006 1007 0
155 -171 984 985 986 987 988 989 990 991 992 993 994 995 996 997 998 999 1000 1001 1002 1003 1004 1005 1006 1007 0
-155 171 984 985 986 987 988 989 990 991 992 993 994 995 996 997 998 999 1000 1001 1002 1003 1004 1005 1006 1007 0
13 -34 1008 1009 1010 1011 1012 1013 1014 1015 1016 1017 1018 1019 1020 1021 1022 1023 1024 1025 1026 1027 0
-13 34 1008 1009 1010 1011 1012 1013 1014 1015 1016 1017 1018 1019 1020 1021 1022 1023 1024 1025 1026 1027 0
14 -35 1008 1009 1010 1011 1012 1013 1014 1015 1016 1017 1018 1019 1020 1021 1022 1023 1024 1025 1026 1027 0
-14 35 1008 1009 1010 1011 1012 1013 1014 1015 1016 1017 1018 1019 1020 1021 1022 1023 1024 1025 1026 1027 0
15 -36 1008 1009 1010 1011 1012 1013 1014 1015 1016 1017 1018 1019 1020 1021 1022 1023 1024 1025 1026 1027 0
-15 36 1008 1009 1010 1011 1012 1013 1014 1015 1016 1017 1018 1019 1020 1021 1022 1023 1024 1025 1026 1027 0
16 -37 1008 1009 1010 1011 1012 1013 1014 1015 1016 1017 1018 1019 1020 1021 1022 1023 1024 1025 1026 1027 0
-16 37 1008 1009 1010 1011 1012 1013 1014 1015 1016 1017 1018 1019 1020 1021 1022 1023 1024 1025 1026 1027 0
17 -38 1008 1009 1010 1011 1012 1013 1014 1015 1016 1017 1018 1019 1020 1021 1022 1023 1024 1025 1026 1027 0
-17 38 1008 1009 1010 1011 1012 1013 1014 1015 1016 1017 1018 1019 1020 1021 1022 1023 1024 1025 1026 1027 0
156 -172 1008 1009 1010 1011 1012 1013 1014 1015 1016 1017 1018 1019 1020 1021 1022 1023 1024 1025 1026 1027 0
-156 172 1008 1009 1010 1011 1012 1013 1014 1015 1016 1017 1018 1019 1020 1021 1022 1023 1024 1025 1026 1027 0
157 -173 1008 1009 1010 1011 1012 1013 1014 1015 1016 1017 1018 1019 1020 1021 1022 1023 1024 1025 1026 1027 0
-157 173 1008 1009 1010 1011 1012 1013 1014 1015 1016 1017 1018 1019 1020 1021 1022 1023 1024 1025 1026 1027 0
158 -174 1008 1009 1010 1011 1012 1013 1014 1015 1016 1017 1018 1019 1020 1021 1022 1023 1024 1025 1026 1027 0
-158 174 1008 1009 1010 1011 1012 1013 1014 1015 1016 1017 1018 1019 1020 1021 1022 1023 1024 1025 1026 1027 0
159 -175 1008 1009 1010 1011 1012 1013 1014 1015 1016 1017 1018 1019 1020 1021 1022 1023 1024 1025 1026 1027 0
-159 175 1008 1009 1010 1011 1012 1013 1014 1015 1016 1017 1018 1019 1020 1021 1022 1023 1024 1025 1026 1027 0
18 -39 1028 1029 1030 1031 1032 1033 1034 1035 1036 1037 1038 1039 1040 1041 1042 1043 0
-18 39 1028 1029 1030 1031 1032 1033 1034 1035 1036 1037 1038 1039 1040 1041 1042 1043 0
19 -40 1028 1029 1030 1031 1032 1033 1034 1035 1036 1037 1038 1039 1040 1041 1042 1043 0
-19 40 1028 1029 1030 1031 1032 1033 1034 1035 1036 1037 1038 1039 1040 1041 1042 1043 0
20 -41 1028 1029 1030 1031 1032 1033 1034 1035 1036 1037 1038 1039 1040 1041 1042 1043 0
-20 41 1028 1029 1030 1031 1032 1033 1034 1035 1036 1037 1038 1039 1040 1041 1042 1043 0
21 -42 1028 1029 1030 1031 1032 1033 1034 1035 1036 1037 1038 1039 1040 1041 1042 1043 0
-21 42 1028 1029 1030 1031 1032 1033 1034 1035 1036 1037 1038 1039 1040 1041 1042 1043 0
160 -176 1028 1029 1030 1031 1032 1033 1034 1035 1036 1037 1038 1039 1040 1041 1042 1043 0
-160 176 1028 1029 1030 1031 1032 1033 1034 1035 1036 1037 1038 1039 1040 1041 1042 1043 0
161 -177 1028 1029 1030 1031 1032 1033 1034 1035 1036 1037 1038 1039 1040 1041 1042 1043 0
-161 177 1028 1029 1030 1031 1032 1033 1034 1035 1036 1037 1038 1039 1040 1041 1042 1043 0
162 -178 1028 1029 1030 1031 1032 1033 1034 1035 1036 1037 1038 1039 1040 1041 1042 1043 0
-162 178 1028 1029 1030 1031 1032 1033 1034 1035 1036 1037 1038 1039 1040 1041 1042 1043 0
163 -179 1028 1029 1030 1031 1032 1033 1034 1035 1036 1037 1038 1039 1040 1041 1042 1043 0
-163 179 1028 1029 1030 1031 1032 1033 1034 1035 1036 1037 1038 1039 1040 1041 1042 1043 0
960 961 962 963 964 965 966 967 968 969 970 971 972 973 974 975 976 977 978 979 980 981 982 983 984 985 986 987 988 989 990 991 992 993 994 995 996 997 998 999 1000 1001 1002 1003 1004 1005 1006 1007 1008 1009 1010 1011 1012 1013 1014 1015 1016 1017 1018 1019 1020 1021 1022 1023 1024 1025 1026 1027 1028 1029 1030 1031 1032 1033 1034 1035 1036 1037 1038 1039 1040 1041 1042 1043 0
-960 -961 0
-960 -962 0
-960 -963 0
-960 -964 0
-960 -965 0
-960 -966 0
-960 -967 0
-960 -968 0
-960 -969 0
-960 -970 0
-960 -971 0
-960 -972 0
-960 -973 0
-960 -974 0
-960 -975 0
-960 -976 0
-960 -977 0
-960 -978 0
-960 -979 0
-960 -980 0
-960 -981 0
-960 -982 0
-960 -983 0
-960 -984 0
-960 -985 0
-960 -986 0
-960 -987 0
-960 -988 0
-960 -989 0
-960 -990 0
-960 -991 0
-960 -992 0
-960 -993 0
-960 -994 0
-960 -995 0
-960 -996 0
-960 -997 0
-960 -998 0
-960 -999 0
-960 -1000 0
-960 -1001 0
-960 -1002 0
-960 -1003 0
-960 -1004 0
-960 -1005 0
-960 -1006 0
-960 -1007 0
-960 -1008 0
-960 -1009 0
-960 -1010 0
-960 -1011 0
-960 -1012 0
-960 -1013 0
-960 -1014 0
-960 -1015 0
-960 -1016 0
-960 -1017 0
-960 -1018 0
-960 -1019 0
-960 -1020 0
-960 -1021 0
-960 -1022 0
-960 -1023 0
-960 -1024 0
-960 -1025 0
-960 -1026 0
-960 -1027 0
-960 -1028 0
-960 -1029 0
-960 -1030 0
-960 -1031 0
-960 -1032 0
-960 -1033 0
-960 -1034 0
-960 -1035 0
-960 -1036 0
-960 -1037 0
-960 -1038 0
-960 -1039 0
-960 -1040 0
-960 -1041 0
-960 -1042 0
-960 -1043 0
-961 -962 0
-961 -963 0
-961 -964 0
-961 -965 0
-961 -966 0
-961 -967 0
-961 -968 0
-961 -969 0
-961 -970 0
-961 -971 0
-961 -972 0
-961 -973 0
-961 -974 0
-961 -975 0
-961 -976 0
-961 -977 0
-961 -978 0
-961 -979 0
-961 -980 0
-961 -981 0
-961 -982 0
-961 -983 0
-961 -984 0
-961 -985 0
-961 -986 0
-961 -987 0
-961 -988 0
-961 -989 0
-961 -990 0
-961 -991 0
-961 -992 0
-961 -993 0
-961 -994 0
-961 -995 0
-961 -996 0
-961 -997 0
-961 -998 0
-961 -999 0
-961 -1000 0
-961 -1001 0
-961 -1002 0
-961 -1003 0
-961 -1004 0
-961 -1005 0
-961 -1006 0
-961 -1007 0
-961 -1008 0
-961 -1009 0
-961 -1010 0
-961 -1011 0
-961 -1012 0
-961 -1013 0
-961 -1014 0
-961 -1015 0
-961 -1016 0
-961 -1017 0
-961 -1018 0
-961 -1019 0
-961 -1020 0
-961 -1021 0
-961 -1022 0
-961 -1023 0
-961 -1024 0
-961 -1025 0
-961 -1026 0
-961 -1027 0
-961 -1028 0
-961 -1029 0
-961 -1030 0
-961 -1031 0
-961 -1032 0
-961 -1033 0
-961 -1034 0
-961 -1035 0
-961 -1036 0
-961 -1037 0
-961 -1038 0
-961 -1039 0
-961 -1040 0
-961 -1041 0
-961 -1042 0
-961 -1043 0
-962 -963 0
-962 -964 0
-962 -965 0
-962 -966 0
-962 -967 0
-962 -968 0
-962 -969 0
-962 -970 0
-962 -971 0
-962 -972 0
-962 -973 0
-962 -974 0
-962 -975 0
-962 -976 0
-962 -977 0
-962 -978 0
-962 -979 0
-962 -980 0
-962 -981 0
-962 -982 0
-962 -983 0
-962 -984 0
-962 -985 0
-962 -986 0
-962 -987 0
-962 -988 0
-962 -989 0
-962 -990 0
-962 -991 0
-962 -992 0
-962 -993 0
-962 -994 0
-962 -995 0
-962 -996 0
-962 -997 0
-962 -998 0
-962 -999 0
-962 -1000 0
-962 -1001 0
-962 -1002 0
-962 -1003 0
-962 -1004 0
-962 -1005 0
-962 -1006 0
-962 -1007 0
-962 -1008 0
-962 -1009 0
-962 -1010 0
-962 -1011 0
-962 -1012 0
-962 -1013 0
-962 -1014 0
-962 -1015 0
-962 -1016 0
-962 -1017 0
-962 -1018 0
-962 -1019 0
-962 -1020 0
-962 -1021 0
-962 -1022 0
-962 -1023 0
-962 -1024 0
-962 -1025 0
-962 -1026 0
-962 -1027 0
-962 -1028 0
-962 -1029 0
-962 -1030 0
-962 -1031 0
-962 -1032 0
-962 -1033 0
-962 -1034 0
-962 -1035 0
-962 -1036 0
-962 -1037 0
-962 -1038 0
-962 -1039 0
-962 -1040 0
-962 -1041 0
-962 -1042 0
-962 -1043 0
-963 -964 0
-963 -965 0
-963 -966 0
-963 -967 0
-963 -968 0
-963 -969 0
-963 -970 0
-963 -971 0
-963 -972 0
-963 -973 0
-963 -974 0
-963 -975 0
-963 -976 0
-963 -977 0
-963 -978 0
-963 -979 0
-963 -980 0
-963 -981 0
-963 -982 0
-963 -983 0
-963 -984 0
-963 -985 0
-963 -986 0
-963 -987 0
-963 -988 0
-963 -989 0
-963 -990 0
-963 -991 0
-963 -992 0
-963 -993 0
-963 -994 0
-963 -995 0
-963 -996 0
-963 -997 0
-963 -998 0
-963 -999 0
-963 -1000 0
-963 -1001 0
-963 -1002 0
-963 -1003 0
-963 -1004 0
-963 -1005 0
-963 -1006 0
-963 -1007 0
-963 -1008 0
-963 -1009 0
-963 -1010 0
-963 -1011 0
-963 -1012 0
-963 -1013 0
-963 -1014 0
-963 -1015 0
-963 -1016 0
-963 -1017 0
-963 -1018 0
-963 -1019 0
-963 -1020 0
-963 -1021 0
-963 -1022 0
-963 -1023 0
-963 -1024 0
-963 -1025 0
-963 -1026 0
-963 -1027 0
-963 -1028 0
-963 -1029 0
-963 -1030 0
-963 -1031 0
-963 -1032 0
-963 -1033 0
-963 -1034 0
-963 -1035 0
-963 -1036 0
-963 -1037 0
-963 -1038 0
-963 -1039 0
-963 -1040 0
-963 -1041 0
-963 -1042 0
-963 -1043 0
-964 -965 0
-964 -966 0
-964 -967 0
-964 -968 0
-964 -969 0
-964 -970 0
-964 -971 0
-964 -972 0
-964 -973 0
-964 -974 0
-964 -975 0
-964 -976 0
-964 -977 0
-964 -978 0
-964 -979 0
-964 -980 0
-964 -981 0
-964 -982 0
-964 -983 0
-964 -984 0
-964 -985 0
-964 -986 0
-964 -987 0
-964 -988 0
-964 -989 0
-964 -990 0
-964 -991 0
-964 -992 0
-964 -993 0
-964 -994 0
-964 -995 0
-964 -996 0
-964 -997 0
-964 -998 0
-964 -999 0
-964 -1000 0
-964 -1001 0
-964 -1002 0
-964 -1003 0
-964 -1004 0
-964 -1005 0
-964 -1006 0
-964 -1007 0
-964 -1008 0
-964 -1009 0
-964 -1010 0
-964 -1011 0
-964 -1012 0
-964 -1013 0
-964 -1014 0
-964 -1015 0
-964 -1016 0
-964 -1017 0
-964 -1018 0
-964 -1019 0
-964 -1020 0
-964 -1021 0
-964 -1022 0
-964 -1023 0
-964 -1024 0
-964 -1025 0
-964 -1026 0
-964 -1027 0
-964 -1028 0
-964 -1029 0
-964 -1030 0
-964 -1031 0
-964 -1032 0
-964 -1033 0
-964 -1034 0
-964 -1035 0
-964 -1036 0
-964 -1037 0
-964 -1038 0
-964 -1039 0
-964 -1040 0
-964 -1041 0
-964 -1042 0
-964 -1043 0
-965 -966 0
-965 -967 0
-965 -968 0
-965 -969 0
-965 -970 0
-965 -971 0
-965 -972 0
-965 -973 0
-965 -974 0
-965 -975 0
-965 -976 0
-965 -977 0
-965 -978 0
-965 -979 0
-965 -980 0
-965 -981 0
-965 -982 0
-965 -983 0
-965 -984 0
-965 -985 0
-965 -986 0
-965 -987 0
-965 -988 0
-965 -989 0
-965 -990 0
-965 -991 0
-965 -992 0
-965 -993 0
-965 -994 0
-965 -995 0
-965 -996 0
-965 -997 0
-965 -998 0
-965 -999 0
-965 -1000 0
-965 -1001 0
-965 -1002 0
-965 -1003 0
-965 -1004 0
-965 -1005 0
-965 -1006 0
-965 -1007 0
-965 -1008 0
-965 -1009 0
-965 -1010 0
-965 -1011 0
-965 -1012 0
-965 -1013 0
-965 -1014 0
-965 -1015 0
-965 -1016 0
-965 -1017 0
-965 -1018 0
-965 -1019 0
-965 -1020 0
-965 -1021 0
-965 -1022 0
-965 -1023 0
-965 -1024 0
-965 -1025 0
-965 -1026 0
-965 -1027 0
-965 -1028 0
-965 -1029 0
-965 -1030 0
-965 -1031 0
-965 -1032 0
-965 -1033 0
-965 -1034 0
-965 -1035 0
-965 -1036 0
-965 -1037 0
-965 -1038 0
-965 -1039 0
-965 -1040 0
-965 -1041 0
-965 -1042 0
-965 -1043 0
-966 -967 0
-966 -968 0
-966 -969 0
-966 -970 0
-966 -971 0
-966 -972 0
-966 -973 0
-966 -974 0
-966 -975 0
-966 -976 0
-966 -977 0
-966 -978 0
-966 -979 0
-966 -980 0
-966 -981 0
-966 -982 0
-966 -983 0
-966 -984 0
-966 -985 0
-966 -986 0
-966 -987 0
-966 -988 0
-966 -989 0
-966 -990 0
-966 -991 0
-966 -992 0
-966 -993 0
-966 -994 0
-966 -995 0
-966 -996 0
-966 -997 0
-966 -998 0
-966 -999 0
-966 -1000 0
-966 -1001 0
-966 -1002 0
-966 -1003 0
-966 -1004 0
-966 -1005 0
-966 -1006 0
-966 -1007 0
-966 -1008 0
-966 -1009 0
-966 -1010 0
-966 -1011 0
-966 -1012 0
-966 -1013 0
-966 -1014 0
-966 -1015 0
-966 -1016 0
-966 -1017 0
-966 -1018 0
-966 -1019 0
-966 -1020 0
-966 -1021 0
-966 -1022 0
-966 -1023 0
-966 -1024 0
-966 -1025 0
-966 -1026 0
-966 -1027 0
-966 -1028 0
-966 -1029 0
-966 -1030 0
-966 -1031 0
-966 -1032 0
-966 -1033 0
-966 -1034 0
-966 -1035 0
-966 -1036 0
-966 -1037 0
-966 -1038 0
-966 -1039 0
-966 -1040 0
-966 -1041 0
-966 -1042 0
-966 -1043 0
-967 -968 0
-967 -969 0
-967 -970 0
-967 -971 0
-967 -972 0
-967 -973 0
-967 -974 0
-967 -975 0
-967 -976 0
-967 -977 0
-967 -978 0
-967 -979 0
-967 -980 0
-967 -981 0
-967 -982 0
-967 -983 0
-967 -984 0
-967 -985 0
-967 -986 0
-967 -987 0
-967 -988 0
-967 -989 0
-967 -990 0
-967 -991 0
-967 -992 0
-967 -993 0
-967 -994 0
-967 -995 0
-967 -996 0
-967 -997 0
-967 -998 0
-967 -999 0
-967 -1000 0
-967 -1001 0
-967 -1002 0
-967 -1003 0
-967 -1004 0
-967 -1005 0
-967 -1006 0
-967 -1007 0
-967 -1008 0
-967 -1009 0
-967 -1010 0
-967 -1011 0
-967 -1012 0
-967 -1013 0
-967 -1014 0
-967 -1015 0
-967 -1016 0
-967 -1017 0
-967 -1018 0
-967 -1019 0
-967 -1020 0
-967 -1021 0
-967 -1022 0
-967 -1023 0
-967 -1024 0
-967 -1025 0
-967 -1026 0
-967 -1027 0
-967 -1028 0
-967 -1029 0
-967 -1030 0
-967 -1031 0
-967 -1032 0
-967 -1033 0
-967 -1034 0
-967 -1035 0
-967 -1036 0
-967 -1037 0
-967 -1038 0
-967 -1039 0
-967 -1040 0
-967 -1041 0
-967 -1042 0
-967 -1043 0
-968 -969 0
-968 -970 0
-968 -971 0
-968 -972 0
-968 -973 0
-968 -974 0
-968 -975 0
-968 -976 0
-968 -977 0
-968 -978 0
-968 -979 0
-968 -980 0
-968 -981 0
-968 -982 0
-968 -983 0
-968 -984 0
-968 -985 0
-968 -986 0
-968 -987 0
-968 -988 0
-968 -989 0
-968 -990 0
-968 -991 0
-968 -992 0
-968 -993 0
-968 -994 0
-968 -995 0
-968 -996 0
-968 -997 0
-968 -998 0
-968 -999 0
-968 -1000 0
-968 -1001 0
-968 -1002 0
-968 -1003 0
-968 -1004 0
-968 -1005 0
-968 -1006 0
-968 -1007 0
-968 -1008 0
-968 -1009 0
-968 -1010 0
-968 -1011 0
-968 -1012 0
-968 -1013 0
-968 -1014 0
-968 -1015 0
-968 -1016 0
-968 -1017 0
-968 -1018 0
-968 -1019 0
-968 -1020 0
-968 -1021 0
-968 -1022 0
-968 -1023 0
-968 -1024 0
-968 -1025 0
-968 -1026 0
-968 -1027 0
-968 -1028 0
-968 -1029 0
-968 -1030 0
-968 -1031 0
-968 -1032 0
-968 -1033 0
-968 -1034 0
-968 -1035 0
-968 -1036 0
-968 -1037 0
-968 -1038 0
-968 -1039 0
-968 -1040 0
-968 -1041 0
-968 -1042 0
-968 -1043 0
-969 -970 0
-969 -971 0
-969 -972 0
-969 -973 0
-969 -974 0
-969 -975 0
-969 -976 0
-969 -977 0
-969 -978 0
-969 -979 0
-969 -980 0
-969 -981 0
-969 -982 0
-969 -983 0
-969 -984 0
-969 -985 0
-969 -986 0
-969 -987 0
-969 -988 0
-969 -989 0
-969 -990 0
-969 -991 0
-969 -992 0
-969 -993 0
-969 -994 0
-969 -995 0
-969 -996 0
-969 -997 0
-969 -998 0
-969 -999 0
-969 -1000 0
-969 -1001 0
-969 -1002 0
-969 -1003 0
-969 -1004 0
-969 -1005 0
-969 -1006 0
-969 -1007 0
-969 -1008 0
-969 -1009 0
-969 -1010 0
-969 -1011 0
-969 -1012 0
-969 -1013 0
-969 -1014 0
-969 -1015 0
-969 -1016 0
-969 -1017 0
-969 -1018 0
-969 -1019 0
-969 -1020 0
-969 -1021 0
-969 -1022 0
-969 -1023 0
-969 -1024 0
-969 -1025 0
-969 -1026 0
-969 -1027 0
-969 -1028 0
-969 -1029 0
-969 -1030 0
-969 -1031 0
-969 -1032 0
-969 -1033 0
-969 -1034 0
-969 -1035 0
-969 -1036 0
-969 -1037 0
-969 -1038 0
-969 -1039 0
-969 -1040 0
-969 -1041 0
-969 -1042 0
-969 -1043 0
-970 -971 0
-970 -972 0
-970 -973 0
-970 -974 0
-970 -975 0
-970 -976 0
-970 -977 0
-970 -978 0
-970 -979 0
-970 -980 0
-970 -981 0
-970 -982 0
-970 -983 0
-970 -984 0
-970 -985 0
-970 -986 0
-970 -987 0
-970 -988 0
-970 -989 0
-970 -990 0
-970 -991 0
-970 -992 0
-970 -993 0
-970 -994 0
-970 -995 0
-970 -996 0
-970 -997 0
-970 -998 0
-970 -999 0
-970 -1000 0
-970 -1001 0
-970 -1002 0
-970 -1003 0
-970 -1004 0
-970 -1005 0
-970 -1006 0
-970 -1007 0
-970 -1008 0
-970 -1009 0
-970 -1010 0
-970 -1011 0
-970 -1012 0
-970 -1013 0
-970 -1014 0
-970 -1015 0
-970 -1016 0
-970 -1017 0
-970 -1018 0
-970 -1019 0
-970 -1020 0
-970 -1021 0
-970 -1022 0
-970 -1023 0
-970 -1024 0
-970 -1025 0
-970 -1026 0
-970 -1027 0
-970 -1028 0
-970 -1029 0
-970 -1030 0
-970 -1031 0
-970 -1032 0
-970 -1033 0
-970 -1034 0
-970 -1035 0
-970 -1036 0
-970 -1037 0
-970 -1038 0
-970 -1039 0
-970 -1040 0
-970 -1041 0
-970 -1042 0
-970 -1043 0
-971 -972 0
-971 -973 0
-971 -974 0
-971 -975 0
-971 -976 0
-971 -977 0
-971 -978 0
-971 -979 0
-971 -980 0
-971 -981 0
-971 -982 0
-971 -983 0
-971 -984 0
-971 -985 0
-971 -986 0
-971 -987 0
-971 -988 0
-971 -989 0
-971 -990 0
-971 -991 0
-971 -992 0
-971 -993 0
-971 -994 0
-971 -995 0
-971 -996 0
-971 -997 0
-971 -998 0
-971 -999 0
-971 -1000 0
-971 -1001 0
-971 -1002 0
-971 -1003 0
-971 -1004 0
-971 -1005 0
-971 -1006 0
-971 -1007 0
-971 -1008 0
-971 -1009 0
-971 -1010 0
-971 -1011 0
-971 -1012 0
-971 -1013 0
-971 -1014 0
-971 -1015 0
-971 -1016 0
-971 -1017 0
-971 -1018 0
-971 -1019 0
-971 -1020 0
-971 -1021 0
-971 -1022 0
-971 -1023 0
-971 -1024 0
-971 -1025 0
-971 -1026 0
-971 -1027 0
-971 -1028 0
-971 -1029 0
-971 -1030 0
-971 -1031 0
-971 -1032 0
-971 -1033 0
-971 -1034 0
-971 -1035 0
-971 -1036 0
-971 -1037 0
-971 -1038 0
-971 -1039 0
-971 -1040 0
-971 -1041 0
-971 -1042 0
-971 -1043 0
-972 -973 0
-972 -974 0
-972 -975 0
-972 -976 0
-972 -977 0
-972 -978 0
-972 -979 0
-972 -980 0
-972 -981 0
-972 -982 0
-972 -983 0
-972 -984 0
-972 -985 0
-972 -986 0
-972 -987 0
-972 -988 0
-972 -989 0
-972 -990 0
-972 -991 0
-972 -992 0
-972 -993 0
-972 -994 0
-972 -995 0
-972 -996 0
-972 -997 0
-972 -998 0
-972 -999 0
-972 -1000 0
-972 -1001 0
-972 -1002 0
-972 -1003 0
-972 -1004 0
-972 -1005 0
-972 -1006 0
-972 -1007 0
-972 -1008 0
-972 -1009 0
-972 -1010 0
-972 -1011 0
-972 -1012 0
-972 -1013 0
-972 -1014 0
-972 -1015 0
-972 -1016 0
-972 -1017 0
-972 -1018 0
-972 -1019 0
-972 -1020 0
-972 -1021 0
-972 -1022 0
-972 -1023 0
-972 -1024 0
-972 -1025 0
-972 -1026 0
-972 -1027 0
-972 -1028 0
-972 -1029 0
-972 -1030 0
-972 -1031 0
-972 -1032 0
-972 -1033 0
-972 -1034 0
-972 -1035 0
-972 -1036 0
-972 -1037 0
-972 -1038 0
-972 -1039 0
-972 -1040 0
-972 -1041 0
-972 -1042 0
-972 -1043 0
-973 -974 0
-973 -975 0
-973 -976 0
-973 -977 0
-973 -978 0
-973 -979 0
-973 -980 0
-973 -981 0
-973 -982 0
-973 -983 0
-973 -984 0
-973 -985 0
-973 -986 0
-973 -987 0
-973 -988 0
-973 -989 0
-973 -990 0
-973 -991 0
-973 -992 0
-973 -993 0
-973 -994 0
-973 -995 0
-973 -996 0
-973 -997 0
-973 -998 0
-973 -999 0
-973 -1000 0
-973 -1001 0
-973 -1002 0
-973 -1003 0
-973 -1004 0
-973 -1005 0
-973 -1006 0
-973 -1007 0
-973 -1008 0
-973 -1009 0
-973 -1010 0
-973 -1011 0
-973 -1012 0
-973 -1013 0
-973 -1014 0
-973 -1015 0
-973 -1016 0
-973 -1017 0
-973 -1018 0
-973 -1019 0
-973 -1020 0
-973 -1021 0
-973 -1022 0
-973 -1023 0
-973 -1024 0
-973 -1025 0
-973 -1026 0
-973 -1027 0
-973 -1028 0
-973 -1029 0
-973 -1030 0
-973 -1031 0
-973 -1032 0
-973 -1033 0
-973 -1034 0
-973 -1035 0
-973 -1036 0
-973 -1037 0
-973 -1038 0
-973 -1039 0
-973 -1040 0
-973 -1041 0
-973 -1042 0
-973 -1043 0
-974 -975 0
-974 -976 0
-974 -977 0
-974 -978 0
-974 -979 0
-974 -980 0
-974 -981 0
-974 -982 0
-974 -983 0
-974 -984 0
-974 -985 0
-974 -986 0
-974 -987 0
-974 -988 0
-974 -989 0
-974 -990 0
-974 -991 0
-974 -992 0
-974 -993 0
-974 -994 0
-974 -995 0
-974 -996 0
-974 -997 0
-974 -998 0
-974 -999 0
-974 -1000 0
-974 -1001 0
-974 -1002 0
-974 -1003 0
-974 -1004 0
-974 -1005 0
-974 -1006 0
-974 -1007 0
-974 -1008 0
-974 -1009 0
-974 -1010 0
-974 -1011 0
-974 -1012 0
-974 -1013 0
-974 -1014 0
-974 -1015 0
-974 -1016 0
-974 -1017 0
-974 -1018 0
-974 -1019 0
-974 -1020 0
-974 -1021 0
-974 -1022 0
-974 -1023 0
-974 -1024 0
-974 -1025 0
-974 -1026 0
-974 -1027 0
-974 -1028 0
-974 -1029 0
-974 -1030 0
-974 -1031 0
-974 -1032 0
-974 -1033 0
-974 -1034 0
-974 -1035 0
-974 -1036 0
-974 -1037 0
-974 -1038 0
-974 -1039 0
-974 -1040 0
-974 -1041 0
-974 -1042 0
-974 -1043 0
-975 -976 0
-975 -977 0
-975 -978 0
-975 -979 0
-975 -980 0
-975 -981 0
-975 -982 0
-975 -983 0
-975 -984 0
-975 -985 0
-975 -986 0
-975 -987 0
-975 -988 0
-975 -989 0
-975 -990 0
-975 -991 0
-975 -992 0
-975 -993 0
-975 -994 0
-975 -995 0
-975 -996 0
-975 -997 0
-975 -998 0
-975 -999 0
-975 -1000 0
-975 -1001 0
-975 -1002 0
-975 -1003 0
-975 -1004 0
-975 -1005 0
-975 -1006 0
-975 -1007 0
-975 -1008 0
-975 -1009 0
-975 -1010 0
-975 -1011 0
-975 -1012 0
-975 -1013 0
-975 -1014 0
-975 -1015 0
-975 -1016 0
-975 -1017 0
-975 -1018 0
-975 -1019 0
-975 -1020 0
-975 -1021 0
-975 -1022 0
-975 -1023 0
-975 -1024 0
-975 -1025 0
-975 -1026 0
-975 -1027 0
-975 -1028 0
-975 -1029 0
-975 -1030 0
-975 -1031 0
-975 -1032 0
-975 -1033 0
-975 -1034 0
-975 -1035 0
-975 -1036 0
-975 -1037 0
-975 -1038 0
-975 -1039 0
-975 -1040 0
-975 -1041 0
-975 -1042 0
-975 -1043 0
-976 -977 0
-976 -978 0
-976 -979 0
-976 -980 0
-976 -981 0
-976 -982 0
-976 -983 0
-976 -984 0
-976 -985 0
-976 -986 0
-976 -987 0
-976 -988 0
-976 -989 0
-976 -990 0
-976 -991 0
-976 -992 0
-976 -993 0
-976 -994 0
-976 -995 0
-976 -996 0
-976 -997 0
-976 -998 0
-976 -999 0
-976 -1000 0
-976 -1001 0
-976 -1002 0
-976 -1003 0
-976 -1004 0
-976 -1005 0
-976 -1006 0
-976 -1007 0
-976 -1008 0
-976 -1009 0
-976 -1010 0
-976 -1011 0
-976 -1012 0
-976 -1013 0
-976 -1014 0
-976 -1015 0
-976 -1016 0
-976 -1017 0
-976 -1018 0
-976 -1019 0
-976 -1020 0
-976 -1021 0
-976 -1022 0
-976 -1023 0
-976 -1024 0
-976 -1025 0
-976 -1026 0
-976 -1027 0
-976 -1028 0
-976 -1029 0
-976 -1030 0
-976 -1031 0
-976 -1032 0
-976 -1033 0
-976 -1034 0
-976 -1035 0
-976 -1036 0
-976 -1037 0
-976 -1038 0
-976 -1039 0
-976 -1040 0
-976 -1041 0
-976 -1042 0
-976 -1043 0
-977 -978 0
-977 -979 0
-977 -980 0
-977 -981 0
-977 -982 0
-977 -983 0
-977 -984 0
-977 -985 0
-977 -986 0
-977 -987 0
-977 -988 0
-977 -989 0
-977 -990 0
-977 -991 0
-977 -992 0
-977 -993 0
-977 -994 0
-977 -995 0
-977 -996 0
-977 -997 0
-977 -998 0
-977 -999 0
-977 -1000 0
-977 -1001 0
-977 -1002 0
-977 -1003 0
-977 -1004 0
-977 -1005 0
-977 -1006 0
-977 -1007 0
-977 -1008 0
-977 -1009 0
-977 -1010 0
-977 -1011 0
-977 -1012 0
-977 -1013 0
-977 -1014 0
-977 -1015 0
-977 -1016 0
-977 -1017 0
-977 -1018 0
-977 -1019 0
-977 -1020 0
-977 -1021 0
-977 -1022 0
-977 -1023 0
-977 -1024 0
-977 -1025 0
-977 -1026 0
-977 -1027 0
-977 -1028 0
-977 -1029 0
-977 -1030 0
-977 -1031 0
-977 -1032 0
-977 -1033 0
-977 -1034 0
-977 -1035 0
-977 -1036 0
-977 -1037 0
-977 -1038 0
-977 -1039 0
-977 -1040 0
-977 -1041 0
-977 -1042 0
-977 -1043 0
-978 -979 0
-978 -980 0
-978 -981 0
-978 -982 0
-978 -983 0
-978 -984 0
-978 -985 0
-978 -986 0
-978 -987 0
-978 -988 0
-978 -989 0
-978 -990 0
-978 -991 0
-978 -992 0
-978 -993 0
-978 -994 0
-978 -995 0
-978 -996 0
-978 -997 0
-978 -998 0
-978 -999 0
-978 -1000 0
-978 -1001 0
-978 -1002 0
-978 -1003 0
-978 -1004 0
-978 -1005 0
-978 -1006 0
-978 -1007 0
-978 -1008 0
-978 -1009 0
-978 -1010 0
-978 -1011 0
-978 -1012 0
-978 -1013 0
-978 -1014 0
-978 -1015 0
-978 -1016 0
-978 -1017 0
-978 -1018 0
-978 -1019 0
-978 -1020 0
-978 -1021 0
-978 -1022 0
-978 -1023 0
-978 -1024 0
-978 -1025 0
-978 -1026 0
-978 -1027 0
-978 -1028 0
-978 -1029 0
-978 -1030 0
-978 -1031 0
-978 -1032 0
-978 -1033 0
-978 -1034 0
-978 -1035 0
-978 -1036 0
-978 -1037 0
-978 -1038 0
-978 -1039 0
-978 -1040 0
-978 -1041 0
-978 -1042 0
-978 -1043 0
-979 -980 0
-979 -981 0
-979 -982 0
-979 -983 0
-979 -984 0
-979 -985 0
-979 -986 0
-979 -987 0
-979 -988 0
-979 -989 0
-979 -990 0
-979 -991 0
-979 -992 0
-979 -993 0
-979 -994 0
-979 -995 0
-979 -996 0
-979 -997 0
-979 -998 0
-979 -999 0
-979 -1000 0
-979 -1001 0
-979 -1002 0
-979 -1003 0
-979 -1004 0
-979 -1005 0
-979 -1006 0
-979 -1007 0
-979 -1008 0
-979 -1009 0
-979 -1010 0
-979 -1011 0
-979 -1012 0
-979 -1013 0
-979 -1014 0
-979 -1015 0
-979 -1016 0
-979 -1017 0
-979 -1018 0
-979 -1019 0
-979 -1020 0
-979 -1021 0
-979 -1022 0
-979 -1023 0
-979 -1024 0
-979 -1025 0
-979 -1026 0
-979 -1027 0
-979 -1028 0
-979 -1029 0
-979 -1030 0
-979 -1031 0
-979 -1032 0
-979 -1033 0
-979 -1034 0
-979 -1035 0
-979 -1036 0
-979 -1037 0
-979 -1038 0
-979 -1039 0
-979 -1040 0
-979 -1041 0
-979 -1042 0
-979 -1043 0
-980 -981 0
-980 -982 0
-980 -983 0
-980 -984 0
-980 -985 0
-980 -986 0
-980 -987 0
-980 -988 0
-980 -989 0
-980 -990 0
-980 -991 0
-980 -992 0
-980 -993 0
-980 -994 0
-980 -995 0
-980 -996 0
-980 -997 0
-980 -998 0
-980 -999 0
-980 -1000 0
-980 -1001 0
-980 -1002 0
-980 -1003 0
-980 -1004 0
-980 -1005 0
-980 -1006 0
-980 -1007 0
-980 -1008 0
-980 -1009 0
-980 -1010 0
-980 -1011 0
-980 -1012 0
-980 -1013 0
-980 -1014 0
-980 -1015 0
-980 -1016 0
-980 -1017 0
-980 -1018 0
-980 -1019 0
-980 -1020 0
-980 -1021 0
-980 -1022 0
-980 -1023 0
-980 -1024 0
-980 -1025 0
-980 -1026 0
-980 -1027 0
-980 -1028 0
-980 -1029 0
-980 -1030 0
-980 -1031 0
-980 -1032 0
-980 -1033 0
-980 -1034 0
-980 -1035 0
-980 -1036 0
-980 -1037 0
-980 -1038 0
-980 -1039 0
-980 -1040 0
-980 -1041 0
-980 -1042 0
-980 -1043 0
-981 -982 0
-981 -983 0
-981 -984 0
-981 -985 0
-981 -986 0
-981 -987 0
-981 -988 0
-981 -989 0
-981 -990 0
-981 -991 0
-981 -992 0
-981 -993 0
-981 -994 0
-981 -995 0
-981 -996 0
-981 -997 0
-981 -998 0
-981 -999 0
-981 -1000 0
-981 -1001 0
-981 -1002 0
-981 -1003 0
-981 -1004 0
-981 -1005 0
-981 -1006 0
-981 -1007 0
-981 -1008 0
-981 -1009 0
-981 -1010 0
-981 -1011 0
-981 -1012 0
-981 -1013 0
-981 -1014 0
-981 -1015 0
-981 -1016 0
-981 -1017 0
-981 -1018 0
-981 -1019 0
-981 -1020 0
-981 -1021 0
-981 -1022 0
-981 -1023 0
-981 -1024 0
-981 -1025 0
-981 -1026 0
-981 -1027 0
-981 -1028 0
-981 -1029 0
-981 -1030 0
-981 -1031 0
-981 -1032 0
-981 -1033 0
-981 -1034 0
-981 -1035 0
-981 -1036 0
-981 -1037 0
-981 -1038 0
-981 -1039 0
-981 -1040 0
-981 -1041 0
-981 -1042 0
-981 -1043 0
-982 -983 0
-982 -984 0
-982 -985 0
-982 -986 0
-982 -987 0
-982 -988 0
-982 -989 0
-982 -990 0
-982 -991 0
-982 -992 0
-982 -993 0
-982 -994 0
-982 -995 0
-982 -996 0
-982 -997 0
-982 -998 0
-982 -999 0
-982 -1000 0
-982 -1001 0
-982 -1002 0
-982 -1003 0
-982 -1004 0
-982 -1005 0
-982 -1006 0
-982 -1007 0
-982 -1008 0
-982 -1009 0
-982 -1010 0
-982 -1011 0
-982 -1012 0
-982 -1013 0
-982 -1014 0
-982 -1015 0
-982 -1016 0
-982 -1017 0
-982 -1018 0
-982 -1019 0
-982 -1020 0
-982 -1021 0
-982 -1022 0
-982 -1023 0
-982 -1024 0
-982 -1025 0
-982 -1026 0
-982 -1027 0
-982 -1028 0
-982 -1029 0
-982 -1030 0
-982 -1031 0
-982 -1032 0
-982 -1033 0
-982 -1034 0
-982 -1035 0
-982 -1036 0
-982 -1037 0
-982 -1038 0
-982 -1039 0
-982 -1040 0
-982 -1041 0
-982 -1042 0
-982 -1043 0
-983 -984 0
-983 -985 0
-983 -986 0
-983 -987 0
-983 -988 0
-983 -989 0
-983 -990 0
-983 -991 0
-983 -992 0
-983 -993 0
-983 -994 0
-983 -995 0
-983 -996 0
-983 -997 0
-983 -998 0
-983 -999 0
-983 -1000 0
-983 -1001 0
-983 -1002 0
-983 -1003 0
-983 -1004 0
-983 -1005 0
-983 -1006 0
-983 -1007 0
-983 -1008 0
-983 -1009 0
-983 -1010 0
-983 -1011 0
-983 -1012 0
-983 -1013 0
-983 -1014 0
-983 -1015 0
-983 -1016 0
-983 -1017 0
-983 -1018 0
-983 -1019 0
-983 -1020 0
-983 -1021 0
-983 -1022 0
-983 -1023 0
-983 -1024 0
-983 -1025 0
-983 -1026 0
-983 -1027 0
-983 -1028 0
-983 -1029 0
-983 -1030 0
-983 -1031 0
-983 -1032 0
-983 -1033 0
-983 -1034 0
-983 -1035 0
-983 -1036 0
-983 -1037 0
-983 -1038 0
-983 -1039 0
-983 -1040 0
-983 -1041 0
-983 -1042 0
-983 -1043 0
-984 -985 0
-984 -986 0
-984 -987 0
-984 -988 0
-984 -989 0
-984 -990 0
-984 -991 0
-984 -992 0
-984 -993 0
-984 -994 0
-984 -995 0
-984 -996 0
-984 -997 0
-984 -998 0
-984 -999 0
-984 -1000 0
-984 -1001 0
-984 -1002 0
-984 -1003 0
-984 -1004 0
-984 -1005 0
-984 -1006 0
-984 -1007 0
-984 -1008 0
-984 -1009 0
-984 -1010 0
-984 -1011 0
-984 -1012 0
-984 -1013 0
-984 -1014 0
-984 -1015 0
-984 -1016 0
-984 -1017 0
-984 -1018 0
-984 -1019 0
-984 -1020 0
-984 -1021 0
-984 -1022 0
-984 -1023 0
-984 -1024 0
-984 -1025 0
-984 -1026 0
-984 -1027 0
-984 -1028 0
-984 -1029 0
-984 -1030 0
-984 -1031 0
-984 -1032 0
-984 -1033 0
-984 -1034 0
-984 -1035 0
-984 -1036 0
-984 -1037 0
-984 -1038 0
-984 -1039 0
-984 -1040 0
-984 -1041 0
-984 -1042 0
-984 -1043 0
-985 -986 0
-985 -987 0
-985 -988 0
-985 -989 0
-985 -990 0
-985 -991 0
-985 -992 0
-985 -993 0
-985 -994 0
-985 -995 0
-985 -996 0
-985 -997 0
-985 -998 0
-985 -999 0
-985 -1000 0
-985 -1001 0
-985 -1002 0
-985 -1003 0
-985 -1004 0
-985 -1005 0
-985 -1006 0
-985 -1007 0
-985 -1008 0
-985 -1009 0
-985 -1010 0
-985 -1011 0
-985 -1012 0
-985 -1013 0
-985 -1014 0
-985 -1015 0
-985 -1016 0
-985 -1017 0
-985 -1018 0
-985 -1019 0
-985 -1020 0
-985 -1021 0
-985 -1022 0
-985 -1023 0
-985 -1024 0
-985 -1025 0
-985 -1026 0
-985 -1027 0
-985 -1028 0
-985 -1029 0
-985 -1030 0
-985 -1031 0
-985 -1032 0
-985 -1033 0
-985 -1034 0
-985 -1035 0
-985 -1036 0
-985 -1037 0
-985 -1038 0
-985 -1039 0
-985 -1040 0
-985 -1041 0
-985 -1042 0
-985 -1043 0
-986 -987 0
-986 -988 0
-986 -989 0
-986 -990 0
-986 -991 0
-986 -992 0
-986 -993 0
-986 -994 0
-986 -995 0
-986 -996 0
-986 -997 0
-986 -998 0
-986 -999 0
-986 -1000 0
-986 -1001 0
-986 -1002 0
-986 -1003 0
-986 -1004 0
-986 -1005 0
-986 -1006 0
-986 -1007 0
-986 -1008 0
-986 -1009 0
-986 -1010 0
-986 -1011 0
-986 -1012 0
-986 -1013 0
-986 -1014 0
-986 -1015 0
-986 -1016 0
-986 -1017 0
-986 -1018 0
-986 -1019 0
-986 -1020 0
-986 -1021 0
-986 -1022 0
-986 -1023 0
-986 -1024 0
-986 -1025 0
-986 -1026 0
-986 -1027 0
-986 -1028 0
-986 -1029 0
-986 -1030 0
-986 -1031 0
-986 -1032 0
-986 -1033 0
-986 -1034 0
-986 -1035 0
-986 -1036 0
-986 -1037 0
-986 -1038 0
-986 -1039 0
-986 -1040 0
-986 -1041 0
-986 -1042 0
-986 -1043 0
-987 -988 0
-987 -989 0
-987 -990 0
-987 -991 0
-987 -992 0
-987 -993 0
-987 -994 0
-987 -995 0
-987 -996 0
-987 -997 0
-987 -998 0
-987 -999 0
-987 -1000 0
-987 -1001 0
-987 -1002 0
-987 -1003 0
-987 -1004 0
-987 -1005 0
-987 -1006 0
-987 -1007 0
-987 -1008 0
-987 -1009 0
-987 -1010 0
-987 -1011 0
-987 -1012 0
-987 -1013 0
-987 -1014 0
-987 -1015 0
-987 -1016 0
-987 -1017 0
-987 -1018 0
-987 -1019 0
-987 -1020 0
-987 -1021 0
-987 -1022 0
-987 -1023 0
-987 -1024 0
-987 -1025 0
-987 -1026 0
-987 -1027 0
-987 -1028 0
-987 -1029 0
-987 -1030 0
-987 -1031 0
-987 -1032 0
-987 -1033 0
-987 -1034 0
-987 -1035 0
-987 -1036 0
-987 -1037 0
-987 -1038 0
-987 -1039 0
-987 -1040 0
-987 -1041 0
-987 -1042 0
-987 -1043 0
-988 -989 0
-988 -990 0
-988 -991 0
-988 -992 0
-988 -993 0
-988 -994 0
-988 -995 0
-988 -996 0
-988 -997 0
-988 -998 0
-988 -999 0
-988 -1000 0
-988 -1001 0
-988 -1002 0
-988 -1003 0
-988 -1004 0
-988 -1005 0
-988 -1006 0
-988 -1007 0
-988 -1008 0
-988 -1009 0
-988 -1010 0
-988 -1011 0
-988 -1012 0
-988 -1013 0
-988 -1014 0
-988 -1015 0
-988 -1016 0
-988 -1017 0
-988 -1018 0
-988 -1019 0
-988 -1020 0
-988 -1021 0
-988 -1022 0
-988 -1023 0
-988 -1024 0
-988 -1025 0
-988 -1026 0
-988 -1027 0
-988 -1028 0
-988 -1029 0
-988 -1030 0
-988 -1031 0
-988 -1032 0
-988 -1033 0
-988 -1034 0
-988 -1035 0
-988 -1036 0
-988 -1037 0
-988 -1038 0
-988 -1039 0
-988 -1040 0
-988 -1041 0
-988 -1042 0
-988 -1043 0
-989 -990 0
-989 -991 0
-989 -992 0
-989 -993 0
-989 -994 0
-989 -995 0
-989 -996 0
-989 -997 0
-989 -998 0
-989 -999 0
-989 -1000 0
-989 -1001 0
-989 -1002 0
-989 -1003 0
-989 -1004 0
-989 -1005 0
-989 -1006 0
-989 -1007 0
-989 -1008 0
-989 -1009 0
-989 -1010 0
-989 -1011 0
-989 -1012 0
-989 -1013 0
-989 -1014 0
-989 -1015 0
-989 -1016 0
-989 -1017 0
-989 -1018 0
-989 -1019 0
-989 -1020 0
-989 -1021 0
-989 -1022 0
-989 -1023 0
-989 -1024 0
-989 -1025 0
-989 -1026 0
-989 -1027 0
-989 -1028 0
-989 -1029 0
-989 -1030 0
-989 -1031 0
-989 -1032 0
-989 -1033 0
-989 -1034 0
-989 -1035 0
-989 -1036 0
-989 -1037 0
-989 -1038 0
-989 -1039 0
-989 -1040 0
-989 -1041 0
-989 -1042 0
-989 -1043 0
-990 -991 0
-990 -992 0
-990 -993 0
-990 -994 0
-990 -995 0
-990 -996 0
-990 -997 0
-990 -998 0
-990 -999 0
-990 -1000 0
-990 -1001 0
-990 -1002 0
-990 -1003 0
-990 -1004 0
-990 -1005 0
-990 -1006 0
-990 -1007 0
-990 -1008 0
-990 -1009 0
-990 -1010 0
-990 -1011 0
-990 -1012 0
-990 -1013 0
-990 -1014 0
-990 -1015 0
-990 -1016 0
-990 -1017 0
-990 -1018 0
-990 -1019 0
-990 -1020 0
-990 -1021 0
-990 -1022 0
-990 -1023 0
-990 -1024 0
-990 -1025 0
-990 -1026 0
-990 -1027 0
-990 -1028 0
-990 -1029 0
-990 -1030 0
-990 -1031 0
-990 -1032 0
-990 -1033 0
-990 -1034 0
-990 -1035 0
-990 -1036 0
-990 -1037 0
-990 -1038 0
-990 -1039 0
-990 -1040 0
-990 -1041 0
-990 -1042 0
-990 -1043 0
-991 -992 0
-991 -993 0
-991 -994 0
-991 -995 0
-991 -996 0
-991 -997 0
-991 -998 0
-991 -999 0
-991 -1000 0
-991 -1001 0
-991 -1002 0
-991 -1003 0
-991 -1004 0
-991 -1005 0
-991 -1006 0
-991 -1007 0
-991 -1008 0
-991 -1009 0
-991 -1010 0
-991 -1011 0
-991 -1012 0
-991 -1013 0
-991 -1014 0
-991 -1015 0
-991 -1016 0
-991 -1017 0
-991 -1018 0
-991 -1019 0
-991 -1020 0
-991 -1021 0
-991 -1022 0
-991 -1023 0
-991 -1024 0
-991 -1025 0
-991 -1026 0
-991 -1027 0
-991 -1028 0
-991 -1029 0
-991 -1030 0
-991 -1031 0
-991 -1032 0
-991 -1033 0
-991 -1034 0
-991 -1035 0
-991 -1036 0
-991 -1037 0
-991 -1038 0
-991 -1039 0
-991 -1040 0
-991 -1041 0
-991 -1042 0
-991 -1043 0
-992 -993 0
-992 -994 0
-992 -995 0
-992 -996 0
-992 -997 0
-992 -998 0
-992 -999 0
-992 -1000 0
-992 -1001 0
-992 -1002 0
-992 -1003 0
-992 -1004 0
-992 -1005 0
-992 -1006 0
-992 -1007 0
-992 -1008 0
-992 -1009 0
-992 -1010 0
-992 -1011 0
-992 -1012 0
-992 -1013 0
-992 -1014 0
-992 -1015 0
-992 -1016 0
-992 -1017 0
-992 -1018 0
-992 -1019 0
-992 -1020 0
-992 -1021 0
-992 -1022 0
-992 -1023 0
-992 -1024 0
-992 -1025 0
-992 -1026 0
-992 -1027 0
-992 -1028 0
-992 -1029 0
-992 -1030 0
-992 -1031 0
-992 -1032 0
-992 -1033 0
-992 -1034 0
-992 -1035 0
-992 -1036 0
-992 -1037 0
-992 -1038 0
-992 -1039 0
-992 -1040 0
-992 -1041 0
-992 -1042 0
-992 -1043 0
-993 -994 0
-993 -995 0
-993 -996 0
-993 -997 0
-993 -998 0
-993 -999 0
-993 -1000 0
-993 -1001 0
-993 -1002 0
-993 -1003 0
-993 -1004 0
-993 -1005 0
-993 -1006 0
-993 -1007 0
-993 -1008 0
-993 -1009 0
-993 -1010 0
-993 -1011 0
-993 -1012 0
-993 -1013 0
-993 -1014 0
-993 -1015 0
-993 -1016 0
-993 -1017 0
-993 -1018 0
-993 -1019 0
-993 -1020 0
-993 -1021 0
-993 -1022 0
-993 -1023 0
-993 -1024 0
-993 -1025 0
-993 -1026 0
-993 -1027 0
-993 -1028 0
-993 -1029 0
-993 -1030 0
-993 -1031 0
-993 -1032 0
-993 -1033 0
-993 -1034 0
-993 -1035 0
-993 -1036 0
-993 -1037 0
-993 -1038 0
-993 -1039 0
-993 -1040 0
-993 -1041 0
-993 -1042 0
-993 -1043 0
-994 -995 0
-994 -996 0
-994 -997 0
-994 -998 0
-994 -999 0
-994 -1000 0
-994 -1001 0
-994 -1002 0
-994 -1003 0
-994 -1004 0
-994 -1005 0
-994 -1006 0
-994 -1007 0
-994 -1008 0
-994 -1009 0
-994 -1010 0
-994 -1011 0
-994 -1012 0
-994 -1013 0
-994 -1014 0
-994 -1015 0
-994 -1016 0
-994 -1017 0
-994 -1018 0
-994 -1019 0
-994 -1020 0
-994 -1021 0
-994 -1022 0
-994 -1023 0
-994 -1024 0
-994 -1025 0
-994 -1026 0
-994 -1027 0
-994 -1028 0
-994 -1029 0
-994 -1030 0
-994 -1031 0
-994 -1032 0
-994 -1033 0
-994 -1034 0
-994 -1035 0
-994 -1036 0
-994 -1037 0
-994 -1038 0
-994 -1039 0
-994 -1040 0
-994 -1041 0
-994 -1042 0
-994 -1043 0
-995 -996 0
-995 -997 0
-995 -998 0
-995 -999 0
-995 -1000 0
-995 -1001 0
-995 -1002 0
-995 -1003 0
-995 -1004 0
-995 -1005 0
-995 -1006 0
-995 -1007 0
-995 -1008 0
-995 -1009 0
-995 -1010 0
-995 -1011 0
-995 -1012 0
-995 -1013 0
-995 -1014 0
-995 -1015 0
-995 -1016 0
-995 -1017 0
-995 -1018 0
-995 -1019 0
-995 -1020 0
-995 -1021 0
-995 -1022 0
-995 -1023 0
-995 -1024 0
-995 -1025 0
-995 -1026 0
-995 -1027 0
-995 -1028 0
-995 -1029 0
-995 -1030 0
-995 -1031 0
-995 -1032 0
-995 -1033 0
-995 -1034 0
-995 -1035 0
-995 -1036 0
-995 -1037 0
-995 -1038 0
-995 -1039 0
-995 -1040 0
-995 -1041 0
-995 -1042 0
-995 -1043 0
-996 -997 0
-996 -998 0
-996 -999 0
-996 -1000 0
-996 -1001 0
-996 -1002 0
-996 -1003 0
-996 -1004 0
-996 -1005 0
-996 -1006 0
-996 -1007 0
-996 -1008 0
-996 -1009 0
-996 -1010 0
-996 -1011 0
-996 -1012 0
-996 -1013 0
-996 -1014 0
-996 -1015 0
-996 -1016 0
-996 -1017 0
-996 -1018 0
-996 -1019 0
-996 -1020 0
-996 -1021 0
-996 -1022 0
-996 -1023 0
-996 -1024 0
-996 -1025 0
-996 -1026 0
-996 -1027 0
-996 -1028 0
-996 -1029 0
-996 -1030 0
-996 -1031 0
-996 -1032 0
-996 -1033 0
-996 -1034 0
-996 -1035 0
-996 -1036 0
-996 -1037 0
-996 -1038 0
-996 -1039 0
-996 -1040 0
-996 -1041 0
-996 -1042 0
-996 -1043 0
-997 -998 0
-997 -999 0
-997 -1000 0
-997 -1001 0
-997 -1002 0
-997 -1003 0
-997 -1004 0
-997 -1005 0
-997 -1006 0
-997 -1007 0
-997 -1008 0
-997 -1009 0
-997 -1010 0
-997 -1011 0
-997 -1012 0
-997 -1013 0
-997 -1014 0
-997 -1015 0
-997 -1016 0
-997 -1017 0
-997 -1018 0
-997 -1019 0
-997 -1020 0
-997 -1021 0
-997 -1022 0
-997 -1023 0
-997 -1024 0
-997 -1025 0
-997 -1026 0
-997 -1027 0
-997 -1028 0
-997 -1029 0
-997 -1030 0
-997 -1031 0
-997 -1032 0
-997 -1033 0
-997 -1034 0
-997 -1035 0
-997 -1036 0
-997 -1037 0
-997 -1038 0
-997 -1039 0
-997 -1040 0
-997 -1041 0
-997 -1042 0
-997 -1043 0
-998 -999 0
-998 -1000 0
-998 -1001 0
-998 -1002 0
-998 -1003 0
-998 -1004 0
-998 -1005 0
-998 -1006 0
-998 -1007 0
-998 -1008 0
-998 -1009 0
-998 -1010 0
-998 -1011 0
-998 -1012 0
-998 -1013 0
-998 -1014 0
-998 -1015 0
-998 -1016 0
-998 -1017 0
-998 -1018 0
-998 -1019 0
-998 -1020 0
-998 -1021 0
-998 -1022 0
-998 -1023 0
-998 -1024 0
-998 -1025 0
-998 -1026 0
-998 -1027 0
-998 -1028 0
-998 -1029 0
-998 -1030 0
-998 -1031 0
-998 -1032 0
-998 -1033 0
-998 -1034 0
-998 -1035 0
-998 -1036 0
-998 -1037 0
-998 -1038 0
-998 -1039 0
-998 -1040 0
-998 -1041 0
-998 -1042 0
-998 -1043 0
-999 -1000 0
-999 -1001 0
-999 -1002 0
-999 -1003 0
-999 -1004 0
-999 -1005 0
-999 -1006 0
-999 -1007 0
-999 -1008 0
-999 -1009 0
-999 -1010 0
-999 -1011 0
-999 -1012 0
-999 -1013 0
-999 -1014 0
-999 -1015 0
-999 -1016 0
-999 -1017 0
-999 -1018 0
-999 -1019 0
-999 -1020 0
-999 -1021 0
-999 -1022 0
-999 -1023 0
-999 -1024 0
-999 -1025 0
-999 -1026 0
-999 -1027 0
-999 -1028 0
-999 -1029 0
-999 -1030 0
-999 -1031 0
-999 -1032 0
-999 -1033 0
-999 -1034 0
-999 -1035 0
-999 -1036 0
-999 -1037 0
-999 -1038 0
-999 -1039 0
-999 -1040 0
-999 -1041 0
-999 -1042 0
-999 -1043 0
-1000 -1001 0
-1000 -1002 0
-1000 -1003 0
-1000 -1004 0
-1000 -1005 0
-1000 -1006 0
-1000 -1007 0
-1000 -1008 0
-1000 -1009 0
-1000 -1010 0
-1000 -1011 0
-1000 -1012 0
-1000 -1013 0
-1000 -1014 0
-1000 -1015 0
-1000 -1016 0
-1000 -1017 0
-1000 -1018 0
-1000 -1019 0
-1000 -1020 0
-1000 -1021 0
-1000 -1022 0
-1000 -1023 0
-1000 -1024 0
-1000 -1025 0
-1000 -1026 0
-1000 -1027 0
-1000 -1028 0
-1000 -1029 0
-1000 -1030 0
-1000 -1031 0
-1000 -1032 0
-1000 -1033 0
-1000 -1034 0
-1000 -1035 0
-1000 -1036 0
-1000 -1037 0
-1000 -1038 0
-1000 -1039 0
-1000 -1040 0
-1000 -1041 0
-1000 -1042 0
-1000 -1043 0
-1001 -1002 0
-1001 -1003 0
-1001 -1004 0
-1001 -1005 0
-1001 -1006 0
-1001 -1007 0
-1001 -1008 0
-1001 -1009 0
-1001 -1010 0
-1001 -1011 0
-1001 -1012 0
-1001 -1013 0
-1001 -1014 0
-1001 -1015 0
-1001 -1016 0
-1001 -1017 0
-1001 -1018 0
-1001 -1019 0
-1001 -1020 0
-1001 -1021 0
-1001 -1022 0
-1001 -1023 0
-1001 -1024 0
-1001 -1025 0
-1001 -1026 0
-1001 -1027 0
-1001 -1028 0
-1001 -1029 0
-1001 -1030 0
-1001 -1031 0
-1001 -1032 0
-1001 -1033 0
-1001 -1034 0
-1001 -1035 0
-1001 -1036 0
-1001 -1037 0
-1001 -1038 0
-1001 -1039 0
-1001 -1040 0
-1001 -1041 0
-1001 -1042 0
-1001 -1043 0
-1002 -1003 0
-1002 -1004 0
-1002 -1005 0
-1002 -1006 0
-1002 -1007 0
-1002 -1008 0
-1002 -1009 0
-1002 -1010 0
-1002 -1011 0
-1002 -1012 0
-1002 -1013 0
-1002 -1014 0
-1002 -1015 0
-1002 -1016 0
-1002 -1017 0
-1002 -1018 0
-1002 -1019 0
-1002 -1020 0
-1002 -1021 0
-1002 -1022 0
-1002 -1023 0
-1002 -1024 0
-1002 -1025 0
-1002 -1026 0
-1002 -1027 0
-1002 -1028 0
-1002 -1029 0
-1002 -1030 0
-1002 -1031 0
-1002 -1032 0
-1002 -1033 0
-1002 -1034 0
-1002 -1035 0
-1002 -1036 0
-1002 -1037 0
-1002 -1038 0
-1002 -1039 0
-1002 -1040 0
-1002 -1041 0
-1002 -1042 0
-1002 -1043 0
-1003 -1004 0
-1003 -1005 0
-1003 -1006 0
-1003 -1007 0
-1003 -1008 0
-1003 -1009 0
-1003 -1010 0
-1003 -1011 0
-1003 -1012 0
-1003 -1013 0
-1003 -1014 0
-1003 -1015 0
-1003 -1016 0
-1003 -1017 0
-1003 -1018 0
-1003 -1019 0
-1003 -1020 0
-1003 -1021 0
-1003 -1022 0
-1003 -1023 0
-1003 -1024 0
-1003 -1025 0
-1003 -1026 0
-1003 -1027 0
-1003 -1028 0
-1003 -1029 0
-1003 -1030 0
-1003 -1031 0
-1003 -1032 0
-1003 -1033 0
-1003 -1034 0
-1003 -1035 0
-1003 -1036 0
-1003 -1037 0
-1003 -1038 0
-1003 -1039 0
-1003 -1040 0
-1003 -1041 0
-1003 -1042 0
-1003 -1043 0
-1004 -1005 0
-1004 -1006 0
-1004 -1007 0
-1004 -1008 0
-1004 -1009 0
-1004 -1010 0
-1004 -1011 0
-1004 -1012 0
-1004 -1013 0
-1004 -1014 0
-1004 -1015 0
-1004 -1016 0
-1004 -1017 0
-1004 -1018 0
-1004 -1019 0
-1004 -1020 0
-1004 -1021 0
-1004 -1022 0
-1004 -1023 0
-1004 -1024 0
-1004 -1025 0
-1004 -1026 0
-1004 -1027 0
-1004 -1028 0
-1004 -1029 0
-1004 -1030 0
-1004 -1031 0
-1004 -1032 0
-1004 -1033 0
-1004 -1034 0
-1004 -1035 0
-1004 -1036 0
-1004 -1037 0
-1004 -1038 0
-1004 -1039 0
-1004 -1040 0
-1004 -1041 0
-1004 -1042 0
-1004 -1043 0
-1005 -1006 0
-1005 -1007 0
-1005 -1008 0
-1005 -1009 0
-1005 -1010 0
-1005 -1011 0
-1005 -1012 0
-1005 -1013 0
-1005 -1014 0
-1005 -1015 0
-1005 -1016 0
-1005 -1017 0
-1005 -1018 0
-1005 -1019 0
-1005 -1020 0
-1005 -1021 0
-1005 -1022 0
-1005 -1023 0
-1005 -1024 0
-1005 -1025 0
-1005 -1026 0
-1005 -1027 0
-1005 -1028 0
-1005 -1029 0
-1005 -1030 0
-1005 -1031 0
-1005 -1032 0
-1005 -1033 0
-1005 -1034 0
-1005 -1035 0
-1005 -1036 0
-1005 -1037 0
-1005 -1038 0
-1005 -1039 0
-1005 -1040 0
-1005 -1041 0
-1005 -1042 0
-1005 -1043 0
-1006 -1007 0
-1006 -1008 0
-1006 -1009 0
-1006 -1010 0
-1006 -1011 0
-1006 -1012 0
-1006 -1013 0
-1006 -1014 0
-1006 -1015 0
-1006 -1016 0
-1006 -1017 0
-1006 -1018 0
-1006 -1019 0
-1006 -1020 0
-1006 -1021 0
-1006 -1022 0
-1006 -1023 0
-1006 -1024 0
-1006 -1025 0
-1006 -1026 0
-1006 -1027 0
-1006 -1028 0
-1006 -1029 0
-1006 -1030 0
-1006 -1031 0
-1006 -1032 0
-1006 -1033 0
-1006 -1034 0
-1006 -1035 0
-1006 -1036 0
-1006 -1037 0
-1006 -1038 0
-1006 -1039 0
-1006 -1040 0
-1006 -1041 0
-1006 -1042 0
-1006 -1043 0
-1007 -1008 0
-1007 -1009 0
-1007 -1010 0
-1007 -1011 0
-1007 -1012 0
-1007 -1013 0
-1007 -1014 0
-1007 -1015 0
-1007 -1016 0
-1007 -1017 0
-1007 -1018 0
-1007 -1019 0
-1007 -1020 0
-1007 -1021 0
-1007 -1022 0
-1007 -1023 0
-1007 -1024 0
-1007 -1025 0
-1007 -1026 0
-1007 -1027 0
-1007 -1028 0
-1007 -1029 0
-1007 -1030 0
-1007 -1031 0
-1007 -1032 0
-1007 -1033 0
-1007 -1034 0
-1007 -1035 0
-1007 -1036 0
-1007 -1037 0
-1007 -1038 0
-1007 -1039 0
-1007 -1040 0
-1007 -1041 0
-1007 -1042 0
-1007 -1043 0
-1008 -1009 0
-1008 -1010 0
-1008 -1011 0
-1008 -1012 0
-1008 -1013 0
-1008 -1014 0
-1008 -1015 0
-1008 -1016 0
-1008 -1017 0
-1008 -1018 0
-1008 -1019 0
-1008 -1020 0
-1008 -1021 0
-1008 -1022 0
-1008 -1023 0
-1008 -1024 0
-1008 -1025 0
-1008 -1026 0
-1008 -1027 0
-1008 -1028 0
-1008 -1029 0
-1008 -1030 0
-1008 -1031 0
-1008 -1032 0
-1008 -1033 0
-1008 -1034 0
-1008 -1035 0
-1008 -1036 0
-1008 -1037 0
-1008 -1038 0
-1008 -1039 0
-1008 -1040 0
-1008 -1041 0
-1008 -1042 0
-1008 -1043 0
-1009 -1010 0
-1009 -1011 0
-1009 -1012 0
-1009 -1013 0
-1009 -1014 0
-1009 -1015 0
-1009 -1016 0
-1009 -1017 0
-1009 -1018 0
-1009 -1019 0
-1009 -1020 0
-1009 -1021 0
-1009 -1022 0
-1009 -1023 0
-1009 -1024 0
-1009 -1025 0
-1009 -1026 0
-1009 -1027 0
-1009 -1028 0
-1009 -1029 0
-1009 -1030 0
-1009 -1031 0
-1009 -1032 0
-1009 -1033 0
-1009 -1034 0
-1009 -1035 0
-1009 -1036 0
-1009 -1037 0
-1009 -1038 0
-1009 -1039 0
-1009 -1040 0
-1009 -1041 0
-1009 -1042 0
-1009 -1043 0
-1010 -1011 0
-1010 -1012 0
-1010 -1013 0
-1010 -1014 0
-1010 -1015 0
-1010 -1016 0
-1010 -1017 0
-1010 -1018 0
-1010 -1019 0
-1010 -1020 0
-1010 -1021 0
-1010 -1022 0
-1010 -1023 0
-1010 -1024 0
-1010 -1025 0
-1010 -1026 0
-1010 -1027 0
-1010 -1028 0
-1010 -1029 0
-1010 -1030 0
-1010 -1031 0
-1010 -1032 0
-1010 -1033 0
-1010 -1034 0
-1010 -1035 0
-1010 -1036 0
-1010 -1037 0
-1010 -1038 0
-1010 -1039 0
-1010 -1040 0
-1010 -1041 0
-1010 -1042 0
-1010 -1043 0
-1011 -1012 0
-1011 -1013 0
-1011 -1014 0
-1011 -1015 0
-1011 -1016 0
-1011 -1017 0
-1011 -1018 0
-1011 -1019 0
-1011 -1020 0
-1011 -1021 0
-1011 -1022 0
-1011 -1023 0
-1011 -1024 0
-1011 -1025 0
-1011 -1026 0
-1011 -1027 0
-1011 -1028 0
-1011 -1029 0
-1011 -1030 0
-1011 -1031 0
-1011 -1032 0
-1011 -1033 0
-1011 -1034 0
-1011 -1035 0
-1011 -1036 0
-1011 -1037 0
-1011 -1038 0
-1011 -1039 0
-1011 -1040 0
-1011 -1041 0
-1011 -1042 0
-1011 -1043 0
-1012 -1013 0
-1012 -1014 0
-1012 -1015 0
-1012 -1016 0
-1012 -1017 0
-1012 -1018 0
-1012 -1019 0
-1012 -1020 0
-1012 -1021 0
-1012 -1022 0
-1012 -1023 0
-1012 -1024 0
-1012 -1025 0
-1012 -1026 0
-1012 -1027 0
-1012 -1028 0
-1012 -1029 0
-1012 -1030 0
-1012 -1031 0
-1012 -1032 0
-1012 -1033 0
-1012 -1034 0
-1012 -1035 0
-1012 -1036 0
-1012 -1037 0
-1012 -1038 0
-1012 -1039 0
-1012 -1040 0
-1012 -1041 0
-1012 -1042 0
-1012 -1043 0
-1013 -1014 0
-1013 -1015 0
-1013 -1016 0
-1013 -1017 0
-1013 -1018 0
-1013 -1019 0
-1013 -1020 0
-1013 -1021 0
-1013 -1022 0
-1013 -1023 0
-1013 -1024 0
-1013 -1025 0
-1013 -1026 0
-1013 -1027 0
-1013 -1028 0
-1013 -1029 0
-1013 -1030 0
-1013 -1031 0
-1013 -1032 0
-1013 -1033 0
-1013 -1034 0
-1013 -1035 0
-1013 -1036 0
-1013 -1037 0
-1013 -1038 0
-1013 -1039 0
-1013 -1040 0
-1013 -1041 0
-1013 -1042 0
-1013 -1043 0
-1014 -1015 0
-1014 -1016 0
-1014 -1017 0
-1014 -1018 0
-1014 -1019 0
-1014 -1020 0
-1014 -1021 0
-1014 -1022 0
-1014 -1023 0
-1014 -1024 0
-1014 -1025 0
-1014 -1026 0
-1014 -1027 0
-1014 -1028 0
-1014 -1029 0
-1014 -1030 0
-1014 -1031 0
-1014 -1032 0
-1014 -1033 0
-1014 -1034 0
-1014 -1035 0
-1014 -1036 0
-1014 -1037 0
-1014 -1038 0
-1014 -1039 0
-1014 -1040 0
-1014 -1041 0
-1014 -1042 0
-1014 -1043 0
-1015 -1016 0
-1015 -1017 0
-1015 -1018 0
-1015 -1019 0
-1015 -1020 0
-1015 -1021 0
-1015 -1022 0
-1015 -1023 0
-1015 -1024 0
-1015 -1025 0
-1015 -1026 0
-1015 -1027 0
-1015 -1028 0
-1015 -1029 0
-1015 -1030 0
-1015 -1031 0
-1015 -1032 0
-1015 -1033 0
-1015 -1034 0
-1015 -1035 0
-1015 -1036 0
-1015 -1037 0
-1015 -1038 0
-1015 -1039 0
-1015 -1040 0
-1015 -1041 0
-1015 -1042 0
-1015 -1043 0
-1016 -1017 0
-1016 -1018 0
-1016 -1019 0
-1016 -1020 0
-1016 -1021 0
-1016 -1022 0
-1016 -1023 0
-1016 -1024 0
-1016 -1025 0
-1016 -1026 0
-1016 -1027 0
-1016 -1028 0
-1016 -1029 0
-1016 -1030 0
-1016 -1031 0
-1016 -1032 0
-1016 -1033 0
-1016 -1034 0
-1016 -1035 0
-1016 -1036 0
-1016 -1037 0
-1016 -1038 0
-1016 -1039 0
-1016 -1040 0
-1016 -1041 0
-1016 -1042 0
-1016 -1043 0
-1017 -1018 0
-1017 -1019 0
-1017 -1020 0
-1017 -1021 0
-1017 -1022 0
-1017 -1023 0
-1017 -1024 0
-1017 -1025 0
-1017 -1026 0
-1017 -1027 0
-1017 -1028 0
-1017 -1029 0
-1017 -1030 0
-1017 -1031 0
-1017 -1032 0
-1017 -1033 0
-1017 -1034 0
-1017 -1035 0
-1017 -1036 0
-1017 -1037 0
-1017 -1038 0
-1017 -1039 0
-1017 -1040 0
-1017 -1041 0
-1017 -1042 0
-1017 -1043 0
-1018 -1019 0
-1018 -1020 0
-1018 -1021 0
-1018 -1022 0
-1018 -1023 0
-1018 -1024 0
-1018 -1025 0
-1018 -1026 0
-1018 -1027 0
-1018 -1028 0
-1018 -1029 0
-1018 -1030 0
-1018 -1031 0
-1018 -1032 0
-1018 -1033 0
-1018 -1034 0
-1018 -1035 0
-1018 -1036 0
-1018 -1037 0
-1018 -1038 0
-1018 -1039 0
-1018 -1040 0
-1018 -1041 0
-1018 -1042 0
-1018 -1043 0
-1019 -1020 0
-1019 -1021 0
-1019 -1022 0
-1019 -1023 0
-1019 -1024 0
-1019 -1025 0
-1019 -1026 0
-1019 -1027 0
-1019 -1028 0
-1019 -1029 0
-1019 -1030 0
-1019 -1031 0
-1019 -1032 0
-1019 -1033 0
-1019 -1034 0
-1019 -1035 0
-1019 -1036 0
-1019 -1037 0
-1019 -1038 0
-1019 -1039 0
-1019 -1040 0
-1019 -1041 0
-1019 -1042 0
-1019 -1043 0
-1020 -1021 0
-1020 -1022 0
-1020 -1023 0
-1020 -1024 0
-1020 -1025 0
-1020 -1026 0
-1020 -1027 0
-1020 -1028 0
-1020 -1029 0
-1020 -1030 0
-1020 -1031 0
-1020 -1032 0
-1020 -1033 0
-1020 -1034 0
-1020 -1035 0
-1020 -1036 0
-1020 -1037 0
-1020 -1038 0
-1020 -1039 0
-1020 -1040 0
-1020 -1041 0
-1020 -1042 0
-1020 -1043 0
-1021 -1022 0
-1021 -1023 0
-1021 -1024 0
-1021 -1025 0
-1021 -1026 0
-1021 -1027 0
-1021 -1028 0
-1021 -1029 0
-1021 -1030 0
-1021 -1031 0
-1021 -1032 0
-1021 -1033 0
-1021 -1034 0
-1021 -1035 0
-1021 -1036 0
-1021 -1037 0
-1021 -1038 0
-1021 -1039 0
-1021 -1040 0
-1021 -1041 0
-1021 -1042 0
-1021 -1043 0
-1022 -1023 0
-1022 -1024 0
-1022 -1025 0
-1022 -1026 0
-1022 -1027 0
-1022 -1028 0
-1022 -1029 0
-1022 -1030 0
-1022 -1031 0
-1022 -1032 0
-1022 -1033 0
-1022 -1034 0
-1022 -1035 0
-1022 -1036 0
-1022 -1037 0
-1022 -1038 0
-1022 -1039 0
-1022 -1040 0
-1022 -1041 0
-1022 -1042 0
-1022 -1043 0
-1023 -1024 0
-1023 -1025 0
-1023 -1026 0
-1023 -1027 0
-1023 -1028 0
-1023 -1029 0
-1023 -1030 0
-1023 -1031 0
-1023 -1032 0
-1023 -1033 0
-1023 -1034 0
-1023 -1035 0
-1023 -1036 0
-1023 -1037 0
-1023 -1038 0
-1023 -1039 0
-1023 -1040 0
-1023 -1041 0
-1023 -1042 0
-1023 -1043 0
-1024 -1025 0
-1024 -1026 0
-1024 -1027 0
-1024 -1028 0
-1024 -1029 0
-1024 -1030 0
-1024 -1031 0
-1024 -1032 0
-1024 -1033 0
-1024 -1034 0
-1024 -1035 0
-1024 -1036 0
-1024 -1037 0
-1024 -1038 0
-1024 -1039 0
-1024 -1040 0
-1024 -1041 0
-1024 -1042 0
-1024 -1043 0
-1025 -1026 0
-1025 -1027 0
-1025 -1028 0
-1025 -1029 0
-1025 -1030 0
-1025 -1031 0
-1025 -1032 0
-1025 -1033 0
-1025 -1034 0
-1025 -1035 0
-1025 -1036 0
-1025 -1037 0
-1025 -1038 0
-1025 -1039 0
-1025 -1040 0
-1025 -1041 0
-1025 -1042 0
-1025 -1043 0
-1026 -1027 0
-1026 -1028 0
-1026 -1029 0
-1026 -1030 0
-1026 -1031 0
-1026 -1032 0
-1026 -1033 0
-1026 -1034 0
-1026 -1035 0
-1026 -1036 0
-1026 -1037 0
-1026 -1038 0
-1026 -1039 0
-1026 -1040 0
-1026 -1041 0
-1026 -1042 0
-1026 -1043 0
-1027 -1028 0
-1027 -1029 0
-1027 -1030 0
-1027 -1031 0
-1027 -1032 0
-1027 -1033 0
-1027 -1034 0
-1027 -1035 0
-1027 -1036 0
-1027 -1037 0
-1027 -1038 0
-1027 -1039 0
-1027 -1040 0
-1027 -1041 0
-1027 -1042 0
-1027 -1043 0
-1028 -1029 0
-1028 -1030 0
-1028 -1031 0
-1028 -1032 0
-1028 -1033 0
-1028 -1034 0
-1028 -1035 0
-1028 -1036 0
-1028 -1037 0
-1028 -1038 0
-1028 -1039 0
-1028 -1040 0
-1028 -1041 0
-1028 -1042 0
-1028 -1043 0
-1029 -1030 0
-1029 -1031 0
-1029 -1032 0
-1029 -1033 0
-1029 -1034 0
-1029 -1035 0
-1029 -1036 0
-1029 -1037 0
-1029 -1038 0
-1029 -1039 0
-1029 -1040 0
-1029 -1041 0
-1029 -1042 0
-1029 -1043 0
-1030 -1031 0
-1030 -1032 0
-1030 -1033 0
-1030 -1034 0
-1030 -1035 0
-1030 -1036 0
-1030 -1037 0
-1030 -1038 0
-1030 -1039 0
-1030 -1040 0
-1030 -1041 0
-1030 -1042 0
-1030 -1043 0
-1031 -1032 0
-1031 -1033 0
-1031 -1034 0
-1031 -1035 0
-1031 -1036 0
-1031 -1037 0
-1031 -1038 0
-1031 -1039 0
-1031 -1040 0
-1031 -1041 0
-1031 -1042 0
-1031 -1043 0
-1032 -1033 0
-1032 -1034 0
-1032 -1035 0
-1032 -1036 0
-1032 -1037 0
-1032 -1038 0
-1032 -1039 0
-1032 -1040 0
-1032 -1041 0
-1032 -1042 0
-1032 -1043 0
-1033 -1034 0
-1033 -1035 0
-1033 -1036 0
-1033 -1037 0
-1033 -1038 0
-1033 -1039 0
-1033 -1040 0
-1033 -1041 0
-1033 -1042 0
-1033 -1043 0
-1034 -1035 0
-1034 -1036 0
-1034 -1037 0
-1034 -1038 0
-1034 -1039 0
-1034 -1040 0
-1034 -1041 0
-1034 -1042 0
-1034 -1043 0
-1035 -1036 0
-1035 -1037 0
-1035 -1038 0
-1035 -1039 0
-1035 -1040 0
-1035 -1041 0
-1035 -1042 0
-1035 -1043 0
-1036 -1037 0
-1036 -1038 0
-1036 -1039 0
-1036 -1040 0
-1036 -1041 0
-1036 -1042 0
-1036 -1043 0
-1037 -1038 0
-1037 -1039 0
-1037 -1040 0
-1037 -1041 0
-1037 -1042 0
-1037 -1043 0
-1038 -1039 0
-1038 -1040 0
-1038 -1041 0
-1038 -1042 0
-1038 -1043 0
-1039 -1040 0
-1039 -1041 0
-1039 -1042 0
-1039 -1043 0
-1040 -1041 0
-1040 -1042 0
-1040 -1043 0
-1041 -1042 0
-1041 -1043 0
-1042 -1043 0
-1044 264 0
-1044 -22 -168 -165 0
-1044 -22 -169 -166 0
-1044 -22 -170 -167 0
-1044 28 0
-1044 -28 -168 1501 390 0
-1044 -28 -169 1501 396 0
-1044 -28 -170 1501 402 0
-1044 -168 -414 0
-1044 -168 -438 0
-1044 -168 -462 0
-1044 -168 -420 0
-1044 -168 -444 0
-1044 -168 -468 0
-1044 -168 -426 0
-1044 -168 -450 0
-1044 -168 -474 0
-1044 -169 -420 0
-1044 -169 -444 0
-1044 -169 -468 0
-1044 -169 -426 0
-1044 -169 -450 0
-1044 -169 -474 0
-1044 -170 -426 0
-1044 -170 -450 0
-1044 -170 -474 0
-1044 -171 0
-1044 43 0
-1044 -168 181 0
-1044 -169 182 0
-1044 -170 183 0
-1044 -269 0
-1045 264 0
-1045 -23 -168 -165 0
-1045 -23 -169 -166 0
-1045 -23 -170 -167 0
-1045 29 0
-1045 -29 -168 1502 391 0
-1045 -29 -169 1502 397 0
-1045 -29 -170 1502 403 0
-1045 -168 -415 0
-1045 -168 -439 0
-1045 -168 -463 0
-1045 -168 -421 0
-1045 -168 -445 0
-1045 -168 -469 0
-1045 -168 -427 0
-1045 -168 -451 0
-1045 -168 -475 0
-1045 -169 -421 0
-1045 -169 -445 0
-1045 -169 -469 0
-1045 -169 -427 0
-1045 -169 -451 0
-1045 -169 -475 0
-1045 -170 -427 0
-1045 -170 -451 0
-1045 -170 -475 0
-1045 -171 0
-1045 44 0
-1045 -168 181 0
-1045 -169 182 0
-1045 -170 183 0
-1045 -269 0
-1046 264 0
-1046 -24 -168 -165 0
-1046 -24 -169 -166 0
-1046 -24 -170 -167 0
-1046 30 0
-1046 -30 -168 1503 392 0
-1046 -30 -169 1503 398 0
-1046 -30 -170 1503 404 0
-1046 -168 -416 0
-1046 -168 -440 0
-1046 -168 -464 0
-1046 -168 -422 0
-1046 -168 -446 0
-1046 -168 -470 0
-1046 -168 -428 0
-1046 -168 -452 0
-1046 -168 -476 0
-1046 -169 -422 0
-1046 -169 -446 0
-1046 -169 -470 0
-1046 -169 -428 0
-1046 -169 -452 0
-1046 -169 -476 0
-1046 -170 -428 0
-1046 -170 -452 0
-1046 -170 -476 0
-1046 -171 0
-1046 45 0
-1046 -168 181 0
-1046 -169 182 0
-1046 -170 183 0
-1046 -269 0
-1047 264 0
-1047 -25 -168 -165 0
-1047 -25 -169 -166 0
-1047 -25 -170 -167 0
-1047 31 0
-1047 -31 -168 1504 393 0
-1047 -31 -169 1504 399 0
-1047 -31 -170 1504 405 0
-1047 -168 -417 0
-1047 -168 -441 0
-1047 -168 -465 0
-1047 -168 -423 0
-1047 -168 -447 0
-1047 -168 -471 0
-1047 -168 -429 0
-1047 -168 -453 0
-1047 -168 -477 0
-1047 -169 -423 0
-1047 -169 -447 0
-1047 -169 -471 0
-1047 -169 -429 0
-1047 -169 -453 0
-1047 -169 -477 0
-1047 -170 -429 0
-1047 -170 -453 0
-1047 -170 -477 0
-1047 -171 0
-1047 46 0
-1047 -168 181 0
-1047 -169 182 0
-1047 -170 183 0
-1047 -269 0
-1048 264 0
-1048 -26 -168 -165 0
-1048 -26 -169 -166 0
-1048 -26 -170 -167 0
-1048 32 0
-1048 -32 -168 1505 394 0
-1048 -32 -169 1505 400 0
-1048 -32 -170 1505 406 0
-1048 -168 -418 0
-1048 -168 -442 0
-1048 -168 -466 0
-1048 -168 -424 0
-1048 -168 -448 0
-1048 -168 -472 0
-1048 -168 -430 0
-1048 -168 -454 0
-1048 -168 -478 0
-1048 -169 -424 0
-1048 -169 -448 0
-1048 -169 -472 0
-1048 -169 -430 0
-1048 -169 -454 0
-1048 -169 -478 0
-1048 -170 -430 0
-1048 -170 -454 0
-1048 -170 -478 0
-1048 -171 0
-1048 47 0
-1048 -168 181 0
-1048 -169 182 0
-1048 -170 183 0
-1048 -269 0
-1049 264 0
-1049 -27 -168 -165 0
-1049 -27 -169 -166 0
-1049 -27 -170 -167 0
-1049 33 0
-1049 -33 -168 1506 395 0
-1049 -33 -169 1506 401 0
-1049 -33 -170 1506 407 0
-1049 -168 -419 0
-1049 -168 -443 0
-1049 -168 -467 0
-1049 -168 -425 0
-1049 -168 -449 0
-1049 -168 -473 0
-1049 -168 -431 0
-1049 -168 -455 0
-1049 -168 -479 0
-1049 -169 -425 0
-1049 -169 -449 0
-1049 -169 -473 0
-1049 -169 -431 0
-1049 -169 -455 0
-1049 -169 -479 0
-1049 -170 -431 0
-1049 -170 -455 0
-1049 -170 -479 0
-1049 -171 0
-1049 48 0
-1049 -168 181 0
-1049 -169 182 0
-1049 -170 183 0
-1049 -269 0
-1050 264 0
-1050 -22 -172 -165 0
-1050 -22 -173 -166 0
-1050 -22 -174 -167 0
-1050 34 0
-1050 -34 -172 1507 390 0
-1050 -34 -173 1507 396 0
-1050 -34 -174 1507 402 0
-1050 -172 -414 0
-1050 -172 -438 0
-1050 -172 -462 0
-1050 -172 -420 0
-1050 -172 -444 0
-1050 -172 -468 0
-1050 -172 -426 0
-1050 -172 -450 0
-1050 -172 -474 0
-1050 -173 -420 0
-1050 -173 -444 0
-1050 -173 -468 0
-1050 -173 -426 0
-1050 -173 -450 0
-1050 -173 -474 0
-1050 -174 -426 0
-1050 -174 -450 0
-1050 -174 -474 0
-1050 -175 0
-1050 43 0
-1050 -172 181 0
-1050 -173 182 0
-1050 -174 183 0
-1050 -270 0
-1051 264 0
-1051 -23 -172 -165 0
-1051 -23 -173 -166 0
-1051 -23 -174 -167 0
-1051 34 35 0
-1051 -34 -172 1508 391 0
-1051 -34 -173 1508 397 0
-1051 -34 -174 1508 403 0
-1051 -35 -172 1508 391 0
-1051 -35 -173 1508 397 0
-1051 -35 -174 1508 403 0
-1051 -172 -415 0
-1051 -172 -439 0
-1051 -172 -463 0
-1051 -172 -421 0
-1051 -172 -445 0
-1051 -172 -469 0
-1051 -172 -427 0
-1051 -172 -451 0
-1051 -172 -475 0
-1051 -173 -421 0
-1051 -173 -445 0
-1051 -173 -469 0
-1051 -173 -427 0
-1051 -173 -451 0
-1051 -173 -475 0
-1051 -174 -427 0
-1051 -174 -451 0
-1051 -174 -475 0
-1051 -175 0
-1051 44 0
-1051 -172 181 0
-1051 -173 182 0
-1051 -174 183 0
-1051 -270 0
-1052 264 0
-1052 -24 -172 -165 0
-1052 -24 -173 -166 0
-1052 -24 -174 -167 0
-1052 35 36 0
-1052 -35 -172 1509 392 0
-1052 -35 -173 1509 398 0
-1052 -35 -174 1509 404 0
-1052 -36 -172 1509 392 0
-1052 -36 -173 1509 398 0
-1052 -36 -174 1509 404 0
-1052 -172 -416 0
-1052 -172 -440 0
-1052 -172 -464 0
-1052 -172 -422 0
-1052 -172 -446 0
-1052 -172 -470 0
-1052 -172 -428 0
-1052 -172 -452 0
-1052 -172 -476 0
-1052 -173 -422 0
-1052 -173 -446 0
-1052 -173 -470 0
-1052 -173 -428 0
-1052 -173 -452 0
-1052 -173 -476 0
-1052 -174 -428 0
-1052 -174 -452 0
-1052 -174 -476 0
-1052 -175 0
-1052 45 0
-1052 -172 181 0
-1052 -173 182 0
-1052 -174 183 0
-1052 -270 0
-1053 264 0
-1053 -25 -172 -165 0
-1053 -25 -173 -166 0
-1053 -25 -174 -167 0
-1053 36 37 0
-1053 -36 -172 1510 393 0
-1053 -36 -173 1510 399 0
-1053 -36 -174 1510 405 0
-1053 -37 -172 1510 393 0
-1053 -37 -173 1510 399 0
-1053 -37 -174 1510 405 0
-1053 -172 -417 0
-1053 -172 -441 0
-1053 -172 -465 0
-1053 -172 -423 0
-1053 -172 -447 0
-1053 -172 -471 0
-1053 -172 -429 0
-1053 -172 -453 0
-1053 -172 -477 0
-1053 -173 -423 0
-1053 -173 -447 0
-1053 -173 -471 0
-1053 -173 -429 0
-1053 -173 -453 0
-1053 -173 -477 0
-1053 -174 -429 0
-1053 -174 -453 0
-1053 -174 -477 0
-1053 -175 0
-1053 46 0
-1053 -172 181 0
-1053 -173 182 0
-1053 -174 183 0
-1053 -270 0
-1054 264 0
-1054 -26 -172 -165 0
-1054 -26 -173 -166 0
-1054 -26 -174 -167 0
-1054 37 38 0
-1054 -37 -172 1511 394 0
-1054 -37 -173 1511 400 0
-1054 -37 -174 1511 406 0
-1054 -38 -172 1511 394 0
-1054 -38 -173 1511 400 0
-1054 -38 -174 1511 406 0
-1054 -172 -418 0
-1054 -172 -442 0
-1054 -172 -466 0
-1054 -172 -424 0
-1054 -172 -448 0
-1054 -172 -472 0
-1054 -172 -430 0
-1054 -172 -454 0
-1054 -172 -478 0
-1054 -173 -424 0
-1054 -173 -448 0
-1054 -173 -472 0
-1054 -173 -430 0
-1054 -173 -454 0
-1054 -173 -478 0
-1054 -174 -430 0
-1054 -174 -454 0
-1054 -174 -478 0
-1054 -175 0
-1054 47 0
-1054 -172 181 0
-1054 -173 182 0
-1054 -174 183 0
-1054 -270 0
-1055 264 0
-1055 -27 -172 -165 0
-1055 -27 -173 -166 0
-1055 -27 -174 -167 0
-1055 38 0
-1055 -38 -172 1512 395 0
-1055 -38 -173 1512 401 0
-1055 -38 -174 1512 407 0
-1055 -172 -419 0
-1055 -172 -443 0
-1055 -172 -467 0
-1055 -172 -425 0
-1055 -172 -449 0
-1055 -172 -473 0
-1055 -172 -431 0
-1055 -172 -455 0
-1055 -172 -479 0
-1055 -173 -425 0
-1055 -173 -449 0
-1055 -173 -473 0
-1055 -173 -431 0
-1055 -173 -455 0
-1055 -173 -479 0
-1055 -174 -431 0
-1055 -174 -455 0
-1055 -174 -479 0
-1055 -175 0
-1055 48 0
-1055 -172 181 0
-1055 -173 182 0
-1055 -174 183 0
-1055 -270 0
-1056 264 0
-1056 -22 -176 -165 0
-1056 -22 -177 -166 0
-1056 -22 -178 -167 0
-1056 39 0
-1056 -39 -176 1513 390 0
-1056 -39 -177 1513 396 0
-1056 -39 -178 1513 402 0
-1056 -176 -414 0
-1056 -176 -438 0
-1056 -176 -462 0
-1056 -176 -420 0
-1056 -176 -444 0
-1056 -176 -468 0
-1056 -176 -426 0
-1056 -176 -450 0
-1056 -176 -474 0
-1056 -177 -420 0
-1056 -177 -444 0
-1056 -177 -468 0
-1056 -177 -426 0
-1056 -177 -450 0
-1056 -177 -474 0
-1056 -178 -426 0
-1056 -178 -450 0
-1056 -178 -474 0
-1056 -179 0
-1056 43 0
-1056 -176 181 0
-1056 -177 182 0
-1056 -178 183 0
-1056 -271 0
-1057 264 0
-1057 -23 -176 -165 0
-1057 -23 -177 -166 0
-1057 -23 -178 -167 0
-1057 39 40 0
-1057 -39 -176 1514 391 0
-1057 -39 -177 1514 397 0
-1057 -39 -178 1514 403 0
-1057 -40 -176 1514 391 0
-1057 -40 -177 1514 397 0
-1057 -40 -178 1514 403 0
-1057 -176 -415 0
-1057 -176 -439 0
-1057 -176 -463 0
-1057 -176 -421 0
-1057 -176 -445 0
-1057 -176 -469 0
-1057 -176 -427 0
-1057 -176 -451 0
-1057 -176 -475 0
-1057 -177 -421 0
-1057 -177 -445 0
-1057 -177 -469 0
-1057 -177 -427 0
-1057 -177 -451 0
-1057 -177 -475 0
-1057 -178 -427 0
-1057 -178 -451 0
-1057 -178 -475 0
-1057 -179 0
-1057 44 0
-1057 -176 181 0
-1057 -177 182 0
-1057 -178 183 0
-1057 -271 0
-1058 264 0
-1058 -24 -176 -165 0
-1058 -24 -177 -166 0
-1058 -24 -178 -167 0
-1058 39 40 41 0
-1058 -39 -176 1515 392 0
-1058 -39 -177 1515 398 0
-1058 -39 -178 1515 404 0
-1058 -40 -176 1515 392 0
-1058 -40 -177 1515 398 0
-1058 -40 -178 1515 404 0
-1058 -41 -176 1515 392 0
-1058 -41 -177 1515 398 0
-1058 -41 -178 1515 404 0
-1058 -176 -416 0
-1058 -176 -440 0
-1058 -176 -464 0
-1058 -176 -422 0
-1058 -176 -446 0
-1058 -176 -470 0
-1058 -176 -428 0
-1058 -176 -452 0
-1058 -176 -476 0
-1058 -177 -422 0
-1058 -177 -446 0
-1058 -177 -470 0
-1058 -177 -428 0
-1058 -177 -452 0
-1058 -177 -476 0
-1058 -178 -428 0
-1058 -178 -452 0
-1058 -178 -476 0
-1058 -179 0
-1058 45 0
-1058 -176 181 0
-1058 -177 182 0
-1058 -178 183 0
-1058 -271 0
-1059 264 0
-1059 -25 -176 -165 0
-1059 -25 -177 -166 0
-1059 -25 -178 -167 0
-1059 40 41 42 0
-1059 -40 -176 1516 393 0
-1059 -40 -177 1516 399 0
-1059 -40 -178 1516 405 0
-1059 -41 -176 1516 393 0
-1059 -41 -177 1516 399 0
-1059 -41 -178 1516 405 0
-1059 -42 -176 1516 393 0
-1059 -42 -177 1516 399 0
-1059 -42 -178 1516 405 0
-1059 -176 -417 0
-1059 -176 -441 0
-1059 -176 -465 0
-1059 -176 -423 0
-1059 -176 -447 0
-1059 -176 -471 0
-1059 -176 -429 0
-1059 -176 -453 0
-1059 -176 -477 0
-1059 -177 -423 0
-1059 -177 -447 0
-1059 -177 -471 0
-1059 -177 -429 0
-1059 -177 -453 0
-1059 -177 -477 0
-1059 -178 -429 0
-1059 -178 -453 0
-1059 -178 -477 0
-1059 -179 0
-1059 46 0
-1059 -176 181 0
-1059 -177 182 0
-1059 -178 183 0
-1059 -271 0
-1060 264 0
-1060 -26 -176 -165 0
-1060 -26 -177 -166 0
-1060 -26 -178 -167 0
-1060 41 42 0
-1060 -41 -176 1517 394 0
-1060 -41 -177 1517 400 0
-1060 -41 -178 1517 406 0
-1060 -42 -176 1517 394 0
-1060 -42 -177 1517 400 0
-1060 -42 -178 1517 406 0
-1060 -176 -418 0
-1060 -176 -442 0
-1060 -176 -466 0
-1060 -176 -424 0
-1060 -176 -448 0
-1060 -176 -472 0
-1060 -176 -430 0
-1060 -176 -454 0
-1060 -176 -478 0
-1060 -177 -424 0
-1060 -177 -448 0
-1060 -177 -472 0
-1060 -177 -430 0
-1060 -177 -454 0
-1060 -177 -478 0
-1060 -178 -430 0
-1060 -178 -454 0
-1060 -178 -478 0
-1060 -179 0
-1060 47 0
-1060 -176 181 0
-1060 -177 182 0
-1060 -178 183 0
-1060 -271 0
-1061 264 0
-1061 -27 -176 -165 0
-1061 -27 -177 -166 0
-1061 -27 -178 -167 0
-1061 42 0
-1061 -42 -176 1518 395 0
-1061 -42 -177 1518 401 0
-1061 -42 -178 1518 407 0
-1061 -176 -419 0
-1061 -176 -443 0
-1061 -176 -467 0
-1061 -176 -425 0
-1061 -176 -449 0
-1061 -176 -473 0
-1061 -176 -431 0
-1061 -176 -455 0
-1061 -176 -479 0
-1061 -177 -425 0
-1061 -177 -449 0
-1061 -177 -473 0
-1061 -177 -431 0
-1061 -177 -455 0
-1061 -177 -479 0
-1061 -178 -431 0
-1061 -178 -455 0
-1061 -178 -479 0
-1061 -179 0
-1061 48 0
-1061 -176 181 0
-1061 -177 182 0
-1061 -178 183 0
-1061 -271 0
-1062 264 0
-1062 -22 -164 0
-1062 -408 0
-1062 -432 0
-1062 -456 0
-1062 -414 0
-1062 -438 0
-1062 -462 0
-1062 -420 0
-1062 -444 0
-1062 -468 0
-1062 -426 0
-1062 -450 0
-1062 -474 0
-1062 43 0
-1062 180 0
-1063 264 0
-1063 -23 -164 0
-1063 -409 0
-1063 -433 0
-1063 -457 0
-1063 -415 0
-1063 -439 0
-1063 -463 0
-1063 -421 0
-1063 -445 0
-1063 -469 0
-1063 -427 0
-1063 -451 0
-1063 -475 0
-1063 44 0
-1063 180 0
-1064 264 0
-1064 -24 -164 0
-1064 -410 0
-1064 -434 0
-1064 -458 0
-1064 -416 0
-1064 -440 0
-1064 -464 0
-1064 -422 0
-1064 -446 0
-1064 -470 0
-1064 -428 0
-1064 -452 0
-1064 -476 0
-1064 45 0
-1064 180 0
-1065 264 0
-1065 -25 -164 0
-1065 -411 0
-1065 -435 0
-1065 -459 0
-1065 -417 0
-1065 -441 0
-1065 -465 0
-1065 -423 0
-1065 -447 0
-1065 -471 0
-1065 -429 0
-1065 -453 0
-1065 -477 0
-1065 46 0
-1065 180 0
-1066 264 0
-1066 -26 -164 0
-1066 -412 0
-1066 -436 0
-1066 -460 0
-1066 -418 0
-1066 -442 0
-1066 -466 0
-1066 -424 0
-1066 -448 0
-1066 -472 0
-1066 -430 0
-1066 -454 0
-1066 -478 0
-1066 47 0
-1066 180 0
-1067 264 0
-1067 -27 -164 0
-1067 -413 0
-1067 -437 0
-1067 -461 0
-1067 -419 0
-1067 -443 0
-1067 -467 0
-1067 -425 0
-1067 -449 0
-1067 -473 0
-1067 -431 0
-1067 -455 0
-1067 -479 0
-1067 48 0
-1067 180 0
-1068 265 0
-1068 -28 -164 -169 0
-1068 -28 -165 -170 0
-1068 -28 -166 -171 0
-1068 22 0
-1068 -22 -164 1495 414 0
-1068 -22 -165 1495 420 0
-1068 -22 -166 1495 426 0
-1068 -164 -390 0
-1068 -164 -438 0
-1068 -164 -462 0
-1068 -164 -396 0
-1068 -164 -444 0
-1068 -164 -468 0
-1068 -164 -402 0
-1068 -164 -450 0
-1068 -164 -474 0
-1068 -165 -396 0
-1068 -165 -444 0
-1068 -165 -468 0
-1068 -165 -402 0
-1068 -165 -450 0
-1068 -165 -474 0
-1068 -166 -402 0
-1068 -166 -450 0
-1068 -166 -474 0
-1068 -167 0
-1068 49 0
-1068 -164 185 0
-1068 -165 186 0
-1068 -166 187 0
-1068 -268 0
-1069 265 0
-1069 -29 -164 -169 0
-1069 -29 -165 -170 0
-1069 -29 -166 -171 0
-1069 23 0
-1069 -23 -164 1496 415 0
-1069 -23 -165 1496 421 0
-1069 -23 -166 1496 427 0
-1069 -164 -391 0
-1069 -164 -439 0
-1069 -164 -463 0
-1069 -164 -397 0
-1069 -164 -445 0
-1069 -164 -469 0
-1069 -164 -403 0
-1069 -164 -451 0
-1069 -164 -475 0
-1069 -165 -397 0
-1069 -165 -445 0
-1069 -165 -469 0
-1069 -165 -403 0
-1069 -165 -451 0
-1069 -165 -475 0
-1069 -166 -403 0
-1069 -166 -451 0
-1069 -166 -475 0
-1069 -167 0
-1069 50 0
-1069 -164 185 0
-1069 -165 186 0
-1069 -166 187 0
-1069 -268 0
-1070 265 0
-1070 -30 -164 -169 0
-1070 -30 -165 -170 0
-1070 -30 -166 -171 0
-1070 24 0
-1070 -24 -164 1497 416 0
-1070 -24 -165 1497 422 0
-1070 -24 -166 1497 428 0
-1070 -164 -392 0
-1070 -164 -440 0
-1070 -164 -464 0
-1070 -164 -398 0
-1070 -164 -446 0
-1070 -164 -470 0
-1070 -164 -404 0
-1070 -164 -452 0
-1070 -164 -476 0
-1070 -165 -398 0
-1070 -165 -446 0
-1070 -165 -470 0
-1070 -165 -404 0
-1070 -165 -452 0
-1070 -165 -476 0
-1070 -166 -404 0
-1070 -166 -452 0
-1070 -166 -476 0
-1070 -167 0
-1070 51 0
-1070 -164 185 0
-1070 -165 186 0
-1070 -166 187 0
-1070 -268 0
-1071 265 0
-1071 -31 -164 -169 0
-1071 -31 -165 -170 0
-1071 -31 -166 -171 0
-1071 25 0
-1071 -25 -164 1498 417 0
-1071 -25 -165 1498 423 0
-1071 -25 -166 1498 429 0
-1071 -164 -393 0
-1071 -164 -441 0
-1071 -164 -465 0
-1071 -164 -399 0
-1071 -164 -447 0
-1071 -164 -471 0
-1071 -164 -405 0
-1071 -164 -453 0
-1071 -164 -477 0
-1071 -165 -399 0
-1071 -165 -447 0
-1071 -165 -471 0
-1071 -165 -405 0
-1071 -165 -453 0
-1071 -165 -477 0
-1071 -166 -405 0
-1071 -166 -453 0
-1071 -166 -477 0
-1071 -167 0
-1071 52 0
-1071 -164 185 0
-1071 -165 186 0
-1071 -166 187 0
-1071 -268 0
-1072 265 0
-1072 -32 -164 -169 0
-1072 -32 -165 -170 0
-1072 -32 -166 -171 0
-1072 26 0
-1072 -26 -164 1499 418 0
-1072 -26 -165 1499 424 0
-1072 -26 -166 1499 430 0
-1072 -164 -394 0
-1072 -164 -442 0
-1072 -164 -466 0
-1072 -164 -400 0
-1072 -164 -448 0
-1072 -164 -472 0
-1072 -164 -406 0
-1072 -164 -454 0
-1072 -164 -478 0
-1072 -165 -400 0
-1072 -165 -448 0
-1072 -165 -472 0
-1072 -165 -406 0
-1072 -165 -454 0
-1072 -165 -478 0
-1072 -166 -406 0
-1072 -166 -454 0
-1072 -166 -478 0
-1072 -167 0
-1072 53 0
-1072 -164 185 0
-1072 -165 186 0
-1072 -166 187 0
-1072 -268 0
-1073 265 0
-1073 -33 -164 -169 0
-1073 -33 -165 -170 0
-1073 -33 -166 -171 0
-1073 27 0
-1073 -27 -164 1500 419 0
-1073 -27 -165 1500 425 0
-1073 -27 -166 1500 431 0
-1073 -164 -395 0
-1073 -164 -443 0
-1073 -164 -467 0
-1073 -164 -401 0
-1073 -164 -449 0
-1073 -164 -473 0
-1073 -164 -407 0
-1073 -164 -455 0
-1073 -164 -479 0
-1073 -165 -401 0
-1073 -165 -449 0
-1073 -165 -473 0
-1073 -165 -407 0
-1073 -165 -455 0
-1073 -165 -479 0
-1073 -166 -407 0
-1073 -166 -455 0
-1073 -166 -479 0
-1073 -167 0
-1073 54 0
-1073 -164 185 0
-1073 -165 186 0
-1073 -166 187 0
-1073 -268 0
-1074 265 0
-1074 -28 -172 -169 0
-1074 -28 -173 -170 0
-1074 -28 -174 -171 0
-1074 34 0
-1074 -34 -172 1507 414 0
-1074 -34 -173 1507 420 0
-1074 -34 -174 1507 426 0
-1074 -172 -390 0
-1074 -172 -438 0
-1074 -172 -462 0
-1074 -172 -396 0
-1074 -172 -444 0
-1074 -172 -468 0
-1074 -172 -402 0
-1074 -172 -450 0
-1074 -172 -474 0
-1074 -173 -396 0
-1074 -173 -444 0
-1074 -173 -468 0
-1074 -173 -402 0
-1074 -173 -450 0
-1074 -173 -474 0
-1074 -174 -402 0
-1074 -174 -450 0
-1074 -174 -474 0
-1074 -175 0
-1074 49 0
-1074 -172 185 0
-1074 -173 186 0
-1074 -174 187 0
-1074 -270 0
-1075 265 0
-1075 -29 -172 -169 0
-1075 -29 -173 -170 0
-1075 -29 -174 -171 0
-1075 34 35 0
-1075 -34 -172 1508 415 0
-1075 -34 -173 1508 421 0
-1075 -34 -174 1508 427 0
-1075 -35 -172 1508 415 0
-1075 -35 -173 1508 421 0
-1075 -35 -174 1508 427 0
-1075 -172 -391 0
-1075 -172 -439 0
-1075 -172 -463 0
-1075 -172 -397 0
-1075 -172 -445 0
-1075 -172 -469 0
-1075 -172 -403 0
-1075 -172 -451 0
-1075 -172 -475 0
-1075 -173 -397 0
-1075 -173 -445 0
-1075 -173 -469 0
-1075 -173 -403 0
-1075 -173 -451 0
-1075 -173 -475 0
-1075 -174 -403 0
-1075 -174 -451 0
-1075 -174 -475 0
-1075 -175 0
-1075 50 0
-1075 -172 185 0
-1075 -173 186 0
-1075 -174 187 0
-1075 -270 0
-1076 265 0
-1076 -30 -172 -169 0
-1076 -30 -173 -170 0
-1076 -30 -174 -171 0
-1076 35 36 0
-1076 -35 -172 1509 416 0
-1076 -35 -173 1509 422 0
-1076 -35 -174 1509 428 0
-1076 -36 -172 1509 416 0
-1076 -36 -173 1509 422 0
-1076 -36 -174 1509 428 0
-1076 -172 -392 0
-1076 -172 -440 0
-1076 -172 -464 0
-1076 -172 -398 0
-1076 -172 -446 0
-1076 -172 -470 0
-1076 -172 -404 0
-1076 -172 -452 0
-1076 -172 -476 0
-1076 -173 -398 0
-1076 -173 -446 0
-1076 -173 -470 0
-1076 -173 -404 0
-1076 -173 -452 0
-1076 -173 -476 0
-1076 -174 -404 0
-1076 -174 -452 0
-1076 -174 -476 0
-1076 -175 0
-1076 51 0
-1076 -172 185 0
-1076 -173 186 0
-1076 -174 187 0
-1076 -270 0
-1077 265 0
-1077 -31 -172 -169 0
-1077 -31 -173 -170 0
-1077 -31 -174 -171 0
-1077 36 37 0
-1077 -36 -172 1510 417 0
-1077 -36 -173 1510 423 0
-1077 -36 -174 1510 429 0
-1077 -37 -172 1510 417 0
-1077 -37 -173 1510 423 0
-1077 -37 -174 1510 429 0
-1077 -172 -393 0
-1077 -172 -441 0
-1077 -172 -465 0
-1077 -172 -399 0
-1077 -172 -447 0
-1077 -172 -471 0
-1077 -172 -405 0
-1077 -172 -453 0
-1077 -172 -477 0
-1077 -173 -399 0
-1077 -173 -447 0
-1077 -173 -471 0
-1077 -173 -405 0
-1077 -173 -453 0
-1077 -173 -477 0
-1077 -174 -405 0
-1077 -174 -453 0
-1077 -174 -477 0
-1077 -175 0
-1077 52 0
-1077 -172 185 0
-1077 -173 186 0
-1077 -174 187 0
-1077 -270 0
-1078 265 0
-1078 -32 -172 -169 0
-1078 -32 -173 -170 0
-1078 -32 -174 -171 0
-1078 37 38 0
-1078 -37 -172 1511 418 0
-1078 -37 -173 1511 424 0
-1078 -37 -174 1511 430 0
-1078 -38 -172 1511 418 0
-1078 -38 -173 1511 424 0
-1078 -38 -174 1511 430 0
-1078 -172 -394 0
-1078 -172 -442 0
-1078 -172 -466 0
-1078 -172 -400 0
-1078 -172 -448 0
-1078 -172 -472 0
-1078 -172 -406 0
-1078 -172 -454 0
-1078 -172 -478 0
-1078 -173 -400 0
-1078 -173 -448 0
-1078 -173 -472 0
-1078 -173 -406 0
-1078 -173 -454 0
-1078 -173 -478 0
-1078 -174 -406 0
-1078 -174 -454 0
-1078 -174 -478 0
-1078 -175 0
-1078 53 0
-1078 -172 185 0
-1078 -173 186 0
-1078 -174 187 0
-1078 -270 0
-1079 265 0
-1079 -33 -172 -169 0
-1079 -33 -173 -170 0
-1079 -33 -174 -171 0
-1079 38 0
-1079 -38 -172 1512 419 0
-1079 -38 -173 1512 425 0
-1079 -38 -174 1512 431 0
-1079 -172 -395 0
-1079 -172 -443 0
-1079 -172 -467 0
-1079 -172 -401 0
-1079 -172 -449 0
-1079 -172 -473 0
-1079 -172 -407 0
-1079 -172 -455 0
-1079 -172 -479 0
-1079 -173 -401 0
-1079 -173 -449 0
-1079 -173 -473 0
-1079 -173 -407 0
-1079 -173 -455 0
-1079 -173 -479 0
-1079 -174 -407 0
-1079 -174 -455 0
-1079 -174 -479 0
-1079 -175 0
-1079 54 0
-1079 -172 185 0
-1079 -173 186 0
-1079 -174 187 0
-1079 -270 0
-1080 265 0
-1080 -28 -176 -169 0
-1080 -28 -177 -170 0
-1080 -28 -178 -171 0
-1080 39 0
-1080 -39 -176 1513 414 0
-1080 -39 -177 1513 420 0
-1080 -39 -178 1513 426 0
-1080 -176 -390 0
-1080 -176 -438 0
-1080 -176 -462 0
-1080 -176 -396 0
-1080 -176 -444 0
-1080 -176 -468 0
-1080 -176 -402 0
-1080 -176 -450 0
-1080 -176 -474 0
-1080 -177 -396 0
-1080 -177 -444 0
-1080 -177 -468 0
-1080 -177 -402 0
-1080 -177 -450 0
-1080 -177 -474 0
-1080 -178 -402 0
-1080 -178 -450 0
-1080 -178 -474 0
-1080 -179 0
-1080 49 0
-1080 -176 185 0
-1080 -177 186 0
-1080 -178 187 0
-1080 -271 0
-1081 265 0
-1081 -29 -176 -169 0
-1081 -29 -177 -170 0
-1081 -29 -178 -171 0
-1081 39 40 0
-1081 -39 -176 1514 415 0
-1081 -39 -177 1514 421 0
-1081 -39 -178 1514 427 0
-1081 -40 -176 1514 415 0
-1081 -40 -177 1514 421 0
-1081 -40 -178 1514 427 0
-1081 -176 -391 0
-1081 -176 -439 0
-1081 -176 -463 0
-1081 -176 -397 0
-1081 -176 -445 0
-1081 -176 -469 0
-1081 -176 -403 0
-1081 -176 -451 0
-1081 -176 -475 0
-1081 -177 -397 0
-1081 -177 -445 0
-1081 -177 -469 0
-1081 -177 -403 0
-1081 -177 -451 0
-1081 -177 -475 0
-1081 -178 -403 0
-1081 -178 -451 0
-1081 -178 -475 0
-1081 -179 0
-1081 50 0
-1081 -176 185 0
-1081 -177 186 0
-1081 -178 187 0
-1081 -271 0
-1082 265 0
-1082 -30 -176 -169 0
-1082 -30 -177 -170 0
-1082 -30 -178 -171 0
-1082 39 40 41 0
-1082 -39 -176 1515 416 0
-1082 -39 -177 1515 422 0
-1082 -39 -178 1515 428 0
-1082 -40 -176 1515 416 0
-1082 -40 -177 1515 422 0
-1082 -40 -178 1515 428 0
-1082 -41 -176 1515 416 0
-1082 -41 -177 1515 422 0
-1082 -41 -178 1515 428 0
-1082 -176 -392 0
-1082 -176 -440 0
-1082 -176 -464 0
-1082 -176 -398 0
-1082 -176 -446 0
-1082 -176 -470 0
-1082 -176 -404 0
-1082 -176 -452 0
-1082 -176 -476 0
-1082 -177 -398 0
-1082 -177 -446 0
-1082 -177 -470 0
-1082 -177 -404 0
-1082 -177 -452 0
-1082 -177 -476 0
-1082 -178 -404 0
-1082 -178 -452 0
-1082 -178 -476 0
-1082 -179 0
-1082 51 0
-1082 -176 185 0
-1082 -177 186 0
-1082 -178 187 0
-1082 -271 0
-1083 265 0
-1083 -31 -176 -169 0
-1083 -31 -177 -170 0
-1083 -31 -178 -171 0
-1083 40 41 42 0
-1083 -40 -176 1516 417 0
-1083 -40 -177 1516 423 0
-1083 -40 -178 1516 429 0
-1083 -41 -176 1516 417 0
-1083 -41 -177 1516 423 0
-1083 -41 -178 1516 429 0
-1083 -42 -176 1516 417 0
-1083 -42 -177 1516 423 0
-1083 -42 -178 1516 429 0
-1083 -176 -393 0
-1083 -176 -441 0
-1083 -176 -465 0
-1083 -176 -399 0
-1083 -176 -447 0
-1083 -176 -471 0
-1083 -176 -405 0
-1083 -176 -453 0
-1083 -176 -477 0
-1083 -177 -399 0
-1083 -177 -447 0
-1083 -177 -471 0
-1083 -177 -405 0
-1083 -177 -453 0
-1083 -177 -477 0
-1083 -178 -405 0
-1083 -178 -453 0
-1083 -178 -477 0
-1083 -179 0
-1083 52 0
-1083 -176 185 0
-1083 -177 186 0
-1083 -178 187 0
-1083 -271 0
-1084 265 0
-1084 -32 -176 -169 0
-1084 -32 -177 -170 0
-1084 -32 -178 -171 0
-1084 41 42 0
-1084 -41 -176 1517 418 0
-1084 -41 -177 1517 424 0
-1084 -41 -178 1517 430 0
-1084 -42 -176 1517 418 0
-1084 -42 -177 1517 424 0
-1084 -42 -178 1517 430 0
-1084 -176 -394 0
-1084 -176 -442 0
-1084 -176 -466 0
-1084 -176 -400 0
-1084 -176 -448 0
-1084 -176 -472 0
-1084 -176 -406 0
-1084 -176 -454 0
-1084 -176 -478 0
-1084 -177 -400 0
-1084 -177 -448 0
-1084 -177 -472 0
-1084 -177 -406 0
-1084 -177 -454 0
-1084 -177 -478 0
-1084 -178 -406 0
-1084 -178 -454 0
-1084 -178 -478 0
-1084 -179 0
-1084 53 0
-1084 -176 185 0
-1084 -177 186 0
-1084 -178 187 0
-1084 -271 0
-1085 265 0
-1085 -33 -176 -169 0
-1085 -33 -177 -170 0
-1085 -33 -178 -171 0
-1085 42 0
-1085 -42 -176 1518 419 0
-1085 -42 -177 1518 425 0
-1085 -42 -178 1518 431 0
-1085 -176 -395 0
-1085 -176 -443 0
-1085 -176 -467 0
-1085 -176 -401 0
-1085 -176 -449 0
-1085 -176 -473 0
-1085 -176 -407 0
-1085 -176 -455 0
-1085 -176 -479 0
-1085 -177 -401 0
-1085 -177 -449 0
-1085 -177 -473 0
-1085 -177 -407 0
-1085 -177 -455 0
-1085 -177 -479 0
-1085 -178 -407 0
-1085 -178 -455 0
-1085 -178 -479 0
-1085 -179 0
-1085 54 0
-1085 -176 185 0
-1085 -177 186 0
-1085 -178 187 0
-1085 -271 0
-1086 265 0
-1086 -28 -168 0
-1086 -384 0
-1086 -432 0
-1086 -456 0
-1086 -390 0
-1086 -438 0
-1086 -462 0
-1086 -396 0
-1086 -444 0
-1086 -468 0
-1086 -402 0
-1086 -450 0
-1086 -474 0
-1086 49 0
-1086 184 0
-1087 265 0
-1087 -29 -168 0
-1087 -385 0
-1087 -433 0
-1087 -457 0
-1087 -391 0
-1087 -439 0
-1087 -463 0
-1087 -397 0
-1087 -445 0
-1087 -469 0
-1087 -403 0
-1087 -451 0
-1087 -475 0
-1087 50 0
-1087 184 0
-1088 265 0
-1088 -30 -168 0
-1088 -386 0
-1088 -434 0
-1088 -458 0
-1088 -392 0
-1088 -440 0
-1088 -464 0
-1088 -398 0
-1088 -446 0
-1088 -470 0
-1088 -404 0
-1088 -452 0
-1088 -476 0
-1088 51 0
-1088 184 0
-1089 265 0
-1089 -31 -168 0
-1089 -387 0
-1089 -435 0
-1089 -459 0
-1089 -393 0
-1089 -441 0
-1089 -465 0
-1089 -399 0
-1089 -447 0
-1089 -471 0
-1089 -405 0
-1089 -453 0
-1089 -477 0
-1089 52 0
-1089 184 0
-1090 265 0
-1090 -32 -168 0
-1090 -388 0
-1090 -436 0
-1090 -460 0
-1090 -394 0
-1090 -442 0
-1090 -466 0
-1090 -400 0
-1090 -448 0
-1090 -472 0
-1090 -406 0
-1090 -454 0
-1090 -478 0
-1090 53 0
-1090 184 0
-1091 265 0
-1091 -33 -168 0
-1091 -389 0
-1091 -437 0
-1091 -461 0
-1091 -395 0
-1091 -443 0
-1091 -467 0
-1091 -401 0
-1091 -449 0
-1091 -473 0
-1091 -407 0
-1091 -455 0
-1091 -479 0
-1091 54 0
-1091 184 0
-1092 266 0
-1092 -34 -164 -173 0
-1092 -34 -165 -174 0
-1092 -34 -166 -175 0
-1092 22 23 0
-1092 -22 -164 1495 438 0
-1092 -22 -165 1495 444 0
-1092 -22 -166 1495 450 0
-1092 -23 -164 1496 439 0
-1092 -23 -165 1496 445 0
-1092 -23 -166 1496 451 0
-1092 -164 -390 0
-1092 -164 -414 0
-1092 -164 -462 0
-1092 -164 -396 0
-1092 -164 -420 0
-1092 -164 -468 0
-1092 -164 -402 0
-1092 -164 -426 0
-1092 -164 -474 0
-1092 -164 -391 0
-1092 -164 -415 0
-1092 -164 -463 0
-1092 -164 -397 0
-1092 -164 -421 0
-1092 -164 -469 0
-1092 -164 -403 0
-1092 -164 -427 0
-1092 -164 -475 0
-1092 -165 -396 0
-1092 -165 -420 0
-1092 -165 -468 0
-1092 -165 -402 0
-1092 -165 -426 0
-1092 -165 -474 0
-1092 -165 -397 0
-1092 -165 -421 0
-1092 -165 -469 0
-1092 -165 -403 0
-1092 -165 -427 0
-1092 -165 -475 0
-1092 -166 -402 0
-1092 -166 -426 0
-1092 -166 -474 0
-1092 -166 -403 0
-1092 -166 -427 0
-1092 -166 -475 0
-1092 -167 0
-1092 55 0
-1092 -164 189 0
-1092 -165 190 0
-1092 -166 191 0
-1092 -268 0
-1093 266 0
-1093 -35 -164 -173 0
-1093 -35 -165 -174 0
-1093 -35 -166 -175 0
-1093 23 24 0
-1093 -23 -164 1496 439 0
-1093 -23 -165 1496 445 0
-1093 -23 -166 1496 451 0
-1093 -24 -164 1497 440 0
-1093 -24 -165 1497 446 0
-1093 -24 -166 1497 452 0
-1093 -164 -391 0
-1093 -164 -415 0
-1093 -164 -463 0
-1093 -164 -397 0
-1093 -164 -421 0
-1093 -164 -469 0
-1093 -164 -403 0
-1093 -164 -427 0
-1093 -164 -475 0
-1093 -164 -392 0
-1093 -164 -416 0
-1093 -164 -464 0
-1093 -164 -398 0
-1093 -164 -422 0
-1093 -164 -470 0
-1093 -164 -404 0
-1093 -164 -428 0
-1093 -164 -476 0
-1093 -165 -397 0
-1093 -165 -421 0
-1093 -165 -469 0
-1093 -165 -403 0
-1093 -165 -427 0
-1093 -165 -475 0
-1093 -165 -398 0
-1093 -165 -422 0
-1093 -165 -470 0
-1093 -165 -404 0
-1093 -165 -428 0
-1093 -165 -476 0
-1093 -166 -403 0
-1093 -166 -427 0
-1093 -166 -475 0
-1093 -166 -404 0
-1093 -166 -428 0
-1093 -166 -476 0
-1093 -167 0
-1093 56 0
-1093 -164 189 0
-1093 -165 190 0
-1093 -166 191 0
-1093 -268 0
-1094 266 0
-1094 -36 -164 -173 0
-1094 -36 -165 -174 0
-1094 -36 -166 -175 0
-1094 24 25 0
-1094 -24 -164 1497 440 0
-1094 -24 -165 1497 446 0
-1094 -24 -166 1497 452 0
-1094 -25 -164 1498 441 0
-1094 -25 -165 1498 447 0
-1094 -25 -166 1498 453 0
-1094 -164 -392 0
-1094 -164 -416 0
-1094 -164 -464 0
-1094 -164 -398 0
-1094 -164 -422 0
-1094 -164 -470 0
-1094 -164 -404 0
-1094 -164 -428 0
-1094 -164 -476 0
-1094 -164 -393 0
-1094 -164 -417 0
-1094 -164 -465 0
-1094 -164 -399 0
-1094 -164 -423 0
-1094 -164 -471 0
-1094 -164 -405 0
-1094 -164 -429 0
-1094 -164 -477 0
-1094 -165 -398 0
-1094 -165 -422 0
-1094 -165 -470 0
-1094 -165 -404 0
-1094 -165 -428 0
-1094 -165 -476 0
-1094 -165 -399 0
-1094 -165 -423 0
-1094 -165 -471 0
-1094 -165 -405 0
-1094 -165 -429 0
-1094 -165 -477 0
-1094 -166 -404 0
-1094 -166 -428 0
-1094 -166 -476 0
-1094 -166 -405 0
-1094 -166 -429 0
-1094 -166 -477 0
-1094 -167 0
-1094 57 0
-1094 -164 189 0
-1094 -165 190 0
-1094 -166 191 0
-1094 -268 0
-1095 266 0
-1095 -37 -164 -173 0
-1095 -37 -165 -174 0
-1095 -37 -166 -175 0
-1095 25 26 0
-1095 -25 -164 1498 441 0
-1095 -25 -165 1498 447 0
-1095 -25 -166 1498 453 0
-1095 -26 -164 1499 442 0
-1095 -26 -165 1499 448 0
-1095 -26 -166 1499 454 0
-1095 -164 -393 0
-1095 -164 -417 0
-1095 -164 -465 0
-1095 -164 -399 0
-1095 -164 -423 0
-1095 -164 -471 0
-1095 -164 -405 0
-1095 -164 -429 0
-1095 -164 -477 0
-1095 -164 -394 0
-1095 -164 -418 0
-1095 -164 -466 0
-1095 -164 -400 0
-1095 -164 -424 0
-1095 -164 -472 0
-1095 -164 -406 0
-1095 -164 -430 0
-1095 -164 -478 0
-1095 -165 -399 0
-1095 -165 -423 0
-1095 -165 -471 0
-1095 -165 -405 0
-1095 -165 -429 0
-1095 -165 -477 0
-1095 -165 -400 0
-1095 -165 -424 0
-1095 -165 -472 0
-1095 -165 -406 0
-1095 -165 -430 0
-1095 -165 -478 0
-1095 -166 -405 0
-1095 -166 -429 0
-1095 -166 -477 0
-1095 -166 -406 0
-1095 -166 -430 0
-1095 -166 -478 0
-1095 -167 0
-1095 58 0
-1095 -164 189 0
-1095 -165 190 0
-1095 -166 191 0
-1095 -268 0
-1096 266 0
-1096 -38 -164 -173 0
-1096 -38 -165 -174 0
-1096 -38 -166 -175 0
-1096 26 27 0
-1096 -26 -164 1499 442 0
-1096 -26 -165 1499 448 0
-1096 -26 -166 1499 454 0
-1096 -27 -164 1500 443 0
-1096 -27 -165 1500 449 0
-1096 -27 -166 1500 455 0
-1096 -164 -394 0
-1096 -164 -418 0
-1096 -164 -466 0
-1096 -164 -400 0
-1096 -164 -424 0
-1096 -164 -472 0
-1096 -164 -406 0
-1096 -164 -430 0
-1096 -164 -478 0
-1096 -164 -395 0
-1096 -164 -419 0
-1096 -164 -467 0
-1096 -164 -401 0
-1096 -164 -425 0
-1096 -164 -473 0
-1096 -164 -407 0
-1096 -164 -431 0
-1096 -164 -479 0
-1096 -165 -400 0
-1096 -165 -424 0
-1096 -165 -472 0
-1096 -165 -406 0
-1096 -165 -430 0
-1096 -165 -478 0
-1096 -165 -401 0
-1096 -165 -425 0
-1096 -165 -473 0
-1096 -165 -407 0
-1096 -165 -431 0
-1096 -165 -479 0
-1096 -166 -406 0
-1096 -166 -430 0
-1096 -166 -478 0
-1096 -166 -407 0
-1096 -166 -431 0
-1096 -166 -479 0
-1096 -167 0
-1096 59 0
-1096 -164 189 0
-1096 -165 190 0
-1096 -166 191 0
-1096 -268 0
-1097 266 0
-1097 -34 -168 -173 0
-1097 -34 -169 -174 0
-1097 -34 -170 -175 0
-1097 28 29 0
-1097 -28 -168 1501 438 0
-1097 -28 -169 1501 444 0
-1097 -28 -170 1501 450 0
-1097 -29 -168 1502 439 0
-1097 -29 -169 1502 445 0
-1097 -29 -170 1502 451 0
-1097 -168 -390 0
-1097 -168 -414 0
-1097 -168 -462 0
-1097 -168 -396 0
-1097 -168 -420 0
-1097 -168 -468 0
-1097 -168 -402 0
-1097 -168 -426 0
-1097 -168 -474 0
-1097 -168 -391 0
-1097 -168 -415 0
-1097 -168 -463 0
-1097 -168 -397 0
-1097 -168 -421 0
-1097 -168 -469 0
-1097 -168 -403 0
-1097 -168 -427 0
-1097 -168 -475 0
-1097 -169 -396 0
-1097 -169 -420 0
-1097 -169 -468 0
-1097 -169 -402 0
-1097 -169 -426 0
-1097 -169 -474 0
-1097 -169 -397 0
-1097 -169 -421 0
-1097 -169 -469 0
-1097 -169 -403 0
-1097 -169 -427 0
-1097 -169 -475 0
-1097 -170 -402 0
-1097 -170 -426 0
-1097 -170 -474 0
-1097 -170 -403 0
-1097 -170 -427 0
-1097 -170 -475 0
-1097 -171 0
-1097 55 0
-1097 -168 189 0
-1097 -169 190 0
-1097 -170 191 0
-1097 -269 0
-1098 266 0
-1098 -35 -168 -173 0
-1098 -35 -169 -174 0
-1098 -35 -170 -175 0
-1098 29 30 0
-1098 -29 -168 1502 439 0
-1098 -29 -169 1502 445 0
-1098 -29 -170 1502 451 0
-1098 -30 -168 1503 440 0
-1098 -30 -169 1503 446 0
-1098 -30 -170 1503 452 0
-1098 -168 -391 0
-1098 -168 -415 0
-1098 -168 -463 0
-1098 -168 -397 0
-1098 -168 -421 0
-1098 -168 -469 0
-1098 -168 -403 0
-1098 -168 -427 0
-1098 -168 -475 0
-1098 -168 -392 0
-1098 -168 -416 0
-1098 -168 -464 0
-1098 -168 -398 0
-1098 -168 -422 0
-1098 -168 -470 0
-1098 -168 -404 0
-1098 -168 -428 0
-1098 -168 -476 0
-1098 -169 -397 0
-1098 -169 -421 0
-1098 -169 -469 0
-1098 -169 -403 0
-1098 -169 -427 0
-1098 -169 -475 0
-1098 -169 -398 0
-1098 -169 -422 0
-1098 -169 -470 0
-1098 -169 -404 0
-1098 -169 -428 0
-1098 -169 -476 0
-1098 -170 -403 0
-1098 -170 -427 0
-1098 -170 -475 0
-1098 -170 -404 0
-1098 -170 -428 0
-1098 -170 -476 0
-1098 -171 0
-1098 56 0
-1098 -168 189 0
-1098 -169 190 0
-1098 -170 191 0
-1098 -269 0
-1099 266 0
-1099 -36 -168 -173 0
-1099 -36 -169 -174 0
-1099 -36 -170 -175 0
-1099 30 31 0
-1099 -30 -168 1503 440 0
-1099 -30 -169 1503 446 0
-1099 -30 -170 1503 452 0
-1099 -31 -168 1504 441 0
-1099 -31 -169 1504 447 0
-1099 -31 -170 1504 453 0
-1099 -168 -392 0
-1099 -168 -416 0
-1099 -168 -464 0
-1099 -168 -398 0
-1099 -168 -422 0
-1099 -168 -470 0
-1099 -168 -404 0
-1099 -168 -428 0
-1099 -168 -476 0
-1099 -168 -393 0
-1099 -168 -417 0
-1099 -168 -465 0
-1099 -168 -399 0
-1099 -168 -423 0
-1099 -168 -471 0
-1099 -168 -405 0
-1099 -168 -429 0
-1099 -168 -477 0
-1099 -169 -398 0
-1099 -169 -422 0
-1099 -169 -470 0
-1099 -169 -404 0
-1099 -169 -428 0
-1099 -169 -476 0
-1099 -169 -399 0
-1099 -169 -423 0
-1099 -169 -471 0
-1099 -169 -405 0
-1099 -169 -429 0
-1099 -169 -477 0
-1099 -170 -404 0
-1099 -170 -428 0
-1099 -170 -476 0
-1099 -170 -405 0
-1099 -170 -429 0
-1099 -170 -477 0
-1099 -171 0
-1099 57 0
-1099 -168 189 0
-1099 -169 190 0
-1099 -170 191 0
-1099 -269 0
-1100 266 0
-1100 -37 -168 -173 0
-1100 -37 -169 -174 0
-1100 -37 -170 -175 0
-1100 31 32 0
-1100 -31 -168 1504 441 0
-1100 -31 -169 1504 447 0
-1100 -31 -170 1504 453 0
-1100 -32 -168 1505 442 0
-1100 -32 -169 1505 448 0
-1100 -32 -170 1505 454 0
-1100 -168 -393 0
-1100 -168 -417 0
-1100 -168 -465 0
-1100 -168 -399 0
-1100 -168 -423 0
-1100 -168 -471 0
-1100 -168 -405 0
-1100 -168 -429 0
-1100 -168 -477 0
-1100 -168 -394 0
-1100 -168 -418 0
-1100 -168 -466 0
-1100 -168 -400 0
-1100 -168 -424 0
-1100 -168 -472 0
-1100 -168 -406 0
-1100 -168 -430 0
-1100 -168 -478 0
-1100 -169 -399 0
-1100 -169 -423 0
-1100 -169 -471 0
-1100 -169 -405 0
-1100 -169 -429 0
-1100 -169 -477 0
-1100 -169 -400 0
-1100 -169 -424 0
-1100 -169 -472 0
-1100 -169 -406 0
-1100 -169 -430 0
-1100 -169 -478 0
-1100 -170 -405 0
-1100 -170 -429 0
-1100 -170 -477 0
-1100 -170 -406 0
-1100 -170 -430 0
-1100 -170 -478 0
-1100 -171 0
-1100 58 0
-1100 -168 189 0
-1100 -169 190 0
-1100 -170 191 0
-1100 -269 0
-1101 266 0
-1101 -38 -168 -173 0
-1101 -38 -169 -174 0
-1101 -38 -170 -175 0
-1101 32 33 0
-1101 -32 -168 1505 442 0
-1101 -32 -169 1505 448 0
-1101 -32 -170 1505 454 0
-1101 -33 -168 1506 443 0
-1101 -33 -169 1506 449 0
-1101 -33 -170 1506 455 0
-1101 -168 -394 0
-1101 -168 -418 0
-1101 -168 -466 0
-1101 -168 -400 0
-1101 -168 -424 0
-1101 -168 -472 0
-1101 -168 -406 0
-1101 -168 -430 0
-1101 -168 -478 0
-1101 -168 -395 0
-1101 -168 -419 0
-1101 -168 -467 0
-1101 -168 -401 0
-1101 -168 -425 0
-1101 -168 -473 0
-1101 -168 -407 0
-1101 -168 -431 0
-1101 -168 -479 0
-1101 -169 -400 0
-1101 -169 -424 0
-1101 -169 -472 0
-1101 -169 -406 0
-1101 -169 -430 0
-1101 -169 -478 0
-1101 -169 -401 0
-1101 -169 -425 0
-1101 -169 -473 0
-1101 -169 -407 0
-1101 -169 -431 0
-1101 -169 -479 0
-1101 -170 -406 0
-1101 -170 -430 0
-1101 -170 -478 0
-1101 -170 -407 0
-1101 -170 -431 0
-1101 -170 -479 0
-1101 -171 0
-1101 59 0
-1101 -168 189 0
-1101 -169 190 0
-1101 -170 191 0
-1101 -269 0
-1102 266 0
-1102 -34 -176 -173 0
-1102 -34 -177 -174 0
-1102 -34 -178 -175 0
-1102 39 40 0
-1102 -39 -176 1513 438 0
-1102 -39 -177 1513 444 0
-1102 -39 -178 1513 450 0
-1102 -39 -176 1514 439 0
-1102 -39 -177 1514 445 0
-1102 -39 -178 1514 451 0
-1102 -40 -176 1514 439 0
-1102 -40 -177 1514 445 0
-1102 -40 -178 1514 451 0
-1102 -176 -390 0
-1102 -176 -414 0
-1102 -176 -462 0
-1102 -176 -396 0
-1102 -176 -420 0
-1102 -176 -468 0
-1102 -176 -402 0
-1102 -176 -426 0
-1102 -176 -474 0
-1102 -176 -391 0
-1102 -176 -415 0
-1102 -176 -463 0
-1102 -176 -397 0
-1102 -176 -421 0
-1102 -176 -469 0
-1102 -176 -403 0
-1102 -176 -427 0
-1102 -176 -475 0
-1102 -177 -396 0
-1102 -177 -420 0
-1102 -177 -468 0
-1102 -177 -402 0
-1102 -177 -426 0
-1102 -177 -474 0
-1102 -177 -397 0
-1102 -177 -421 0
-1102 -177 -469 0
-1102 -177 -403 0
-1102 -177 -427 0
-1102 -177 -475 0
-1102 -178 -402 0
-1102 -178 -426 0
-1102 -178 -474 0
-1102 -178 -403 0
-1102 -178 -427 0
-1102 -178 -475 0
-1102 -179 0
-1102 55 0
-1102 -176 189 0
-1102 -177 190 0
-1102 -178 191 0
-1102 -271 0
-1103 266 0
-1103 -35 -176 -173 0
-1103 -35 -177 -174 0
-1103 -35 -178 -175 0
-1103 39 40 41 0
-1103 -39 -176 1514 439 0
-1103 -39 -177 1514 445 0
-1103 -39 -178 1514 451 0
-1103 -39 -176 1515 440 0
-1103 -39 -177 1515 446 0
-1103 -39 -178 1515 452 0
-1103 -40 -176 1514 439 0
-1103 -40 -177 1514 445 0
-1103 -40 -178 1514 451 0
-1103 -40 -176 1515 440 0
-1103 -40 -177 1515 446 0
-1103 -40 -178 1515 452 0
-1103 -41 -176 1515 440 0
-1103 -41 -177 1515 446 0
-1103 -41 -178 1515 452 0
-1103 -176 -391 0
-1103 -176 -415 0
-1103 -176 -463 0
-1103 -176 -397 0
-1103 -176 -421 0
-1103 -176 -469 0
-1103 -176 -403 0
-1103 -176 -427 0
-1103 -176 -475 0
-1103 -176 -392 0
-1103 -176 -416 0
-1103 -176 -464 0
-1103 -176 -398 0
-1103 -176 -422 0
-1103 -176 -470 0
-1103 -176 -404 0
-1103 -176 -428 0
-1103 -176 -476 0
-1103 -177 -397 0
-1103 -177 -421 0
-1103 -177 -469 0
-1103 -177 -403 0
-1103 -177 -427 0
-1103 -177 -475 0
-1103 -177 -398 0
-1103 -177 -422 0
-1103 -177 -470 0
-1103 -177 -404 0
-1103 -177 -428 0
-1103 -177 -476 0
-1103 -178 -403 0
-1103 -178 -427 0
-1103 -178 -475 0
-1103 -178 -404 0
-1103 -178 -428 0
-1103 -178 -476 0
-1103 -179 0
-1103 56 0
-1103 -176 189 0
-1103 -177 190 0
-1103 -178 191 0
-1103 -271 0
-1104 266 0
-1104 -36 -176 -173 0
-1104 -36 -177 -174 0
-1104 -36 -178 -175 0
-1104 39 40 41 42 0
-1104 -39 -176 1515 440 0
-1104 -39 -177 1515 446 0
-1104 -39 -178 1515 452 0
-1104 -40 -176 1515 440 0
-1104 -40 -177 1515 446 0
-1104 -40 -178 1515 452 0
-1104 -40 -176 1516 441 0
-1104 -40 -177 1516 447 0
-1104 -40 -178 1516 453 0
-1104 -41 -176 1515 440 0
-1104 -41 -177 1515 446 0
-1104 -41 -178 1515 452 0
-1104 -41 -176 1516 441 0
-1104 -41 -177 1516 447 0
-1104 -41 -178 1516 453 0
-1104 -42 -176 1516 441 0
-1104 -42 -177 1516 447 0
-1104 -42 -178 1516 453 0
-1104 -176 -392 0
-1104 -176 -416 0
-1104 -176 -464 0
-1104 -176 -398 0
-1104 -176 -422 0
-1104 -176 -470 0
-1104 -176 -404 0
-1104 -176 -428 0
-1104 -176 -476 0
-1104 -176 -393 0
-1104 -176 -417 0
-1104 -176 -465 0
-1104 -176 -399 0
-1104 -176 -423 0
-1104 -176 -471 0
-1104 -176 -405 0
-1104 -176 -429 0
-1104 -176 -477 0
-1104 -177 -398 0
-1104 -177 -422 0
-1104 -177 -470 0
-1104 -177 -404 0
-1104 -177 -428 0
-1104 -177 -476 0
-1104 -177 -399 0
-1104 -177 -423 0
-1104 -177 -471 0
-1104 -177 -405 0
-1104 -177 -429 0
-1104 -177 -477 0
-1104 -178 -404 0
-1104 -178 -428 0
-1104 -178 -476 0
-1104 -178 -405 0
-1104 -178 -429 0
-1104 -178 -477 0
-1104 -179 0
-1104 57 0
-1104 -176 189 0
-1104 -177 190 0
-1104 -178 191 0
-1104 -271 0
-1105 266 0
-1105 -37 -176 -173 0
-1105 -37 -177 -174 0
-1105 -37 -178 -175 0
-1105 40 41 42 0
-1105 -40 -176 1516 441 0
-1105 -40 -177 1516 447 0
-1105 -40 -178 1516 453 0
-1105 -41 -176 1516 441 0
-1105 -41 -177 1516 447 0
-1105 -41 -178 1516 453 0
-1105 -41 -176 1517 442 0
-1105 -41 -177 1517 448 0
-1105 -41 -178 1517 454 0
-1105 -42 -176 1516 441 0
-1105 -42 -177 1516 447 0
-1105 -42 -178 1516 453 0
-1105 -42 -176 1517 442 0
-1105 -42 -177 1517 448 0
-1105 -42 -178 1517 454 0
-1105 -176 -393 0
-1105 -176 -417 0
-1105 -176 -465 0
-1105 -176 -399 0
-1105 -176 -423 0
-1105 -176 -471 0
-1105 -176 -405 0
-1105 -176 -429 0
-1105 -176 -477 0
-1105 -176 -394 0
-1105 -176 -418 0
-1105 -176 -466 0
-1105 -176 -400 0
-1105 -176 -424 0
-1105 -176 -472 0
-1105 -176 -406 0
-1105 -176 -430 0
-1105 -176 -478 0
-1105 -177 -399 0
-1105 -177 -423 0
-1105 -177 -471 0
-1105 -177 -405 0
-1105 -177 -429 0
-1105 -177 -477 0
-1105 -177 -400 0
-1105 -177 -424 0
-1105 -177 -472 0
-1105 -177 -406 0
-1105 -177 -430 0
-1105 -177 -478 0
-1105 -178 -405 0
-1105 -178 -429 0
-1105 -178 -477 0
-1105 -178 -406 0
-1105 -178 -430 0
-1105 -178 -478 0
-1105 -179 0
-1105 58 0
-1105 -176 189 0
-1105 -177 190 0
-1105 -178 191 0
-1105 -271 0
-1106 266 0
-1106 -38 -176 -173 0
-1106 -38 -177 -174 0
-1106 -38 -178 -175 0
-1106 41 42 0
-1106 -41 -176 1517 442 0
-1106 -41 -177 1517 448 0
-1106 -41 -178 1517 454 0
-1106 -42 -176 1517 442 0
-1106 -42 -177 1517 448 0
-1106 -42 -178 1517 454 0
-1106 -42 -176 1518 443 0
-1106 -42 -177 1518 449 0
-1106 -42 -178 1518 455 0
-1106 -176 -394 0
-1106 -176 -418 0
-1106 -176 -466 0
-1106 -176 -400 0
-1106 -176 -424 0
-1106 -176 -472 0
-1106 -176 -406 0
-1106 -176 -430 0
-1106 -176 -478 0
-1106 -176 -395 0
-1106 -176 -419 0
-1106 -176 -467 0
-1106 -176 -401 0
-1106 -176 -425 0
-1106 -176 -473 0
-1106 -176 -407 0
-1106 -176 -431 0
-1106 -176 -479 0
-1106 -177 -400 0
-1106 -177 -424 0
-1106 -177 -472 0
-1106 -177 -406 0
-1106 -177 -430 0
-1106 -177 -478 0
-1106 -177 -401 0
-1106 -177 -425 0
-1106 -177 -473 0
-1106 -177 -407 0
-1106 -177 -431 0
-1106 -177 -479 0
-1106 -178 -406 0
-1106 -178 -430 0
-1106 -178 -478 0
-1106 -178 -407 0
-1106 -178 -431 0
-1106 -178 -479 0
-1106 -179 0
-1106 59 0
-1106 -176 189 0
-1106 -177 190 0
-1106 -178 191 0
-1106 -271 0
-1107 266 0
-1107 -34 -172 0
-1107 -384 0
-1107 -408 0
-1107 -456 0
-1107 -390 0
-1107 -414 0
-1107 -462 0
-1107 -396 0
-1107 -420 0
-1107 -468 0
-1107 -402 0
-1107 -426 0
-1107 -474 0
-1107 -385 0
-1107 -409 0
-1107 -457 0
-1107 -391 0
-1107 -415 0
-1107 -463 0
-1107 -397 0
-1107 -421 0
-1107 -469 0
-1107 -403 0
-1107 -427 0
-1107 -475 0
-1107 55 0
-1107 188 0
-1108 266 0
-1108 -35 -172 0
-1108 -385 0
-1108 -409 0
-1108 -457 0
-1108 -391 0
-1108 -415 0
-1108 -463 0
-1108 -397 0
-1108 -421 0
-1108 -469 0
-1108 -403 0
-1108 -427 0
-1108 -475 0
-1108 -386 0
-1108 -410 0
-1108 -458 0
-1108 -392 0
-1108 -416 0
-1108 -464 0
-1108 -398 0
-1108 -422 0
-1108 -470 0
-1108 -404 0
-1108 -428 0
-1108 -476 0
-1108 56 0
-1108 188 0
-1109 266 0
-1109 -36 -172 0
-1109 -386 0
-1109 -410 0
-1109 -458 0
-1109 -392 0
-1109 -416 0
-1109 -464 0
-1109 -398 0
-1109 -422 0
-1109 -470 0
-1109 -404 0
-1109 -428 0
-1109 -476 0
-1109 -387 0
-1109 -411 0
-1109 -459 0
-1109 -393 0
-1109 -417 0
-1109 -465 0
-1109 -399 0
-1109 -423 0
-1109 -471 0
-1109 -405 0
-1109 -429 0
-1109 -477 0
-1109 57 0
-1109 188 0
-1110 266 0
-1110 -37 -172 0
-1110 -387 0
-1110 -411 0
-1110 -459 0
-1110 -393 0
-1110 -417 0
-1110 -465 0
-1110 -399 0
-1110 -423 0
-1110 -471 0
-1110 -405 0
-1110 -429 0
-1110 -477 0
-1110 -388 0
-1110 -412 0
-1110 -460 0
-1110 -394 0
-1110 -418 0
-1110 -466 0
-1110 -400 0
-1110 -424 0
-1110 -472 0
-1110 -406 0
-1110 -430 0
-1110 -478 0
-1110 58 0
-1110 188 0
-1111 266 0
-1111 -38 -172 0
-1111 -388 0
-1111 -412 0
-1111 -460 0
-1111 -394 0
-1111 -418 0
-1111 -466 0
-1111 -400 0
-1111 -424 0
-1111 -472 0
-1111 -406 0
-1111 -430 0
-1111 -478 0
-1111 -389 0
-1111 -413 0
-1111 -461 0
-1111 -395 0
-1111 -419 0
-1111 -467 0
-1111 -401 0
-1111 -425 0
-1111 -473 0
-1111 -407 0
-1111 -431 0
-1111 -479 0
-1111 59 0
-1111 188 0
-1112 267 0
-1112 -39 -164 -177 0
-1112 -39 -165 -178 0
-1112 -39 -166 -179 0
-1112 22 23 24 0
-1112 -22 -164 1495 462 0
-1112 -22 -165 1495 468 0
-1112 -22 -166 1495 474 0
-1112 -23 -164 1496 463 0
-1112 -23 -165 1496 469 0
-1112 -23 -166 1496 475 0
-1112 -24 -164 1497 464 0
-1112 -24 -165 1497 470 0
-1112 -24 -166 1497 476 0
-1112 -164 -390 0
-1112 -164 -414 0
-1112 -164 -438 0
-1112 -164 -396 0
-1112 -164 -420 0
-1112 -164 -444 0
-1112 -164 -402 0
-1112 -164 -426 0
-1112 -164 -450 0
-1112 -164 -391 0
-1112 -164 -415 0
-1112 -164 -439 0
-1112 -164 -397 0
-1112 -164 -421 0
-1112 -164 -445 0
-1112 -164 -403 0
-1112 -164 -427 0
-1112 -164 -451 0
-1112 -164 -392 0
-1112 -164 -416 0
-1112 -164 -440 0
-1112 -164 -398 0
-1112 -164 -422 0
-1112 -164 -446 0
-1112 -164 -404 0
-1112 -164 -428 0
-1112 -164 -452 0
-1112 -165 -396 0
-1112 -165 -420 0
-1112 -165 -444 0
-1112 -165 -402 0
-1112 -165 -426 0
-1112 -165 -450 0
-1112 -165 -397 0
-1112 -165 -421 0
-1112 -165 -445 0
-1112 -165 -403 0
-1112 -165 -427 0
-1112 -165 -451 0
-1112 -165 -398 0
-1112 -165 -422 0
-1112 -165 -446 0
-1112 -165 -404 0
-1112 -165 -428 0
-1112 -165 -452 0
-1112 -166 -402 0
-1112 -166 -426 0
-1112 -166 -450 0
-1112 -166 -403 0
-1112 -166 -427 0
-1112 -166 -451 0
-1112 -166 -404 0
-1112 -166 -428 0
-1112 -166 -452 0
-1112 -167 0
-1112 60 0
-1112 -164 193 0
-1112 -165 194 0
-1112 -166 195 0
-1112 -268 0
-1113 267 0
-1113 -40 -164 -177 0
-1113 -40 -165 -178 0
-1113 -40 -166 -179 0
-1113 23 24 25 0
-1113 -23 -164 1496 463 0
-1113 -23 -165 1496 469 0
-1113 -23 -166 1496 475 0
-1113 -24 -164 1497 464 0
-1113 -24 -165 1497 470 0
-1113 -24 -166 1497 476 0
-1113 -25 -164 1498 465 0
-1113 -25 -165 1498 471 0
-1113 -25 -166 1498 477 0
-1113 -164 -391 0
-1113 -164 -415 0
-1113 -164 -439 0
-1113 -164 -397 0
-1113 -164 -421 0
-1113 -164 -445 0
-1113 -164 -403 0
-1113 -164 -427 0
-1113 -164 -451 0
-1113 -164 -392 0
-1113 -164 -416 0
-1113 -164 -440 0
-1113 -164 -398 0
-1113 -164 -422 0
-1113 -164 -446 0
-1113 -164 -404 0
-1113 -164 -428 0
-1113 -164 -452 0
-1113 -164 -393 0
-1113 -164 -417 0
-1113 -164 -441 0
-1113 -164 -399 0
-1113 -164 -423 0
-1113 -164 -447 0
-1113 -164 -405 0
-1113 -164 -429 0
-1113 -164 -453 0
-1113 -165 -397 0
-1113 -165 -421 0
-1113 -165 -445 0
-1113 -165 -403 0
-1113 -165 -427 0
-1113 -165 -451 0
-1113 -165 -398 0
-1113 -165 -422 0
-1113 -165 -446 0
-1113 -165 -404 0
-1113 -165 -428 0
-1113 -165 -452 0
-1113 -165 -399 0
-1113 -165 -423 0
-1113 -165 -447 0
-1113 -165 -405 0
-1113 -165 -429 0
-1113 -165 -453 0
-1113 -166 -403 0
-1113 -166 -427 0
-1113 -166 -451 0
-1113 -166 -404 0
-1113 -166 -428 0
-1113 -166 -452 0
-1113 -166 -405 0
-1113 -166 -429 0
-1113 -166 -453 0
-1113 -167 0
-1113 61 0
-1113 -164 193 0
-1113 -165 194 0
-1113 -166 195 0
-1113 -268 0
-1114 267 0
-1114 -41 -164 -177 0
-1114 -41 -165 -178 0
-1114 -41 -166 -179 0
-1114 24 25 26 0
-1114 -24 -164 1497 464 0
-1114 -24 -165 1497 470 0
-1114 -24 -166 1497 476 0
-1114 -25 -164 1498 465 0
-1114 -25 -165 1498 471 0
-1114 -25 -166 1498 477 0
-1114 -26 -164 1499 466 0
-1114 -26 -165 1499 472 0
-1114 -26 -166 1499 478 0
-1114 -164 -392 0
-1114 -164 -416 0
-1114 -164 -440 0
-1114 -164 -398 0
-1114 -164 -422 0
-1114 -164 -446 0
-1114 -164 -404 0
-1114 -164 -428 0
-1114 -164 -452 0
-1114 -164 -393 0
-1114 -164 -417 0
-1114 -164 -441 0
-1114 -164 -399 0
-1114 -164 -423 0
-1114 -164 -447 0
-1114 -164 -405 0
-1114 -164 -429 0
-1114 -164 -453 0
-1114 -164 -394 0
-1114 -164 -418 0
-1114 -164 -442 0
-1114 -164 -400 0
-1114 -164 -424 0
-1114 -164 -448 0
-1114 -164 -406 0
-1114 -164 -430 0
-1114 -164 -454 0
-1114 -165 -398 0
-1114 -165 -422 0
-1114 -165 -446 0
-1114 -165 -404 0
-1114 -165 -428 0
-1114 -165 -452 0
-1114 -165 -399 0
-1114 -165 -423 0
-1114 -165 -447 0
-1114 -165 -405 0
-1114 -165 -429 0
-1114 -165 -453 0
-1114 -165 -400 0
-1114 -165 -424 0
-1114 -165 -448 0
-1114 -165 -406 0
-1114 -165 -430 0
-1114 -165 -454 0
-1114 -166 -404 0
-1114 -166 -428 0
-1114 -166 -452 0
-1114 -166 -405 0
-1114 -166 -429 0
-1114 -166 -453 0
-1114 -166 -406 0
-1114 -166 -430 0
-1114 -166 -454 0
-1114 -167 0
-1114 62 0
-1114 -164 193 0
-1114 -165 194 0
-1114 -166 195 0
-1114 -268 0
-1115 267 0
-1115 -42 -164 -177 0
-1115 -42 -165 -178 0
-1115 -42 -166 -179 0
-1115 25 26 27 0
-1115 -25 -164 1498 465 0
-1115 -25 -165 1498 471 0
-1115 -25 -166 1498 477 0
-1115 -26 -164 1499 466 0
-1115 -26 -165 1499 472 0
-1115 -26 -166 1499 478 0
-1115 -27 -164 1500 467 0
-1115 -27 -165 1500 473 0
-1115 -27 -166 1500 479 0
-1115 -164 -393 0
-1115 -164 -417 0
-1115 -164 -441 0
-1115 -164 -399 0
-1115 -164 -423 0
-1115 -164 -447 0
-1115 -164 -405 0
-1115 -164 -429 0
-1115 -164 -453 0
-1115 -164 -394 0
-1115 -164 -418 0
-1115 -164 -442 0
-1115 -164 -400 0
-1115 -164 -424 0
-1115 -164 -448 0
-1115 -164 -406 0
-1115 -164 -430 0
-1115 -164 -454 0
-1115 -164 -395 0
-1115 -164 -419 0
-1115 -164 -443 0
-1115 -164 -401 0
-1115 -164 -425 0
-1115 -164 -449 0
-1115 -164 -407 0
-1115 -164 -431 0
-1115 -164 -455 0
-1115 -165 -399 0
-1115 -165 -423 0
-1115 -165 -447 0
-1115 -165 -405 0
-1115 -165 -429 0
-1115 -165 -453 0
-1115 -165 -400 0
-1115 -165 -424 0
-1115 -165 -448 0
-1115 -165 -406 0
-1115 -165 -430 0
-1115 -165 -454 0
-1115 -165 -401 0
-1115 -165 -425 0
-1115 -165 -449 0
-1115 -165 -407 0
-1115 -165 -431 0
-1115 -165 -455 0
-1115 -166 -405 0
-1115 -166 -429 0
-1115 -166 -453 0
-1115 -166 -406 0
-1115 -166 -430 0
-1115 -166 -454 0
-1115 -166 -407 0
-1115 -166 -431 0
-1115 -166 -455 0
-1115 -167 0
-1115 63 0
-1115 -164 193 0
-1115 -165 194 0
-1115 -166 195 0
-1115 -268 0
-1116 267 0
-1116 -39 -168 -177 0
-1116 -39 -169 -178 0
-1116 -39 -170 -179 0
-1116 28 29 30 0
-1116 -28 -168 1501 462 0
-1116 -28 -169 1501 468 0
-1116 -28 -170 1501 474 0
-1116 -29 -168 1502 463 0
-1116 -29 -169 1502 469 0
-1116 -29 -170 1502 475 0
-1116 -30 -168 1503 464 0
-1116 -30 -169 1503 470 0
-1116 -30 -170 1503 476 0
-1116 -168 -390 0
-1116 -168 -414 0
-1116 -168 -438 0
-1116 -168 -396 0
-1116 -168 -420 0
-1116 -168 -444 0
-1116 -168 -402 0
-1116 -168 -426 0
-1116 -168 -450 0
-1116 -168 -391 0
-1116 -168 -415 0
-1116 -168 -439 0
-1116 -168 -397 0
-1116 -168 -421 0
-1116 -168 -445 0
-1116 -168 -403 0
-1116 -168 -427 0
-1116 -168 -451 0
-1116 -168 -392 0
-1116 -168 -416 0
-1116 -168 -440 0
-1116 -168 -398 0
-1116 -168 -422 0
-1116 -168 -446 0
-1116 -168 -404 0
-1116 -168 -428 0
-1116 -168 -452 0
-1116 -169 -396 0
-1116 -169 -420 0
-1116 -169 -444 0
-1116 -169 -402 0
-1116 -169 -426 0
-1116 -169 -450 0
-1116 -169 -397 0
-1116 -169 -421 0
-1116 -169 -445 0
-1116 -169 -403 0
-1116 -169 -427 0
-1116 -169 -451 0
-1116 -169 -398 0
-1116 -169 -422 0
-1116 -169 -446 0
-1116 -169 -404 0
-1116 -169 -428 0
-1116 -169 -452 0
-1116 -170 -402 0
-1116 -170 -426 0
-1116 -170 -450 0
-1116 -170 -403 0
-1116 -170 -427 0
-1116 -170 -451 0
-1116 -170 -404 0
-1116 -170 -428 0
-1116 -170 -452 0
-1116 -171 0
-1116 60 0
-1116 -168 193 0
-1116 -169 194 0
-1116 -170 195 0
-1116 -269 0
-1117 267 0
-1117 -40 -168 -177 0
-1117 -40 -169 -178 0
-1117 -40 -170 -179 0
-1117 29 30 31 0
-1117 -29 -168 1502 463 0
-1117 -29 -169 1502 469 0
-1117 -29 -170 1502 475 0
-1117 -30 -168 1503 464 0
-1117 -30 -169 1503 470 0
-1117 -30 -170 1503 476 0
-1117 -31 -168 1504 465 0
-1117 -31 -169 1504 471 0
-1117 -31 -170 1504 477 0
-1117 -168 -391 0
-1117 -168 -415 0
-1117 -168 -439 0
-1117 -168 -397 0
-1117 -168 -421 0
-1117 -168 -445 0
-1117 -168 -403 0
-1117 -168 -427 0
-1117 -168 -451 0
-1117 -168 -392 0
-1117 -168 -416 0
-1117 -168 -440 0
-1117 -168 -398 0
-1117 -168 -422 0
-1117 -168 -446 0
-1117 -168 -404 0
-1117 -168 -428 0
-1117 -168 -452 0
-1117 -168 -393 0
-1117 -168 -417 0
-1117 -168 -441 0
-1117 -168 -399 0
-1117 -168 -423 0
-1117 -168 -447 0
-1117 -168 -405 0
-1117 -168 -429 0
-1117 -168 -453 0
-1117 -169 -397 0
-1117 -169 -421 0
-1117 -169 -445 0
-1117 -169 -403 0
-1117 -169 -427 0
-1117 -169 -451 0
-1117 -169 -398 0
-1117 -169 -422 0
-1117 -169 -446 0
-1117 -169 -404 0
-1117 -169 -428 0
-1117 -169 -452 0
-1117 -169 -399 0
-1117 -169 -423 0
-1117 -169 -447 0
-1117 -169 -405 0
-1117 -169 -429 0
-1117 -169 -453 0
-1117 -170 -403 0
-1117 -170 -427 0
-1117 -170 -451 0
-1117 -170 -404 0
-1117 -170 -428 0
-1117 -170 -452 0
-1117 -170 -405 0
-1117 -170 -429 0
-1117 -170 -453 0
-1117 -171 0
-1117 61 0
-1117 -168 193 0
-1117 -169 194 0
-1117 -170 195 0
-1117 -269 0
-1118 267 0
-1118 -41 -168 -177 0
-1118 -41 -169 -178 0
-1118 -41 -170 -179 0
-1118 30 31 32 0
-1118 -30 -168 1503 464 0
-1118 -30 -169 1503 470 0
-1118 -30 -170 1503 476 0
-1118 -31 -168 1504 465 0
-1118 -31 -169 1504 471 0
-1118 -31 -170 1504 477 0
-1118 -32 -168 1505 466 0
-1118 -32 -169 1505 472 0
-1118 -32 -170 1505 478 0
-1118 -168 -392 0
-1118 -168 -416 0
-1118 -168 -440 0
-1118 -168 -398 0
-1118 -168 -422 0
-1118 -168 -446 0
-1118 -168 -404 0
-1118 -168 -428 0
-1118 -168 -452 0
-1118 -168 -393 0
-1118 -168 -417 0
-1118 -168 -441 0
-1118 -168 -399 0
-1118 -168 -423 0
-1118 -168 -447 0
-1118 -168 -405 0
-1118 -168 -429 0
-1118 -168 -453 0
-1118 -168 -394 0
-1118 -168 -418 0
-1118 -168 -442 0
-1118 -168 -400 0
-1118 -168 -424 0
-1118 -168 -448 0
-1118 -168 -406 0
-1118 -168 -430 0
-1118 -168 -454 0
-1118 -169 -398 0
-1118 -169 -422 0
-1118 -169 -446 0
-1118 -169 -404 0
-1118 -169 -428 0
-1118 -169 -452 0
-1118 -169 -399 0
-1118 -169 -423 0
-1118 -169 -447 0
-1118 -169 -405 0
-1118 -169 -429 0
-1118 -169 -453 0
-1118 -169 -400 0
-1118 -169 -424 0
-1118 -169 -448 0
-1118 -169 -406 0
-1118 -169 -430 0
-1118 -169 -454 0
-1118 -170 -404 0
-1118 -170 -428 0
-1118 -170 -452 0
-1118 -170 -405 0
-1118 -170 -429 0
-1118 -170 -453 0
-1118 -170 -406 0
-1118 -170 -430 0
-1118 -170 -454 0
-1118 -171 0
-1118 62 0
-1118 -168 193 0
-1118 -169 194 0
-1118 -170 195 0
-1118 -269 0
-1119 267 0
-1119 -42 -168 -177 0
-1119 -42 -169 -178 0
-1119 -42 -170 -179 0
-1119 31 32 33 0
-1119 -31 -168 1504 465 0
-1119 -31 -169 1504 471 0
-1119 -31 -170 1504 477 0
-1119 -32 -168 1505 466 0
-1119 -32 -169 1505 472 0
-1119 -32 -170 1505 478 0
-1119 -33 -168 1506 467 0
-1119 -33 -169 1506 473 0
-1119 -33 -170 1506 479 0
-1119 -168 -393 0
-1119 -168 -417 0
-1119 -168 -441 0
-1119 -168 -399 0
-1119 -168 -423 0
-1119 -168 -447 0
-1119 -168 -405 0
-1119 -168 -429 0
-1119 -168 -453 0
-1119 -168 -394 0
-1119 -168 -418 0
-1119 -168 -442 0
-1119 -168 -400 0
-1119 -168 -424 0
-1119 -168 -448 0
-1119 -168 -406 0
-1119 -168 -430 0
-1119 -168 -454 0
-1119 -168 -395 0
-1119 -168 -419 0
-1119 -168 -443 0
-1119 -168 -401 0
-1119 -168 -425 0
-1119 -168 -449 0
-1119 -168 -407 0
-1119 -168 -431 0
-1119 -168 -455 0
-1119 -169 -399 0
-1119 -169 -423 0
-1119 -169 -447 0
-1119 -169 -405 0
-1119 -169 -429 0
-1119 -169 -453 0
-1119 -169 -400 0
-1119 -169 -424 0
-1119 -169 -448 0
-1119 -169 -406 0
-1119 -169 -430 0
-1119 -169 -454 0
-1119 -169 -401 0
-1119 -169 -425 0
-1119 -169 -449 0
-1119 -169 -407 0
-1119 -169 -431 0
-1119 -169 -455 0
-1119 -170 -405 0
-1119 -170 -429 0
-1119 -170 -453 0
-1119 -170 -406 0
-1119 -170 -430 0
-1119 -170 -454 0
-1119 -170 -407 0
-1119 -170 -431 0
-1119 -170 -455 0
-1119 -171 0
-1119 63 0
-1119 -168 193 0
-1119 -169 194 0
-1119 -170 195 0
-1119 -269 0
-1120 267 0
-1120 -39 -172 -177 0
-1120 -39 -173 -178 0
-1120 -39 -174 -179 0
-1120 34 35 36 0
-1120 -34 -172 1507 462 0
-1120 -34 -173 1507 468 0
-1120 -34 -174 1507 474 0
-1120 -34 -172 1508 463 0
-1120 -34 -173 1508 469 0
-1120 -34 -174 1508 475 0
-1120 -35 -172 1508 463 0
-1120 -35 -173 1508 469 0
-1120 -35 -174 1508 475 0
-1120 -35 -172 1509 464 0
-1120 -35 -173 1509 470 0
-1120 -35 -174 1509 476 0
-1120 -36 -172 1509 464 0
-1120 -36 -173 1509 470 0
-1120 -36 -174 1509 476 0
-1120 -172 -390 0
-1120 -172 -414 0
-1120 -172 -438 0
-1120 -172 -396 0
-1120 -172 -420 0
-1120 -172 -444 0
-1120 -172 -402 0
-1120 -172 -426 0
-1120 -172 -450 0
-1120 -172 -391 0
-1120 -172 -415 0
-1120 -172 -439 0
-1120 -172 -397 0
-1120 -172 -421 0
-1120 -172 -445 0
-1120 -172 -403 0
-1120 -172 -427 0
-1120 -172 -451 0
-1120 -172 -392 0
-1120 -172 -416 0
-1120 -172 -440 0
-1120 -172 -398 0
-1120 -172 -422 0
-1120 -172 -446 0
-1120 -172 -404 0
-1120 -172 -428 0
-1120 -172 -452 0
-1120 -173 -396 0
-1120 -173 -420 0
-1120 -173 -444 0
-1120 -173 -402 0
-1120 -173 -426 0
-1120 -173 -450 0
-1120 -173 -397 0
-1120 -173 -421 0
-1120 -173 -445 0
-1120 -173 -403 0
-1120 -173 -427 0
-1120 -173 -451 0
-1120 -173 -398 0
-1120 -173 -422 0
-1120 -173 -446 0
-1120 -173 -404 0
-1120 -173 -428 0
-1120 -173 -452 0
-1120 -174 -402 0
-1120 -174 -426 0
-1120 -174 -450 0
-1120 -174 -403 0
-1120 -174 -427 0
-1120 -174 -451 0
-1120 -174 -404 0
-1120 -174 -428 0
-1120 -174 -452 0
-1120 -175 0
-1120 60 0
-1120 -172 193 0
-1120 -173 194 0
-1120 -174 195 0
-1120 -270 0
-1121 267 0
-1121 -40 -172 -177 0
-1121 -40 -173 -178 0
-1121 -40 -174 -179 0
-1121 34 35 36 37 0
-1121 -34 -172 1508 463 0
-1121 -34 -173 1508 469 0
-1121 -34 -174 1508 475 0
-1121 -35 -172 1508 463 0
-1121 -35 -173 1508 469 0
-1121 -35 -174 1508 475 0
-1121 -35 -172 1509 464 0
-1121 -35 -173 1509 470 0
-1121 -35 -174 1509 476 0
-1121 -36 -172 1509 464 0
-1121 -36 -173 1509 470 0
-1121 -36 -174 1509 476 0
-1121 -36 -172 1510 465 0
-1121 -36 -173 1510 471 0
-1121 -36 -174 1510 477 0
-1121 -37 -172 1510 465 0
-1121 -37 -173 1510 471 0
-1121 -37 -174 1510 477 0
-1121 -172 -391 0
-1121 -172 -415 0
-1121 -172 -439 0
-1121 -172 -397 0
-1121 -172 -421 0
-1121 -172 -445 0
-1121 -172 -403 0
-1121 -172 -427 0
-1121 -172 -451 0
-1121 -172 -392 0
-1121 -172 -416 0
-1121 -172 -440 0
-1121 -172 -398 0
-1121 -172 -422 0
-1121 -172 -446 0
-1121 -172 -404 0
-1121 -172 -428 0
-1121 -172 -452 0
-1121 -172 -393 0
-1121 -172 -417 0
-1121 -172 -441 0
-1121 -172 -399 0
-1121 -172 -423 0
-1121 -172 -447 0
-1121 -172 -405 0
-1121 -172 -429 0
-1121 -172 -453 0
-1121 -173 -397 0
-1121 -173 -421 0
-1121 -173 -445 0
-1121 -173 -403 0
-1121 -173 -427 0
-1121 -173 -451 0
-1121 -173 -398 0
-1121 -173 -422 0
-1121 -173 -446 0
-1121 -173 -404 0
-1121 -173 -428 0
-1121 -173 -452 0
-1121 -173 -399 0
-1121 -173 -423 0
-1121 -173 -447 0
-1121 -173 -405 0
-1121 -173 -429 0
-1121 -173 -453 0
-1121 -174 -403 0
-1121 -174 -427 0
-1121 -174 -451 0
-1121 -174 -404 0
-1121 -174 -428 0
-1121 -174 -452 0
-1121 -174 -405 0
-1121 -174 -429 0
-1121 -174 -453 0
-1121 -175 0
-1121 61 0
-1121 -172 193 0
-1121 -173 194 0
-1121 -174 195 0
-1121 -270 0
-1122 267 0
-1122 -41 -172 -177 0
-1122 -41 -173 -178 0
-1122 -41 -174 -179 0
-1122 35 36 37 38 0
-1122 -35 -172 1509 464 0
-1122 -35 -173 1509 470 0
-1122 -35 -174 1509 476 0
-1122 -36 -172 1509 464 0
-1122 -36 -173 1509 470 0
-1122 -36 -174 1509 476 0
-1122 -36 -172 1510 465 0
-1122 -36 -173 1510 471 0
-1122 -36 -174 1510 477 0
-1122 -37 -172 1510 465 0
-1122 -37 -173 1510 471 0
-1122 -37 -174 1510 477 0
-1122 -37 -172 1511 466 0
-1122 -37 -173 1511 472 0
-1122 -37 -174 1511 478 0
-1122 -38 -172 1511 466 0
-1122 -38 -173 1511 472 0
-1122 -38 -174 1511 478 0
-1122 -172 -392 0
-1122 -172 -416 0
-1122 -172 -440 0
-1122 -172 -398 0
-1122 -172 -422 0
-1122 -172 -446 0
-1122 -172 -404 0
-1122 -172 -428 0
-1122 -172 -452 0
-1122 -172 -393 0
-1122 -172 -417 0
-1122 -172 -441 0
-1122 -172 -399 0
-1122 -172 -423 0
-1122 -172 -447 0
-1122 -172 -405 0
-1122 -172 -429 0
-1122 -172 -453 0
-1122 -172 -394 0
-1122 -172 -418 0
-1122 -172 -442 0
-1122 -172 -400 0
-1122 -172 -424 0
-1122 -172 -448 0
-1122 -172 -406 0
-1122 -172 -430 0
-1122 -172 -454 0
-1122 -173 -398 0
-1122 -173 -422 0
-1122 -173 -446 0
-1122 -173 -404 0
-1122 -173 -428 0
-1122 -173 -452 0
-1122 -173 -399 0
-1122 -173 -423 0
-1122 -173 -447 0
-1122 -173 -405 0
-1122 -173 -429 0
-1122 -173 -453 0
-1122 -173 -400 0
-1122 -173 -424 0
-1122 -173 -448 0
-1122 -173 -406 0
-1122 -173 -430 0
-1122 -173 -454 0
-1122 -174 -404 0
-1122 -174 -428 0
-1122 -174 -452 0
-1122 -174 -405 0
-1122 -174 -429 0
-1122 -174 -453 0
-1122 -174 -406 0
-1122 -174 -430 0
-1122 -174 -454 0
-1122 -175 0
-1122 62 0
-1122 -172 193 0
-1122 -173 194 0
-1122 -174 195 0
-1122 -270 0
-1123 267 0
-1123 -42 -172 -177 0
-1123 -42 -173 -178 0
-1123 -42 -174 -179 0
-1123 36 37 38 0
-1123 -36 -172 1510 465 0
-1123 -36 -173 1510 471 0
-1123 -36 -174 1510 477 0
-1123 -37 -172 1510 465 0
-1123 -37 -173 1510 471 0
-1123 -37 -174 1510 477 0
-1123 -37 -172 1511 466 0
-1123 -37 -173 1511 472 0
-1123 -37 -174 1511 478 0
-1123 -38 -172 1511 466 0
-1123 -38 -173 1511 472 0
-1123 -38 -174 1511 478 0
-1123 -38 -172 1512 467 0
-1123 -38 -173 1512 473 0
-1123 -38 -174 1512 479 0
-1123 -172 -393 0
-1123 -172 -417 0
-1123 -172 -441 0
-1123 -172 -399 0
-1123 -172 -423 0
-1123 -172 -447 0
-1123 -172 -405 0
-1123 -172 -429 0
-1123 -172 -453 0
-1123 -172 -394 0
-1123 -172 -418 0
-1123 -172 -442 0
-1123 -172 -400 0
-1123 -172 -424 0
-1123 -172 -448 0
-1123 -172 -406 0
-1123 -172 -430 0
-1123 -172 -454 0
-1123 -172 -395 0
-1123 -172 -419 0
-1123 -172 -443 0
-1123 -172 -401 0
-1123 -172 -425 0
-1123 -172 -449 0
-1123 -172 -407 0
-1123 -172 -431 0
-1123 -172 -455 0
-1123 -173 -399 0
-1123 -173 -423 0
-1123 -173 -447 0
-1123 -173 -405 0
-1123 -173 -429 0
-1123 -173 -453 0
-1123 -173 -400 0
-1123 -173 -424 0
-1123 -173 -448 0
-1123 -173 -406 0
-1123 -173 -430 0
-1123 -173 -454 0
-1123 -173 -401 0
-1123 -173 -425 0
-1123 -173 -449 0
-1123 -173 -407 0
-1123 -173 -431 0
-1123 -173 -455 0
-1123 -174 -405 0
-1123 -174 -429 0
-1123 -174 -453 0
-1123 -174 -406 0
-1123 -174 -430 0
-1123 -174 -454 0
-1123 -174 -407 0
-1123 -174 -431 0
-1123 -174 -455 0
-1123 -175 0
-1123 63 0
-1123 -172 193 0
-1123 -173 194 0
-1123 -174 195 0
-1123 -270 0
-1124 267 0
-1124 -39 -176 0
-1124 -384 0
-1124 -408 0
-1124 -432 0
-1124 -390 0
-1124 -414 0
-1124 -438 0
-1124 -396 0
-1124 -420 0
-1124 -444 0
-1124 -402 0
-1124 -426 0
-1124 -450 0
-1124 -385 0
-1124 -409 0
-1124 -433 0
-1124 -391 0
-1124 -415 0
-1124 -439 0
-1124 -397 0
-1124 -421 0
-1124 -445 0
-1124 -403 0
-1124 -427 0
-1124 -451 0
-1124 -386 0
-1124 -410 0
-1124 -434 0
-1124 -392 0
-1124 -416 0
-1124 -440 0
-1124 -398 0
-1124 -422 0
-1124 -446 0
-1124 -404 0
-1124 -428 0
-1124 -452 0
-1124 60 0
-1124 192 0
-1125 267 0
-1125 -40 -176 0
-1125 -385 0
-1125 -409 0
-1125 -433 0
-1125 -391 0
-1125 -415 0
-1125 -439 0
-1125 -397 0
-1125 -421 0
-1125 -445 0
-1125 -403 0
-1125 -427 0
-1125 -451 0
-1125 -386 0
-1125 -410 0
-1125 -434 0
-1125 -392 0
-1125 -416 0
-1125 -440 0
-1125 -398 0
-1125 -422 0
-1125 -446 0
-1125 -404 0
-1125 -428 0
-1125 -452 0
-1125 -387 0
-1125 -411 0
-1125 -435 0
-1125 -393 0
-1125 -417 0
-1125 -441 0
-1125 -399 0
-1125 -423 0
-1125 -447 0
-1125 -405 0
-1125 -429 0
-1125 -453 0
-1125 61 0
-1125 192 0
-1126 267 0
-1126 -41 -176 0
-1126 -386 0
-1126 -410 0
-1126 -434 0
-1126 -392 0
-1126 -416 0
-1126 -440 0
-1126 -398 0
-1126 -422 0
-1126 -446 0
-1126 -404 0
-1126 -428 0
-1126 -452 0
-1126 -387 0
-1126 -411 0
-1126 -435 0
-1126 -393 0
-1126 -417 0
-1126 -441 0
-1126 -399 0
-1126 -423 0
-1126 -447 0
-1126 -405 0
-1126 -429 0
-1126 -453 0
-1126 -388 0
-1126 -412 0
-1126 -436 0
-1126 -394 0
-1126 -418 0
-1126 -442 0
-1126 -400 0
-1126 -424 0
-1126 -448 0
-1126 -406 0
-1126 -430 0
-1126 -454 0
-1126 62 0
-1126 192 0
-1127 267 0
-1127 -42 -176 0
-1127 -387 0
-1127 -411 0
-1127 -435 0
-1127 -393 0
-1127 -417 0
-1127 -441 0
-1127 -399 0
-1127 -423 0
-1127 -447 0
-1127 -405 0
-1127 -429 0
-1127 -453 0
-1127 -388 0
-1127 -412 0
-1127 -436 0
-1127 -394 0
-1127 -418 0
-1127 -442 0
-1127 -400 0
-1127 -424 0
-1127 -448 0
-1127 -406 0
-1127 -430 0
-1127 -454 0
-1127 -389 0
-1127 -413 0
-1127 -437 0
-1127 -395 0
-1127 -419 0
-1127 -443 0
-1127 -401 0
-1127 -425 0
-1127 -449 0
-1127 -407 0
-1127 -431 0
-1127 -455 0
-1127 63 0
-1127 192 0
22 -43 1044 1045 1046 1047 1048 1049 1050 1051 1052 1053 1054 1055 1056 1057 1058 1059 1060 1061 1062 1063 1064 1065 1066 1067 0
-22 43 1044 1045 1046 1047 1048 1049 1050 1051 1052 1053 1054 1055 1056 1057 1058 1059 1060 1061 1062 1063 1064 1065 1066 1067 0
23 -44 1044 1045 1046 1047 1048 1049 1050 1051 1052 1053 1054 1055 1056 1057 1058 1059 1060 1061 1062 1063 1064 1065 1066 1067 0
-23 44 1044 1045 1046 1047 1048 1049 1050 1051 1052 1053 1054 1055 1056 1057 1058 1059 1060 1061 1062 1063 1064 1065 1066 1067 0
24 -45 1044 1045 1046 1047 1048 1049 1050 1051 1052 1053 1054 1055 1056 1057 1058 1059 1060 1061 1062 1063 1064 1065 1066 1067 0
-24 45 1044 1045 1046 1047 1048 1049 1050 1051 1052 1053 1054 1055 1056 1057 1058 1059 1060 1061 1062 1063 1064 1065 1066 1067 0
25 -46 1044 1045 1046 1047 1048 1049 1050 1051 1052 1053 1054 1055 1056 1057 1058 1059 1060 1061 1062 1063 1064 1065 1066 1067 0
-25 46 1044 1045 1046 1047 1048 1049 1050 1051 1052 1053 1054 1055 1056 1057 1058 1059 1060 1061 1062 1063 1064 1065 1066 1067 0
26 -47 1044 1045 1046 1047 1048 1049 1050 1051 1052 1053 1054 1055 1056 1057 1058 1059 1060 1061 1062 1063 1064 1065 1066 1067 0
-26 47 1044 1045 1046 1047 1048 1049 1050 1051 1052 1053 1054 1055 1056 1057 1058 1059 1060 1061 1062 1063 1064 1065 1066 1067 0
27 -48 1044 1045 1046 1047 1048 1049 1050 1051 1052 1053 1054 1055 1056 1057 1058 1059 1060 1061 1062 1063 1064 1065 1066 1067 0
-27 48 1044 1045 1046 1047 1048 1049 1050 1051 1052 1053 1054 1055 1056 1057 1058 1059 1060 1061 1062 1063 1064 1065 1066 1067 0
164 -180 1044 1045 1046 1047 1048 1049 1050 1051 1052 1053 1054 1055 1056 1057 1058 1059 1060 1061 1062 1063 1064 1065 1066 1067 0
-164 180 1044 1045 1046 1047 1048 1049 1050 1051 1052 1053 1054 1055 1056 1057 1058 1059 1060 1061 1062 1063 1064 1065 1066 1067 0
165 -181 1044 1045 1046 1047 1048 1049 1050 1051 1052 1053 1054 1055 1056 1057 1058 1059 1060 1061 1062 1063 1064 1065 1066 1067 0
-165 181 1044 1045 1046 1047 1048 1049 1050 1051 1052 1053 1054 1055 1056 1057 1058 1059 1060 1061 1062 1063 1064 1065 1066 1067 0
166 -182 1044 1045 1046 1047 1048 1049 1050 1051 1052 1053 1054 1055 1056 1057 1058 1059 1060 1061 1062 1063 1064 1065 1066 1067 0
-166 182 1044 1045 1046 1047 1048 1049 1050 1051 1052 1053 1054 1055 1056 1057 1058 1059 1060 1061 1062 1063 1064 1065 1066 1067 0
167 -183 1044 1045 1046 1047 1048 1049 1050 1051 1052 1053 1054 1055 1056 1057 1058 1059 1060 1061 1062 1063 1064 1065 1066 1067 0
-167 183 1044 1045 1046 1047 1048 1049 1050 1051 1052 1053 1054 1055 1056 1057 1058 1059 1060 1061 1062 1063 1064 1065 1066 1067 0
28 -49 1068 1069 1070 1071 1072 1073 1074 1075 1076 1077 1078 1079 1080 1081 1082 1083 1084 1085 1086 1087 1088 1089 1090 1091 0
-28 49 1068 1069 1070 1071 1072 1073 1074 1075 1076 1077 1078 1079 1080 1081 1082 1083 1084 1085 1086 1087 1088 1089 1090 1091 0
29 -50 1068 1069 1070 1071 1072 1073 1074 1075 1076 1077 1078 1079 1080 1081 1082 1083 1084 1085 1086 1087 1088 1089 1090 1091 0
-29 50 1068 1069 1070 1071 1072 1073 1074 1075 1076 1077 1078 1079 1080 1081 1082 1083 1084 1085 1086 1087 1088 1089 1090 1091 0
30 -51 1068 1069 1070 1071 1072 1073 1074 1075 1076 1077 1078 1079 1080 1081 1082 1083 1084 1085 1086 1087 1088 1089 1090 1091 0
-30 51 1068 1069 1070 1071 1072 1073 1074 1075 1076 1077 1078 1079 1080 1081 1082 1083 1084 1085 1086 1087 1088 1089 1090 1091 0
31 -52 1068 1069 1070 1071 1072 1073 1074 1075 1076 1077 1078 1079 1080 1081 1082 1083 1084 1085 1086 1087 1088 1089 1090 1091 0
-31 52 1068 1069 1070 1071 1072 1073 1074 1075 1076 1077 1078 1079 1080 1081 1082 1083 1084 1085 1086 1087 1088 1089 1090 1091 0
32 -53 1068 1069 1070 1071 1072 1073 1074 1075 1076 1077 1078 1079 1080 1081 1082 1083 1084 1085 1086 1087 1088 1089 1090 1091 0
-32 53 1068 1069 1070 1071 1072 1073 1074 1075 1076 1077 1078 1079 1080 1081 1082 1083 1084 1085 1086 1087 1088 1089 1090 1091 0
33 -54 1068 1069 1070 1071 1072 1073 1074 1075 1076 1077 1078 1079 1080 1081 1082 1083 1084 1085 1086 1087 1088 1089 1090 1091 0
-33 54 1068 1069 1070 1071 1072 1073 1074 1075 1076 1077 1078 1079 1080 1081 1082 1083 1084 1085 1086 1087 1088 1089 1090 1091 0
168 -184 1068 1069 1070 1071 1072 1073 1074 1075 1076 1077 1078 1079 1080 1081 1082 1083 1084 1085 1086 1087 1088 1089 1090 1091 0
-168 184 1068 1069 1070 1071 1072 1073 1074 1075 1076 1077 1078 1079 1080 1081 1082 1083 1084 1085 1086 1087 1088 1089 1090 1091 0
169 -185 1068 1069 1070 1071 1072 1073 1074 1075 1076 1077 1078 1079 1080 1081 1082 1083 1084 1085 1086 1087 1088 1089 1090 1091 0
-169 185 1068 1069 1070 1071 1072 1073 1074 1075 1076 1077 1078 1079 1080 1081 1082 1083 1084 1085 1086 1087 1088 1089 1090 1091 0
170 -186 1068 1069 1070 1071 1072 1073 1074 1075 1076 1077 1078 1079 1080 1081 1082 1083 1084 1085 1086 1087 1088 1089 1090 1091 0
-170 186 1068 1069 1070 1071 1072 1073 1074 1075 1076 1077 1078 1079 1080 1081 1082 1083 1084 1085 1086 1087 1088 1089 1090 1091 0
171 -187 1068 1069 1070 1071 1072 1073 1074 1075 1076 1077 1078 1079 1080 1081 1082 1083 1084 1085 1086 1087 1088 1089 1090 1091 0
-171 187 1068 1069 1070 1071 1072 1073 1074 1075 1076 1077 1078 1079 1080 1081 1082 1083 1084 1085 1086 1087 1088 1089 1090 1091 0
34 -55 1092 1093 1094 1095 1096 1097 1098 1099 1100 1101 1102 1103 1104 1105 1106 1107 1108 1109 1110 1111 0
-34 55 1092 1093 1094 1095 1096 1097 1098 1099 1100 1101 1102 1103 1104 1105 1106 1107 1108 1109 1110 1111 0
35 -56 1092 1093 1094 1095 1096 1097 1098 1099 1100 1101 1102 1103 1104 1105 1106 1107 1108 1109 1110 1111 0
-35 56 1092 1093 1094 1095 1096 1097 1098 1099 1100 1101 1102 1103 1104 1105 1106 1107 1108 1109 1110 1111 0
36 -57 1092 1093 1094 1095 1096 1097 1098 1099 1100 1101 1102 1103 1104 1105 1106 1107 1108 1109 1110 1111 0
-36 57 1092 1093 1094 1095 1096 1097 1098 1099 1100 1101 1102 1103 1104 1105 1106 1107 1108 1109 1110 1111 0
37 -58 1092 1093 1094 1095 1096 1097 1098 1099 1100 1101 1102 1103 1104 1105 1106 1107 1108 1109 1110 1111 0
-37 58 1092 1093 1094 1095 1096 1097 1098 1099 1100 1101 1102 1103 1104 1105 1106 1107 1108 1109 1110 1111 0
38 -59 1092 1093 1094 1095 1096 1097 1098 1099 1100 1101 1102 1103 1104 1105 1106 1107 1108 1109 1110 1111 0
-38 59 1092 1093 1094 1095 1096 1097 1098 1099 1100 1101 1102 1103 1104 1105 1106 1107 1108 1109 1110 1111 0
172 -188 1092 1093 1094 1095 1096 1097 1098 1099 1100 1101 1102 1103 1104 1105 1106 1107 1108 1109 1110 1111 0
-172 188 1092 1093 1094 1095 1096 1097 1098 1099 1100 1101 1102 1103 1104 1105 1106 1107 1108 1109 1110 1111 0
173 -189 1092 1093 1094 1095 1096 1097 1098 1099 1100 1101 1102 1103 1104 1105 1106 1107 1108 1109 1110 1111 0
-173 189 1092 1093 1094 1095 1096 1097 1098 1099 1100 1101 1102 1103 1104 1105 1106 1107 1108 1109 1110 1111 0
174 -190 1092 1093 1094 1095 1096 1097 1098 1099 1100 1101 1102 1103 1104 1105 1106 1107 1108 1109 1110 1111 0
-174 190 1092 1093 1094 1095 1096 1097 1098 1099 1100 1101 1102 1103 1104 1105 1106 1107 1108 1109 1110 1111 0
175 -191 1092 1093 1094 1095 1096 1097 1098 1099 1100 1101 1102 1103 1104 1105 1106 1107 1108 1109 1110 1111 0
-175 191 1092 1093 1094 1095 1096 1097 1098 1099 1100 1101 1102 1103 1104 1105 1106 1107 1108 1109 1110 1111 0
39 -60 1112 1113 1114 1115 1116 1117 1118 1119 1120 1121 1122 1123 1124 1125 1126 1127 0
-39 60 1112 1113 1114 1115 1116 1117 1118 1119 1120 1121 1122 1123 1124 1125 1126 1127 0
40 -61 1112 1113 1114 1115 1116 1117 1118 1119 1120 1121 1122 1123 1124 1125 1126 1127 0
-40 61 1112 1113 1114 1115 1116 1117 1118 1119 1120 1121 1122 1123 1124 1125 1126 1127 0
41 -62 1112 1113 1114 1115 1116 1117 1118 1119 1120 1121 1122 1123 1124 1125 1126 1127 0
-41 62 1112 1113 1114 1115 1116 1117 1118 1119 1120 1121 1122 1123 1124 1125 1126 1127 0
42 -63 1112 1113 1114 1115 1116 1117 1118 1119 1120 1121 1122 1123 1124 1125 1126 1127 0
-42 63 1112 1113 1114 1115 1116 1117 1118 1119 1120 1121 1122 1123 1124 1125 1126 1127 0
176 -192 1112 1113 1114 1115 1116 1117 1118 1119 1120 1121 1122 1123 1124 1125 1126 1127 0
-176 192 1112 1113 1114 1115 1116 1117 1118 1119 1120 1121 1122 1123 1124 1125 1126 1127 0
177 -193 1112 1113 1114 1115 1116 1117 1118 1119 1120 1121 1122 1123 1124 1125 1126 1127 0
-177 193 1112 1113 1114 1115 1116 1117 1118 1119 1120 1121 1122 1123 1124 1125 1126 1127 0
178 -194 1112 1113 1114 1115 1116 1117 1118 1119 1120 1121 1122 1123 1124 1125 1126 1127 0
-178 194 1112 1113 1114 1115 1116 1117 1118 1119 1120 1121 1122 1123 1124 1125 1126 1127 0
179 -195 1112 1113 1114 1115 1116 1117 1118 1119 1120 1121 1122 1123 1124 1125 1126 1127 0
-179 195 1112 1113 1114 1115 1116 1117 1118 1119 1120 1121 1122 1123 1124 1125 1126 1127 0
1044 1045 1046 1047 1048 1049 1050 1051 1052 1053 1054 1055 1056 1057 1058 1059 1060 1061 1062 1063 1064 1065 1066 1067 1068 1069 1070 1071 1072 1073 1074 1075 1076 1077 1078 1079 1080 1081 1082 1083 1084 1085 1086 1087 1088 1089 1090 1091 1092 1093 1094 1095 1096 1097 1098 1099 1100 1101 1102 1103 1104 1105 1106 1107 1108 1109 1110 1111 1112 1113 1114 1115 1116 1117 1118 1119 1120 1121 1122 1123 1124 1125 1126 1127 0
-1044 -1045 0
-1044 -1046 0
-1044 -1047 0
-1044 -1048 0
-1044 -1049 0
-1044 -1050 0
-1044 -1051 0
-1044 -1052 0
-1044 -1053 0
-1044 -1054 0
-1044 -1055 0
-1044 -1056 0
-1044 -1057 0
-1044 -1058 0
-1044 -1059 0
-1044 -1060 0
-1044 -1061 0
-1044 -1062 0
-1044 -1063 0
-1044 -1064 0
-1044 -1065 0
-1044 -1066 0
-1044 -1067 0
-1044 -1068 0
-1044 -1069 0
-1044 -1070 0
-1044 -1071 0
-1044 -1072 0
-1044 -1073 0
-1044 -1074 0
-1044 -1075 0
-1044 -1076 0
-1044 -1077 0
-1044 -1078 0
-1044 -1079 0
-1044 -1080 0
-1044 -1081 0
-1044 -1082 0
-1044 -1083 0
-1044 -1084 0
-1044 -1085 0
-1044 -1086 0
-1044 -1087 0
-1044 -1088 0
-1044 -1089 0
-1044 -1090 0
-1044 -1091 0
-1044 -1092 0
-1044 -1093 0
-1044 -1094 0
-1044 -1095 0
-1044 -1096 0
-1044 -1097 0
-1044 -1098 0
-1044 -1099 0
-1044 -1100 0
-1044 -1101 0
-1044 -1102 0
-1044 -1103 0
-1044 -1104 0
-1044 -1105 0
-1044 -1106 0
-1044 -1107 0
-1044 -1108 0
-1044 -1109 0
-1044 -1110 0
-1044 -1111 0
-1044 -1112 0
-1044 -1113 0
-1044 -1114 0
-1044 -1115 0
-1044 -1116 0
-1044 -1117 0
-1044 -1118 0
-1044 -1119 0
-1044 -1120 0
-1044 -1121 0
-1044 -1122 0
-1044 -1123 0
-1044 -1124 0
-1044 -1125 0
-1044 -1126 0
-1044 -1127 0
-1045 -1046 0
-1045 -1047 0
-1045 -1048 0
-1045 -1049 0
-1045 -1050 0
-1045 -1051 0
-1045 -1052 0
-1045 -1053 0
-1045 -1054 0
-1045 -1055 0
-1045 -1056 0
-1045 -1057 0
-1045 -1058 0
-1045 -1059 0
-1045 -1060 0
-1045 -1061 0
-1045 -1062 0
-1045 -1063 0
-1045 -1064 0
-1045 -1065 0
-1045 -1066 0
-1045 -1067 0
-1045 -1068 0
-1045 -1069 0
-1045 -1070 0
-1045 -1071 0
-1045 -1072 0
-1045 -1073 0
-1045 -1074 0
-1045 -1075 0
-1045 -1076 0
-1045 -1077 0
-1045 -1078 0
-1045 -1079 0
-1045 -1080 0
-1045 -1081 0
-1045 -1082 0
-1045 -1083 0
-1045 -1084 0
-1045 -1085 0
-1045 -1086 0
-1045 -1087 0
-1045 -1088 0
-1045 -1089 0
-1045 -1090 0
-1045 -1091 0
-1045 -1092 0
-1045 -1093 0
-1045 -1094 0
-1045 -1095 0
-1045 -1096 0
-1045 -1097 0
-1045 -1098 0
-1045 -1099 0
-1045 -1100 0
-1045 -1101 0
-1045 -1102 0
-1045 -1103 0
-1045 -1104 0
-1045 -1105 0
-1045 -1106 0
-1045 -1107 0
-1045 -1108 0
-1045 -1109 0
-1045 -1110 0
-1045 -1111 0
-1045 -1112 0
-1045 -1113 0
-1045 -1114 0
-1045 -1115 0
-1045 -1116 0
-1045 -1117 0
-1045 -1118 0
-1045 -1119 0
-1045 -1120 0
-1045 -1121 0
-1045 -1122 0
-1045 -1123 0
-1045 -1124 0
-1045 -1125 0
-1045 -1126 0
-1045 -1127 0
-1046 -1047 0
-1046 -1048 0
-1046 -1049 0
-1046 -1050 0
-1046 -1051 0
-1046 -1052 0
-1046 -1053 0
-1046 -1054 0
-1046 -1055 0
-1046 -1056 0
-1046 -1057 0
-1046 -1058 0
-1046 -1059 0
-1046 -1060 0
-1046 -1061 0
-1046 -1062 0
-1046 -1063 0
-1046 -1064 0
-1046 -1065 0
-1046 -1066 0
-1046 -1067 0
-1046 -1068 0
-1046 -1069 0
-1046 -1070 0
-1046 -1071 0
-1046 -1072 0
-1046 -1073 0
-1046 -1074 0
-1046 -1075 0
-1046 -1076 0
-1046 -1077 0
-1046 -1078 0
-1046 -1079 0
-1046 -1080 0
-1046 -1081 0
-1046 -1082 0
-1046 -1083 0
-1046 -1084 0
-1046 -1085 0
-1046 -1086 0
-1046 -1087 0
-1046 -1088 0
-1046 -1089 0
-1046 -1090 0
-1046 -1091 0
-1046 -1092 0
-1046 -1093 0
-1046 -1094 0
-1046 -1095 0
-1046 -1096 0
-1046 -1097 0
-1046 -1098 0
-1046 -1099 0
-1046 -1100 0
-1046 -1101 0
-1046 -1102 0
-1046 -1103 0
-1046 -1104 0
-1046 -1105 0
-1046 -1106 0
-1046 -1107 0
-1046 -1108 0
-1046 -1109 0
-1046 -1110 0
-1046 -1111 0
-1046 -1112 0
-1046 -1113 0
-1046 -1114 0
-1046 -1115 0
-1046 -1116 0
-1046 -1117 0
-1046 -1118 0
-1046 -1119 0
-1046 -1120 0
-1046 -1121 0
-1046 -1122 0
-1046 -1123 0
-1046 -1124 0
-1046 -1125 0
-1046 -1126 0
-1046 -1127 0
-1047 -1048 0
-1047 -1049 0
-1047 -1050 0
-1047 -1051 0
-1047 -1052 0
-1047 -1053 0
-1047 -1054 0
-1047 -1055 0
-1047 -1056 0
-1047 -1057 0
-1047 -1058 0
-1047 -1059 0
-1047 -1060 0
-1047 -1061 0
-1047 -1062 0
-1047 -1063 0
-1047 -1064 0
-1047 -1065 0
-1047 -1066 0
-1047 -1067 0
-1047 -1068 0
-1047 -1069 0
-1047 -1070 0
-1047 -1071 0
-1047 -1072 0
-1047 -1073 0
-1047 -1074 0
-1047 -1075 0
-1047 -1076 0
-1047 -1077 0
-1047 -1078 0
-1047 -1079 0
-1047 -1080 0
-1047 -1081 0
-1047 -1082 0
-1047 -1083 0
-1047 -1084 0
-1047 -1085 0
-1047 -1086 0
-1047 -1087 0
-1047 -1088 0
-1047 -1089 0
-1047 -1090 0
-1047 -1091 0
-1047 -1092 0
-1047 -1093 0
-1047 -1094 0
-1047 -1095 0
-1047 -1096 0
-1047 -1097 0
-1047 -1098 0
-1047 -1099 0
-1047 -1100 0
-1047 -1101 0
-1047 -1102 0
-1047 -1103 0
-1047 -1104 0
-1047 -1105 0
-1047 -1106 0
-1047 -1107 0
-1047 -1108 0
-1047 -1109 0
-1047 -1110 0
-1047 -1111 0
-1047 -1112 0
-1047 -1113 0
-1047 -1114 0
-1047 -1115 0
-1047 -1116 0
-1047 -1117 0
-1047 -1118 0
-1047 -1119 0
-1047 -1120 0
-1047 -1121 0
-1047 -1122 0
-1047 -1123 0
-1047 -1124 0
-1047 -1125 0
-1047 -1126 0
-1047 -1127 0
-1048 -1049 0
-1048 -1050 0
-1048 -1051 0
-1048 -1052 0
-1048 -1053 0
-1048 -1054 0
-1048 -1055 0
-1048 -1056 0
-1048 -1057 0
-1048 -1058 0
-1048 -1059 0
-1048 -1060 0
-1048 -1061 0
-1048 -1062 0
-1048 -1063 0
-1048 -1064 0
-1048 -1065 0
-1048 -1066 0
-1048 -1067 0
-1048 -1068 0
-1048 -1069 0
-1048 -1070 0
-1048 -1071 0
-1048 -1072 0
-1048 -1073 0
-1048 -1074 0
-1048 -1075 0
-1048 -1076 0
-1048 -1077 0
-1048 -1078 0
-1048 -1079 0
-1048 -1080 0
-1048 -1081 0
-1048 -1082 0
-1048 -1083 0
-1048 -1084 0
-1048 -1085 0
-1048 -1086 0
-1048 -1087 0
-1048 -1088 0
-1048 -1089 0
-1048 -1090 0
-1048 -1091 0
-1048 -1092 0
-1048 -1093 0
-1048 -1094 0
-1048 -1095 0
-1048 -1096 0
-1048 -1097 0
-1048 -1098 0
-1048 -1099 0
-1048 -1100 0
-1048 -1101 0
-1048 -1102 0
-1048 -1103 0
-1048 -1104 0
-1048 -1105 0
-1048 -1106 0
-1048 -1107 0
-1048 -1108 0
-1048 -1109 0
-1048 -1110 0
-1048 -1111 0
-1048 -1112 0
-1048 -1113 0
-1048 -1114 0
-1048 -1115 0
-1048 -1116 0
-1048 -1117 0
-1048 -1118 0
-1048 -1119 0
-1048 -1120 0
-1048 -1121 0
-1048 -1122 0
-1048 -1123 0
-1048 -1124 0
-1048 -1125 0
-1048 -1126 0
-1048 -1127 0
-1049 -1050 0
-1049 -1051 0
-1049 -1052 0
-1049 -1053 0
-1049 -1054 0
-1049 -1055 0
-1049 -1056 0
-1049 -1057 0
-1049 -1058 0
-1049 -1059 0
-1049 -1060 0
-1049 -1061 0
-1049 -1062 0
-1049 -1063 0
-1049 -1064 0
-1049 -1065 0
-1049 -1066 0
-1049 -1067 0
-1049 -1068 0
-1049 -1069 0
-1049 -1070 0
-1049 -1071 0
-1049 -1072 0
-1049 -1073 0
-1049 -1074 0
-1049 -1075 0
-1049 -1076 0
-1049 -1077 0
-1049 -1078 0
-1049 -1079 0
-1049 -1080 0
-1049 -1081 0
-1049 -1082 0
-1049 -1083 0
-1049 -1084 0
-1049 -1085 0
-1049 -1086 0
-1049 -1087 0
-1049 -1088 0
-1049 -1089 0
-1049 -1090 0
-1049 -1091 0
-1049 -1092 0
-1049 -1093 0
-1049 -1094 0
-1049 -1095 0
-1049 -1096 0
-1049 -1097 0
-1049 -1098 0
-1049 -1099 0
-1049 -1100 0
-1049 -1101 0
-1049 -1102 0
-1049 -1103 0
-1049 -1104 0
-1049 -1105 0
-1049 -1106 0
-1049 -1107 0
-1049 -1108 0
-1049 -1109 0
-1049 -1110 0
-1049 -1111 0
-1049 -1112 0
-1049 -1113 0
-1049 -1114 0
-1049 -1115 0
-1049 -1116 0
-1049 -1117 0
-1049 -1118 0
-1049 -1119 0
-1049 -1120 0
-1049 -1121 0
-1049 -1122 0
-1049 -1123 0
-1049 -1124 0
-1049 -1125 0
-1049 -1126 0
-1049 -1127 0
-1050 -1051 0
-1050 -1052 0
-1050 -1053 0
-1050 -1054 0
-1050 -1055 0
-1050 -1056 0
-1050 -1057 0
-1050 -1058 0
-1050 -1059 0
-1050 -1060 0
-1050 -1061 0
-1050 -1062 0
-1050 -1063 0
-1050 -1064 0
-1050 -1065 0
-1050 -1066 0
-1050 -1067 0
-1050 -1068 0
-1050 -1069 0
-1050 -1070 0
-1050 -1071 0
-1050 -1072 0
-1050 -1073 0
-1050 -1074 0
-1050 -1075 0
-1050 -1076 0
-1050 -1077 0
-1050 -1078 0
-1050 -1079 0
-1050 -1080 0
-1050 -1081 0
-1050 -1082 0
-1050 -1083 0
-1050 -1084 0
-1050 -1085 0
-1050 -1086 0
-1050 -1087 0
-1050 -1088 0
-1050 -1089 0
-1050 -1090 0
-1050 -1091 0
-1050 -1092 0
-1050 -1093 0
-1050 -1094 0
-1050 -1095 0
-1050 -1096 0
-1050 -1097 0
-1050 -1098 0
-1050 -1099 0
-1050 -1100 0
-1050 -1101 0
-1050 -1102 0
-1050 -1103 0
-1050 -1104 0
-1050 -1105 0
-1050 -1106 0
-1050 -1107 0
-1050 -1108 0
-1050 -1109 0
-1050 -1110 0
-1050 -1111 0
-1050 -1112 0
-1050 -1113 0
-1050 -1114 0
-1050 -1115 0
-1050 -1116 0
-1050 -1117 0
-1050 -1118 0
-1050 -1119 0
-1050 -1120 0
-1050 -1121 0
-1050 -1122 0
-1050 -1123 0
-1050 -1124 0
-1050 -1125 0
-1050 -1126 0
-1050 -1127 0
-1051 -1052 0
-1051 -1053 0
-1051 -1054 0
-1051 -1055 0
-1051 -1056 0
-1051 -1057 0
-1051 -1058 0
-1051 -1059 0
-1051 -1060 0
-1051 -1061 0
-1051 -1062 0
-1051 -1063 0
-1051 -1064 0
-1051 -1065 0
-1051 -1066 0
-1051 -1067 0
-1051 -1068 0
-1051 -1069 0
-1051 -1070 0
-1051 -1071 0
-1051 -1072 0
-1051 -1073 0
-1051 -1074 0
-1051 -1075 0
-1051 -1076 0
-1051 -1077 0
-1051 -1078 0
-1051 -1079 0
-1051 -1080 0
-1051 -1081 0
-1051 -1082 0
-1051 -1083 0
-1051 -1084 0
-1051 -1085 0
-1051 -1086 0
-1051 -1087 0
-1051 -1088 0
-1051 -1089 0
-1051 -1090 0
-1051 -1091 0
-1051 -1092 0
-1051 -1093 0
-1051 -1094 0
-1051 -1095 0
-1051 -1096 0
-1051 -1097 0
-1051 -1098 0
-1051 -1099 0
-1051 -1100 0
-1051 -1101 0
-1051 -1102 0
-1051 -1103 0
-1051 -1104 0
-1051 -1105 0
-1051 -1106 0
-1051 -1107 0
-1051 -1108 0
-1051 -1109 0
-1051 -1110 0
-1051 -1111 0
-1051 -1112 0
-1051 -1113 0
-1051 -1114 0
-1051 -1115 0
-1051 -1116 0
-1051 -1117 0
-1051 -1118 0
-1051 -1119 0
-1051 -1120 0
-1051 -1121 0
-1051 -1122 0
-1051 -1123 0
-1051 -1124 0
-1051 -1125 0
-1051 -1126 0
-1051 -1127 0
-1052 -1053 0
-1052 -1054 0
-1052 -1055 0
-1052 -1056 0
-1052 -1057 0
-1052 -1058 0
-1052 -1059 0
-1052 -1060 0
-1052 -1061 0
-1052 -1062 0
-1052 -1063 0
-1052 -1064 0
-1052 -1065 0
-1052 -1066 0
-1052 -1067 0
-1052 -1068 0
-1052 -1069 0
-1052 -1070 0
-1052 -1071 0
-1052 -1072 0
-1052 -1073 0
-1052 -1074 0
-1052 -1075 0
-1052 -1076 0
-1052 -1077 0
-1052 -1078 0
-1052 -1079 0
-1052 -1080 0
-1052 -1081 0
-1052 -1082 0
-1052 -1083 0
-1052 -1084 0
-1052 -1085 0
-1052 -1086 0
-1052 -1087 0
-1052 -1088 0
-1052 -1089 0
-1052 -1090 0
-1052 -1091 0
-1052 -1092 0
-1052 -1093 0
-1052 -1094 0
-1052 -1095 0
-1052 -1096 0
-1052 -1097 0
-1052 -1098 0
-1052 -1099 0
-1052 -1100 0
-1052 -1101 0
-1052 -1102 0
-1052 -1103 0
-1052 -1104 0
-1052 -1105 0
-1052 -1106 0
-1052 -1107 0
-1052 -1108 0
-1052 -1109 0
-1052 -1110 0
-1052 -1111 0
-1052 -1112 0
-1052 -1113 0
-1052 -1114 0
-1052 -1115 0
-1052 -1116 0
-1052 -1117 0
-1052 -1118 0
-1052 -1119 0
-1052 -1120 0
-1052 -1121 0
-1052 -1122 0
-1052 -1123 0
-1052 -1124 0
-1052 -1125 0
-1052 -1126 0
-1052 -1127 0
-1053 -1054 0
-1053 -1055 0
-1053 -1056 0
-1053 -1057 0
-1053 -1058 0
-1053 -1059 0
-1053 -1060 0
-1053 -1061 0
-1053 -1062 0
-1053 -1063 0
-1053 -1064 0
-1053 -1065 0
-1053 -1066 0
-1053 -1067 0
-1053 -1068 0
-1053 -1069 0
-1053 -1070 0
-1053 -1071 0
-1053 -1072 0
-1053 -1073 0
-1053 -1074 0
-1053 -1075 0
-1053 -1076 0
-1053 -1077 0
-1053 -1078 0
-1053 -1079 0
-1053 -1080 0
-1053 -1081 0
-1053 -1082 0
-1053 -1083 0
-1053 -1084 0
-1053 -1085 0
-1053 -1086 0
-1053 -1087 0
-1053 -1088 0
-1053 -1089 0
-1053 -1090 0
-1053 -1091 0
-1053 -1092 0
-1053 -1093 0
-1053 -1094 0
-1053 -1095 0
-1053 -1096 0
-1053 -1097 0
-1053 -1098 0
-1053 -1099 0
-1053 -1100 0
-1053 -1101 0
-1053 -1102 0
-1053 -1103 0
-1053 -1104 0
-1053 -1105 0
-1053 -1106 0
-1053 -1107 0
-1053 -1108 0
-1053 -1109 0
-1053 -1110 0
-1053 -1111 0
-1053 -1112 0
-1053 -1113 0
-1053 -1114 0
-1053 -1115 0
-1053 -1116 0
-1053 -1117 0
-1053 -1118 0
-1053 -1119 0
-1053 -1120 0
-1053 -1121 0
-1053 -1122 0
-1053 -1123 0
-1053 -1124 0
-1053 -1125 0
-1053 -1126 0
-1053 -1127 0
-1054 -1055 0
-1054 -1056 0
-1054 -1057 0
-1054 -1058 0
-1054 -1059 0
-1054 -1060 0
-1054 -1061 0
-1054 -1062 0
-1054 -1063 0
-1054 -1064 0
-1054 -1065 0
-1054 -1066 0
-1054 -1067 0
-1054 -1068 0
-1054 -1069 0
-1054 -1070 0
-1054 -1071 0
-1054 -1072 0
-1054 -1073 0
-1054 -1074 0
-1054 -1075 0
-1054 -1076 0
-1054 -1077 0
-1054 -1078 0
-1054 -1079 0
-1054 -1080 0
-1054 -1081 0
-1054 -1082 0
-1054 -1083 0
-1054 -1084 0
-1054 -1085 0
-1054 -1086 0
-1054 -1087 0
-1054 -1088 0
-1054 -1089 0
-1054 -1090 0
-1054 -1091 0
-1054 -1092 0
-1054 -1093 0
-1054 -1094 0
-1054 -1095 0
-1054 -1096 0
-1054 -1097 0
-1054 -1098 0
-1054 -1099 0
-1054 -1100 0
-1054 -1101 0
-1054 -1102 0
-1054 -1103 0
-1054 -1104 0
-1054 -1105 0
-1054 -1106 0
-1054 -1107 0
-1054 -1108 0
-1054 -1109 0
-1054 -1110 0
-1054 -1111 0
-1054 -1112 0
-1054 -1113 0
-1054 -1114 0
-1054 -1115 0
-1054 -1116 0
-1054 -1117 0
-1054 -1118 0
-1054 -1119 0
-1054 -1120 0
-1054 -1121 0
-1054 -1122 0
-1054 -1123 0
-1054 -1124 0
-1054 -1125 0
-1054 -1126 0
-1054 -1127 0
-1055 -1056 0
-1055 -1057 0
-1055 -1058 0
-1055 -1059 0
-1055 -1060 0
-1055 -1061 0
-1055 -1062 0
-1055 -1063 0
-1055 -1064 0
-1055 -1065 0
-1055 -1066 0
-1055 -1067 0
-1055 -1068 0
-1055 -1069 0
-1055 -1070 0
-1055 -1071 0
-1055 -1072 0
-1055 -1073 0
-1055 -1074 0
-1055 -1075 0
-1055 -1076 0
-1055 -1077 0
-1055 -1078 0
-1055 -1079 0
-1055 -1080 0
-1055 -1081 0
-1055 -1082 0
-1055 -1083 0
-1055 -1084 0
-1055 -1085 0
-1055 -1086 0
-1055 -1087 0
-1055 -1088 0
-1055 -1089 0
-1055 -1090 0
-1055 -1091 0
-1055 -1092 0
-1055 -1093 0
-1055 -1094 0
-1055 -1095 0
-1055 -1096 0
-1055 -1097 0
-1055 -1098 0
-1055 -1099 0
-1055 -1100 0
-1055 -1101 0
-1055 -1102 0
-1055 -1103 0
-1055 -1104 0
-1055 -1105 0
-1055 -1106 0
-1055 -1107 0
-1055 -1108 0
-1055 -1109 0
-1055 -1110 0
-1055 -1111 0
-1055 -1112 0
-1055 -1113 0
-1055 -1114 0
-1055 -1115 0
-1055 -1116 0
-1055 -1117 0
-1055 -1118 0
-1055 -1119 0
-1055 -1120 0
-1055 -1121 0
-1055 -1122 0
-1055 -1123 0
-1055 -1124 0
-1055 -1125 0
-1055 -1126 0
-1055 -1127 0
-1056 -1057 0
-1056 -1058 0
-1056 -1059 0
-1056 -1060 0
-1056 -1061 0
-1056 -1062 0
-1056 -1063 0
-1056 -1064 0
-1056 -1065 0
-1056 -1066 0
-1056 -1067 0
-1056 -1068 0
-1056 -1069 0
-1056 -1070 0
-1056 -1071 0
-1056 -1072 0
-1056 -1073 0
-1056 -1074 0
-1056 -1075 0
-1056 -1076 0
-1056 -1077 0
-1056 -1078 0
-1056 -1079 0
-1056 -1080 0
-1056 -1081 0
-1056 -1082 0
-1056 -1083 0
-1056 -1084 0
-1056 -1085 0
-1056 -1086 0
-1056 -1087 0
-1056 -1088 0
-1056 -1089 0
-1056 -1090 0
-1056 -1091 0
-1056 -1092 0
-1056 -1093 0
-1056 -1094 0
-1056 -1095 0
-1056 -1096 0
-1056 -1097 0
-1056 -1098 0
-1056 -1099 0
-1056 -1100 0
-1056 -1101 0
-1056 -1102 0
-1056 -1103 0
-1056 -1104 0
-1056 -1105 0
-1056 -1106 0
-1056 -1107 0
-1056 -1108 0
-1056 -1109 0
-1056 -1110 0
-1056 -1111 0
-1056 -1112 0
-1056 -1113 0
-1056 -1114 0
-1056 -1115 0
-1056 -1116 0
-1056 -1117 0
-1056 -1118 0
-1056 -1119 0
-1056 -1120 0
-1056 -1121 0
-1056 -1122 0
-1056 -1123 0
-1056 -1124 0
-1056 -1125 0
-1056 -1126 0
-1056 -1127 0
-1057 -1058 0
-1057 -1059 0
-1057 -1060 0
-1057 -1061 0
-1057 -1062 0
-1057 -1063 0
-1057 -1064 0
-1057 -1065 0
-1057 -1066 0
-1057 -1067 0
-1057 -1068 0
-1057 -1069 0
-1057 -1070 0
-1057 -1071 0
-1057 -1072 0
-1057 -1073 0
-1057 -1074 0
-1057 -1075 0
-1057 -1076 0
-1057 -1077 0
-1057 -1078 0
-1057 -1079 0
-1057 -1080 0
-1057 -1081 0
-1057 -1082 0
-1057 -1083 0
-1057 -1084 0
-1057 -1085 0
-1057 -1086 0
-1057 -1087 0
-1057 -1088 0
-1057 -1089 0
-1057 -1090 0
-1057 -1091 0
-1057 -1092 0
-1057 -1093 0
-1057 -1094 0
-1057 -1095 0
-1057 -1096 0
-1057 -1097 0
-1057 -1098 0
-1057 -1099 0
-1057 -1100 0
-1057 -1101 0
-1057 -1102 0
-1057 -1103 0
-1057 -1104 0
-1057 -1105 0
-1057 -1106 0
-1057 -1107 0
-1057 -1108 0
-1057 -1109 0
-1057 -1110 0
-1057 -1111 0
-1057 -1112 0
-1057 -1113 0
-1057 -1114 0
-1057 -1115 0
-1057 -1116 0
-1057 -1117 0
-1057 -1118 0
-1057 -1119 0
-1057 -1120 0
-1057 -1121 0
-1057 -1122 0
-1057 -1123 0
-1057 -1124 0
-1057 -1125 0
-1057 -1126 0
-1057 -1127 0
-1058 -1059 0
-1058 -1060 0
-1058 -1061 0
-1058 -1062 0
-1058 -1063 0
-1058 -1064 0
-1058 -1065 0
-1058 -1066 0
-1058 -1067 0
-1058 -1068 0
-1058 -1069 0
-1058 -1070 0
-1058 -1071 0
-1058 -1072 0
-1058 -1073 0
-1058 -1074 0
-1058 -1075 0
-1058 -1076 0
-1058 -1077 0
-1058 -1078 0
-1058 -1079 0
-1058 -1080 0
-1058 -1081 0
-1058 -1082 0
-1058 -1083 0
-1058 -1084 0
-1058 -1085 0
-1058 -1086 0
-1058 -1087 0
-1058 -1088 0
-1058 -1089 0
-1058 -1090 0
-1058 -1091 0
-1058 -1092 0
-1058 -1093 0
-1058 -1094 0
-1058 -1095 0
-1058 -1096 0
-1058 -1097 0
-1058 -1098 0
-1058 -1099 0
-1058 -1100 0
-1058 -1101 0
-1058 -1102 0
-1058 -1103 0
-1058 -1104 0
-1058 -1105 0
-1058 -1106 0
-1058 -1107 0
-1058 -1108 0
-1058 -1109 0
-1058 -1110 0
-1058 -1111 0
-1058 -1112 0
-1058 -1113 0
-1058 -1114 0
-1058 -1115 0
-1058 -1116 0
-1058 -1117 0
-1058 -1118 0
-1058 -1119 0
-1058 -1120 0
-1058 -1121 0
-1058 -1122 0
-1058 -1123 0
-1058 -1124 0
-1058 -1125 0
-1058 -1126 0
-1058 -1127 0
-1059 -1060 0
-1059 -1061 0
-1059 -1062 0
-1059 -1063 0
-1059 -1064 0
-1059 -1065 0
-1059 -1066 0
-1059 -1067 0
-1059 -1068 0
-1059 -1069 0
-1059 -1070 0
-1059 -1071 0
-1059 -1072 0
-1059 -1073 0
-1059 -1074 0
-1059 -1075 0
-1059 -1076 0
-1059 -1077 0
-1059 -1078 0
-1059 -1079 0
-1059 -1080 0
-1059 -1081 0
-1059 -1082 0
-1059 -1083 0
-1059 -1084 0
-1059 -1085 0
-1059 -1086 0
-1059 -1087 0
-1059 -1088 0
-1059 -1089 0
-1059 -1090 0
-1059 -1091 0
-1059 -1092 0
-1059 -1093 0
-1059 -1094 0
-1059 -1095 0
-1059 -1096 0
-1059 -1097 0
-1059 -1098 0
-1059 -1099 0
-1059 -1100 0
-1059 -1101 0
-1059 -1102 0
-1059 -1103 0
-1059 -1104 0
-1059 -1105 0
-1059 -1106 0
-1059 -1107 0
-1059 -1108 0
-1059 -1109 0
-1059 -1110 0
-1059 -1111 0
-1059 -1112 0
-1059 -1113 0
-1059 -1114 0
-1059 -1115 0
-1059 -1116 0
-1059 -1117 0
-1059 -1118 0
-1059 -1119 0
-1059 -1120 0
-1059 -1121 0
-1059 -1122 0
-1059 -1123 0
-1059 -1124 0
-1059 -1125 0
-1059 -1126 0
-1059 -1127 0
-1060 -1061 0
-1060 -1062 0
-1060 -1063 0
-1060 -1064 0
-1060 -1065 0
-1060 -1066 0
-1060 -1067 0
-1060 -1068 0
-1060 -1069 0
-1060 -1070 0
-1060 -1071 0
-1060 -1072 0
-1060 -1073 0
-1060 -1074 0
-1060 -1075 0
-1060 -1076 0
-1060 -1077 0
-1060 -1078 0
-1060 -1079 0
-1060 -1080 0
-1060 -1081 0
-1060 -1082 0
-1060 -1083 0
-1060 -1084 0
-1060 -1085 0
-1060 -1086 0
-1060 -1087 0
-1060 -1088 0
-1060 -1089 0
-1060 -1090 0
-1060 -1091 0
-1060 -1092 0
-1060 -1093 0
-1060 -1094 0
-1060 -1095 0
-1060 -1096 0
-1060 -1097 0
-1060 -1098 0
-1060 -1099 0
-1060 -1100 0
-1060 -1101 0
-1060 -1102 0
-1060 -1103 0
-1060 -1104 0
-1060 -1105 0
-1060 -1106 0
-1060 -1107 0
-1060 -1108 0
-1060 -1109 0
-1060 -1110 0
-1060 -1111 0
-1060 -1112 0
-1060 -1113 0
-1060 -1114 0
-1060 -1115 0
-1060 -1116 0
-1060 -1117 0
-1060 -1118 0
-1060 -1119 0
-1060 -1120 0
-1060 -1121 0
-1060 -1122 0
-1060 -1123 0
-1060 -1124 0
-1060 -1125 0
-1060 -1126 0
-1060 -1127 0
-1061 -1062 0
-1061 -1063 0
-1061 -1064 0
-1061 -1065 0
-1061 -1066 0
-1061 -1067 0
-1061 -1068 0
-1061 -1069 0
-1061 -1070 0
-1061 -1071 0
-1061 -1072 0
-1061 -1073 0
-1061 -1074 0
-1061 -1075 0
-1061 -1076 0
-1061 -1077 0
-1061 -1078 0
-1061 -1079 0
-1061 -1080 0
-1061 -1081 0
-1061 -1082 0
-1061 -1083 0
-1061 -1084 0
-1061 -1085 0
-1061 -1086 0
-1061 -1087 0
-1061 -1088 0
-1061 -1089 0
-1061 -1090 0
-1061 -1091 0
-1061 -1092 0
-1061 -1093 0
-1061 -1094 0
-1061 -1095 0
-1061 -1096 0
-1061 -1097 0
-1061 -1098 0
-1061 -1099 0
-1061 -1100 0
-1061 -1101 0
-1061 -1102 0
-1061 -1103 0
-1061 -1104 0
-1061 -1105 0
-1061 -1106 0
-1061 -1107 0
-1061 -1108 0
-1061 -1109 0
-1061 -1110 0
-1061 -1111 0
-1061 -1112 0
-1061 -1113 0
-1061 -1114 0
-1061 -1115 0
-1061 -1116 0
-1061 -1117 0
-1061 -1118 0
-1061 -1119 0
-1061 -1120 0
-1061 -1121 0
-1061 -1122 0
-1061 -1123 0
-1061 -1124 0
-1061 -1125 0
-1061 -1126 0
-1061 -1127 0
-1062 -1063 0
-1062 -1064 0
-1062 -1065 0
-1062 -1066 0
-1062 -1067 0
-1062 -1068 0
-1062 -1069 0
-1062 -1070 0
-1062 -1071 0
-1062 -1072 0
-1062 -1073 0
-1062 -1074 0
-1062 -1075 0
-1062 -1076 0
-1062 -1077 0
-1062 -1078 0
-1062 -1079 0
-1062 -1080 0
-1062 -1081 0
-1062 -1082 0
-1062 -1083 0
-1062 -1084 0
-1062 -1085 0
-1062 -1086 0
-1062 -1087 0
-1062 -1088 0
-1062 -1089 0
-1062 -1090 0
-1062 -1091 0
-1062 -1092 0
-1062 -1093 0
-1062 -1094 0
-1062 -1095 0
-1062 -1096 0
-1062 -1097 0
-1062 -1098 0
-1062 -1099 0
-1062 -1100 0
-1062 -1101 0
-1062 -1102 0
-1062 -1103 0
-1062 -1104 0
-1062 -1105 0
-1062 -1106 0
-1062 -1107 0
-1062 -1108 0
-1062 -1109 0
-1062 -1110 0
-1062 -1111 0
-1062 -1112 0
-1062 -1113 0
-1062 -1114 0
-1062 -1115 0
-1062 -1116 0
-1062 -1117 0
-1062 -1118 0
-1062 -1119 0
-1062 -1120 0
-1062 -1121 0
-1062 -1122 0
-1062 -1123 0
-1062 -1124 0
-1062 -1125 0
-1062 -1126 0
-1062 -1127 0
-1063 -1064 0
-1063 -1065 0
-1063 -1066 0
-1063 -1067 0
-1063 -1068 0
-1063 -1069 0
-1063 -1070 0
-1063 -1071 0
-1063 -1072 0
-1063 -1073 0
-1063 -1074 0
-1063 -1075 0
-1063 -1076 0
-1063 -1077 0
-1063 -1078 0
-1063 -1079 0
-1063 -1080 0
-1063 -1081 0
-1063 -1082 0
-1063 -1083 0
-1063 -1084 0
-1063 -1085 0
-1063 -1086 0
-1063 -1087 0
-1063 -1088 0
-1063 -1089 0
-1063 -1090 0
-1063 -1091 0
-1063 -1092 0
-1063 -1093 0
-1063 -1094 0
-1063 -1095 0
-1063 -1096 0
-1063 -1097 0
-1063 -1098 0
-1063 -1099 0
-1063 -1100 0
-1063 -1101 0
-1063 -1102 0
-1063 -1103 0
-1063 -1104 0
-1063 -1105 0
-1063 -1106 0
-1063 -1107 0
-1063 -1108 0
-1063 -1109 0
-1063 -1110 0
-1063 -1111 0
-1063 -1112 0
-1063 -1113 0
-1063 -1114 0
-1063 -1115 0
-1063 -1116 0
-1063 -1117 0
-1063 -1118 0
-1063 -1119 0
-1063 -1120 0
-1063 -1121 0
-1063 -1122 0
-1063 -1123 0
-1063 -1124 0
-1063 -1125 0
-1063 -1126 0
-1063 -1127 0
-1064 -1065 0
-1064 -1066 0
-1064 -1067 0
-1064 -1068 0
-1064 -1069 0
-1064 -1070 0
-1064 -1071 0
-1064 -1072 0
-1064 -1073 0
-1064 -1074 0
-1064 -1075 0
-1064 -1076 0
-1064 -1077 0
-1064 -1078 0
-1064 -1079 0
-1064 -1080 0
-1064 -1081 0
-1064 -1082 0
-1064 -1083 0
-1064 -1084 0
-1064 -1085 0
-1064 -1086 0
-1064 -1087 0
-1064 -1088 0
-1064 -1089 0
-1064 -1090 0
-1064 -1091 0
-1064 -1092 0
-1064 -1093 0
-1064 -1094 0
-1064 -1095 0
-1064 -1096 0
-1064 -1097 0
-1064 -1098 0
-1064 -1099 0
-1064 -1100 0
-1064 -1101 0
-1064 -1102 0
-1064 -1103 0
-1064 -1104 0
-1064 -1105 0
-1064 -1106 0
-1064 -1107 0
-1064 -1108 0
-1064 -1109 0
-1064 -1110 0
-1064 -1111 0
-1064 -1112 0
-1064 -1113 0
-1064 -1114 0
-1064 -1115 0
-1064 -1116 0
-1064 -1117 0
-1064 -1118 0
-1064 -1119 0
-1064 -1120 0
-1064 -1121 0
-1064 -1122 0
-1064 -1123 0
-1064 -1124 0
-1064 -1125 0
-1064 -1126 0
-1064 -1127 0
-1065 -1066 0
-1065 -1067 0
-1065 -1068 0
-1065 -1069 0
-1065 -1070 0
-1065 -1071 0
-1065 -1072 0
-1065 -1073 0
-1065 -1074 0
-1065 -1075 0
-1065 -1076 0
-1065 -1077 0
-1065 -1078 0
-1065 -1079 0
-1065 -1080 0
-1065 -1081 0
-1065 -1082 0
-1065 -1083 0
-1065 -1084 0
-1065 -1085 0
-1065 -1086 0
-1065 -1087 0
-1065 -1088 0
-1065 -1089 0
-1065 -1090 0
-1065 -1091 0
-1065 -1092 0
-1065 -1093 0
-1065 -1094 0
-1065 -1095 0
-1065 -1096 0
-1065 -1097 0
-1065 -1098 0
-1065 -1099 0
-1065 -1100 0
-1065 -1101 0
-1065 -1102 0
-1065 -1103 0
-1065 -1104 0
-1065 -1105 0
-1065 -1106 0
-1065 -1107 0
-1065 -1108 0
-1065 -1109 0
-1065 -1110 0
-1065 -1111 0
-1065 -1112 0
-1065 -1113 0
-1065 -1114 0
-1065 -1115 0
-1065 -1116 0
-1065 -1117 0
-1065 -1118 0
-1065 -1119 0
-1065 -1120 0
-1065 -1121 0
-1065 -1122 0
-1065 -1123 0
-1065 -1124 0
-1065 -1125 0
-1065 -1126 0
-1065 -1127 0
-1066 -1067 0
-1066 -1068 0
-1066 -1069 0
-1066 -1070 0
-1066 -1071 0
-1066 -1072 0
-1066 -1073 0
-1066 -1074 0
-1066 -1075 0
-1066 -1076 0
-1066 -1077 0
-1066 -1078 0
-1066 -1079 0
-1066 -1080 0
-1066 -1081 0
-1066 -1082 0
-1066 -1083 0
-1066 -1084 0
-1066 -1085 0
-1066 -1086 0
-1066 -1087 0
-1066 -1088 0
-1066 -1089 0
-1066 -1090 0
-1066 -1091 0
-1066 -1092 0
-1066 -1093 0
-1066 -1094 0
-1066 -1095 0
-1066 -1096 0
-1066 -1097 0
-1066 -1098 0
-1066 -1099 0
-1066 -1100 0
-1066 -1101 0
-1066 -1102 0
-1066 -1103 0
-1066 -1104 0
-1066 -1105 0
-1066 -1106 0
-1066 -1107 0
-1066 -1108 0
-1066 -1109 0
-1066 -1110 0
-1066 -1111 0
-1066 -1112 0
-1066 -1113 0
-1066 -1114 0
-1066 -1115 0
-1066 -1116 0
-1066 -1117 0
-1066 -1118 0
-1066 -1119 0
-1066 -1120 0
-1066 -1121 0
-1066 -1122 0
-1066 -1123 0
-1066 -1124 0
-1066 -1125 0
-1066 -1126 0
-1066 -1127 0
-1067 -1068 0
-1067 -1069 0
-1067 -1070 0
-1067 -1071 0
-1067 -1072 0
-1067 -1073 0
-1067 -1074 0
-1067 -1075 0
-1067 -1076 0
-1067 -1077 0
-1067 -1078 0
-1067 -1079 0
-1067 -1080 0
-1067 -1081 0
-1067 -1082 0
-1067 -1083 0
-1067 -1084 0
-1067 -1085 0
-1067 -1086 0
-1067 -1087 0
-1067 -1088 0
-1067 -1089 0
-1067 -1090 0
-1067 -1091 0
-1067 -1092 0
-1067 -1093 0
-1067 -1094 0
-1067 -1095 0
-1067 -1096 0
-1067 -1097 0
-1067 -1098 0
-1067 -1099 0
-1067 -1100 0
-1067 -1101 0
-1067 -1102 0
-1067 -1103 0
-1067 -1104 0
-1067 -1105 0
-1067 -1106 0
-1067 -1107 0
-1067 -1108 0
-1067 -1109 0
-1067 -1110 0
-1067 -1111 0
-1067 -1112 0
-1067 -1113 0
-1067 -1114 0
-1067 -1115 0
-1067 -1116 0
-1067 -1117 0
-1067 -1118 0
-1067 -1119 0
-1067 -1120 0
-1067 -1121 0
-1067 -1122 0
-1067 -1123 0
-1067 -1124 0
-1067 -1125 0
-1067 -1126 0
-1067 -1127 0
-1068 -1069 0
-1068 -1070 0
-1068 -1071 0
-1068 -1072 0
-1068 -1073 0
-1068 -1074 0
-1068 -1075 0
-1068 -1076 0
-1068 -1077 0
-1068 -1078 0
-1068 -1079 0
-1068 -1080 0
-1068 -1081 0
-1068 -1082 0
-1068 -1083 0
-1068 -1084 0
-1068 -1085 0
-1068 -1086 0
-1068 -1087 0
-1068 -1088 0
-1068 -1089 0
-1068 -1090 0
-1068 -1091 0
-1068 -1092 0
-1068 -1093 0
-1068 -1094 0
-1068 -1095 0
-1068 -1096 0
-1068 -1097 0
-1068 -1098 0
-1068 -1099 0
-1068 -1100 0
-1068 -1101 0
-1068 -1102 0
-1068 -1103 0
-1068 -1104 0
-1068 -1105 0
-1068 -1106 0
-1068 -1107 0
-1068 -1108 0
-1068 -1109 0
-1068 -1110 0
-1068 -1111 0
-1068 -1112 0
-1068 -1113 0
-1068 -1114 0
-1068 -1115 0
-1068 -1116 0
-1068 -1117 0
-1068 -1118 0
-1068 -1119 0
-1068 -1120 0
-1068 -1121 0
-1068 -1122 0
-1068 -1123 0
-1068 -1124 0
-1068 -1125 0
-1068 -1126 0
-1068 -1127 0
-1069 -1070 0
-1069 -1071 0
-1069 -1072 0
-1069 -1073 0
-1069 -1074 0
-1069 -1075 0
-1069 -1076 0
-1069 -1077 0
-1069 -1078 0
-1069 -1079 0
-1069 -1080 0
-1069 -1081 0
-1069 -1082 0
-1069 -1083 0
-1069 -1084 0
-1069 -1085 0
-1069 -1086 0
-1069 -1087 0
-1069 -1088 0
-1069 -1089 0
-1069 -1090 0
-1069 -1091 0
-1069 -1092 0
-1069 -1093 0
-1069 -1094 0
-1069 -1095 0
-1069 -1096 0
-1069 -1097 0
-1069 -1098 0
-1069 -1099 0
-1069 -1100 0
-1069 -1101 0
-1069 -1102 0
-1069 -1103 0
-1069 -1104 0
-1069 -1105 0
-1069 -1106 0
-1069 -1107 0
-1069 -1108 0
-1069 -1109 0
-1069 -1110 0
-1069 -1111 0
-1069 -1112 0
-1069 -1113 0
-1069 -1114 0
-1069 -1115 0
-1069 -1116 0
-1069 -1117 0
-1069 -1118 0
-1069 -1119 0
-1069 -1120 0
-1069 -1121 0
-1069 -1122 0
-1069 -1123 0
-1069 -1124 0
-1069 -1125 0
-1069 -1126 0
-1069 -1127 0
-1070 -1071 0
-1070 -1072 0
-1070 -1073 0
-1070 -1074 0
-1070 -1075 0
-1070 -1076 0
-1070 -1077 0
-1070 -1078 0
-1070 -1079 0
-1070 -1080 0
-1070 -1081 0
-1070 -1082 0
-1070 -1083 0
-1070 -1084 0
-1070 -1085 0
-1070 -1086 0
-1070 -1087 0
-1070 -1088 0
-1070 -1089 0
-1070 -1090 0
-1070 -1091 0
-1070 -1092 0
-1070 -1093 0
-1070 -1094 0
-1070 -1095 0
-1070 -1096 0
-1070 -1097 0
-1070 -1098 0
-1070 -1099 0
-1070 -1100 0
-1070 -1101 0
-1070 -1102 0
-1070 -1103 0
-1070 -1104 0
-1070 -1105 0
-1070 -1106 0
-1070 -1107 0
-1070 -1108 0
-1070 -1109 0
-1070 -1110 0
-1070 -1111 0
-1070 -1112 0
-1070 -1113 0
-1070 -1114 0
-1070 -1115 0
-1070 -1116 0
-1070 -1117 0
-1070 -1118 0
-1070 -1119 0
-1070 -1120 0
-1070 -1121 0
-1070 -1122 0
-1070 -1123 0
-1070 -1124 0
-1070 -1125 0
-1070 -1126 0
-1070 -1127 0
-1071 -1072 0
-1071 -1073 0
-1071 -1074 0
-1071 -1075 0
-1071 -1076 0
-1071 -1077 0
-1071 -1078 0
-1071 -1079 0
-1071 -1080 0
-1071 -1081 0
-1071 -1082 0
-1071 -1083 0
-1071 -1084 0
-1071 -1085 0
-1071 -1086 0
-1071 -1087 0
-1071 -1088 0
-1071 -1089 0
-1071 -1090 0
-1071 -1091 0
-1071 -1092 0
-1071 -1093 0
-1071 -1094 0
-1071 -1095 0
-1071 -1096 0
-1071 -1097 0
-1071 -1098 0
-1071 -1099 0
-1071 -1100 0
-1071 -1101 0
-1071 -1102 0
-1071 -1103 0
-1071 -1104 0
-1071 -1105 0
-1071 -1106 0
-1071 -1107 0
-1071 -1108 0
-1071 -1109 0
-1071 -1110 0
-1071 -1111 0
-1071 -1112 0
-1071 -1113 0
-1071 -1114 0
-1071 -1115 0
-1071 -1116 0
-1071 -1117 0
-1071 -1118 0
-1071 -1119 0
-1071 -1120 0
-1071 -1121 0
-1071 -1122 0
-1071 -1123 0
-1071 -1124 0
-1071 -1125 0
-1071 -1126 0
-1071 -1127 0
-1072 -1073 0
-1072 -1074 0
-1072 -1075 0
-1072 -1076 0
-1072 -1077 0
-1072 -1078 0
-1072 -1079 0
-1072 -1080 0
-1072 -1081 0
-1072 -1082 0
-1072 -1083 0
-1072 -1084 0
-1072 -1085 0
-1072 -1086 0
-1072 -1087 0
-1072 -1088 0
-1072 -1089 0
-1072 -1090 0
-1072 -1091 0
-1072 -1092 0
-1072 -1093 0
-1072 -1094 0
-1072 -1095 0
-1072 -1096 0
-1072 -1097 0
-1072 -1098 0
-1072 -1099 0
-1072 -1100 0
-1072 -1101 0
-1072 -1102 0
-1072 -1103 0
-1072 -1104 0
-1072 -1105 0
-1072 -1106 0
-1072 -1107 0
-1072 -1108 0
-1072 -1109 0
-1072 -1110 0
-1072 -1111 0
-1072 -1112 0
-1072 -1113 0
-1072 -1114 0
-1072 -1115 0
-1072 -1116 0
-1072 -1117 0
-1072 -1118 0
-1072 -1119 0
-1072 -1120 0
-1072 -1121 0
-1072 -1122 0
-1072 -1123 0
-1072 -1124 0
-1072 -1125 0
-1072 -1126 0
-1072 -1127 0
-1073 -1074 0
-1073 -1075 0
-1073 -1076 0
-1073 -1077 0
-1073 -1078 0
-1073 -1079 0
-1073 -1080 0
-1073 -1081 0
-1073 -1082 0
-1073 -1083 0
-1073 -1084 0
-1073 -1085 0
-1073 -1086 0
-1073 -1087 0
-1073 -1088 0
-1073 -1089 0
-1073 -1090 0
-1073 -1091 0
-1073 -1092 0
-1073 -1093 0
-1073 -1094 0
-1073 -1095 0
-1073 -1096 0
-1073 -1097 0
-1073 -1098 0
-1073 -1099 0
-1073 -1100 0
-1073 -1101 0
-1073 -1102 0
-1073 -1103 0
-1073 -1104 0
-1073 -1105 0
-1073 -1106 0
-1073 -1107 0
-1073 -1108 0
-1073 -1109 0
-1073 -1110 0
-1073 -1111 0
-1073 -1112 0
-1073 -1113 0
-1073 -1114 0
-1073 -1115 0
-1073 -1116 0
-1073 -1117 0
-1073 -1118 0
-1073 -1119 0
-1073 -1120 0
-1073 -1121 0
-1073 -1122 0
-1073 -1123 0
-1073 -1124 0
-1073 -1125 0
-1073 -1126 0
-1073 -1127 0
-1074 -1075 0
-1074 -1076 0
-1074 -1077 0
-1074 -1078 0
-1074 -1079 0
-1074 -1080 0
-1074 -1081 0
-1074 -1082 0
-1074 -1083 0
-1074 -1084 0
-1074 -1085 0
-1074 -1086 0
-1074 -1087 0
-1074 -1088 0
-1074 -1089 0
-1074 -1090 0
-1074 -1091 0
-1074 -1092 0
-1074 -1093 0
-1074 -1094 0
-1074 -1095 0
-1074 -1096 0
-1074 -1097 0
-1074 -1098 0
-1074 -1099 0
-1074 -1100 0
-1074 -1101 0
-1074 -1102 0
-1074 -1103 0
-1074 -1104 0
-1074 -1105 0
-1074 -1106 0
-1074 -1107 0
-1074 -1108 0
-1074 -1109 0
-1074 -1110 0
-1074 -1111 0
-1074 -1112 0
-1074 -1113 0
-1074 -1114 0
-1074 -1115 0
-1074 -1116 0
-1074 -1117 0
-1074 -1118 0
-1074 -1119 0
-1074 -1120 0
-1074 -1121 0
-1074 -1122 0
-1074 -1123 0
-1074 -1124 0
-1074 -1125 0
-1074 -1126 0
-1074 -1127 0
-1075 -1076 0
-1075 -1077 0
-1075 -1078 0
-1075 -1079 0
-1075 -1080 0
-1075 -1081 0
-1075 -1082 0
-1075 -1083 0
-1075 -1084 0
-1075 -1085 0
-1075 -1086 0
-1075 -1087 0
-1075 -1088 0
-1075 -1089 0
-1075 -1090 0
-1075 -1091 0
-1075 -1092 0
-1075 -1093 0
-1075 -1094 0
-1075 -1095 0
-1075 -1096 0
-1075 -1097 0
-1075 -1098 0
-1075 -1099 0
-1075 -1100 0
-1075 -1101 0
-1075 -1102 0
-1075 -1103 0
-1075 -1104 0
-1075 -1105 0
-1075 -1106 0
-1075 -1107 0
-1075 -1108 0
-1075 -1109 0
-1075 -1110 0
-1075 -1111 0
-1075 -1112 0
-1075 -1113 0
-1075 -1114 0
-1075 -1115 0
-1075 -1116 0
-1075 -1117 0
-1075 -1118 0
-1075 -1119 0
-1075 -1120 0
-1075 -1121 0
-1075 -1122 0
-1075 -1123 0
-1075 -1124 0
-1075 -1125 0
-1075 -1126 0
-1075 -1127 0
-1076 -1077 0
-1076 -1078 0
-1076 -1079 0
-1076 -1080 0
-1076 -1081 0
-1076 -1082 0
-1076 -1083 0
-1076 -1084 0
-1076 -1085 0
-1076 -1086 0
-1076 -1087 0
-1076 -1088 0
-1076 -1089 0
-1076 -1090 0
-1076 -1091 0
-1076 -1092 0
-1076 -1093 0
-1076 -1094 0
-1076 -1095 0
-1076 -1096 0
-1076 -1097 0
-1076 -1098 0
-1076 -1099 0
-1076 -1100 0
-1076 -1101 0
-1076 -1102 0
-1076 -1103 0
-1076 -1104 0
-1076 -1105 0
-1076 -1106 0
-1076 -1107 0
-1076 -1108 0
-1076 -1109 0
-1076 -1110 0
-1076 -1111 0
-1076 -1112 0
-1076 -1113 0
-1076 -1114 0
-1076 -1115 0
-1076 -1116 0
-1076 -1117 0
-1076 -1118 0
-1076 -1119 0
-1076 -1120 0
-1076 -1121 0
-1076 -1122 0
-1076 -1123 0
-1076 -1124 0
-1076 -1125 0
-1076 -1126 0
-1076 -1127 0
-1077 -1078 0
-1077 -1079 0
-1077 -1080 0
-1077 -1081 0
-1077 -1082 0
-1077 -1083 0
-1077 -1084 0
-1077 -1085 0
-1077 -1086 0
-1077 -1087 0
-1077 -1088 0
-1077 -1089 0
-1077 -1090 0
-1077 -1091 0
-1077 -1092 0
-1077 -1093 0
-1077 -1094 0
-1077 -1095 0
-1077 -1096 0
-1077 -1097 0
-1077 -1098 0
-1077 -1099 0
-1077 -1100 0
-1077 -1101 0
-1077 -1102 0
-1077 -1103 0
-1077 -1104 0
-1077 -1105 0
-1077 -1106 0
-1077 -1107 0
-1077 -1108 0
-1077 -1109 0
-1077 -1110 0
-1077 -1111 0
-1077 -1112 0
-1077 -1113 0
-1077 -1114 0
-1077 -1115 0
-1077 -1116 0
-1077 -1117 0
-1077 -1118 0
-1077 -1119 0
-1077 -1120 0
-1077 -1121 0
-1077 -1122 0
-1077 -1123 0
-1077 -1124 0
-1077 -1125 0
-1077 -1126 0
-1077 -1127 0
-1078 -1079 0
-1078 -1080 0
-1078 -1081 0
-1078 -1082 0
-1078 -1083 0
-1078 -1084 0
-1078 -1085 0
-1078 -1086 0
-1078 -1087 0
-1078 -1088 0
-1078 -1089 0
-1078 -1090 0
-1078 -1091 0
-1078 -1092 0
-1078 -1093 0
-1078 -1094 0
-1078 -1095 0
-1078 -1096 0
-1078 -1097 0
-1078 -1098 0
-1078 -1099 0
-1078 -1100 0
-1078 -1101 0
-1078 -1102 0
-1078 -1103 0
-1078 -1104 0
-1078 -1105 0
-1078 -1106 0
-1078 -1107 0
-1078 -1108 0
-1078 -1109 0
-1078 -1110 0
-1078 -1111 0
-1078 -1112 0
-1078 -1113 0
-1078 -1114 0
-1078 -1115 0
-1078 -1116 0
-1078 -1117 0
-1078 -1118 0
-1078 -1119 0
-1078 -1120 0
-1078 -1121 0
-1078 -1122 0
-1078 -1123 0
-1078 -1124 0
-1078 -1125 0
-1078 -1126 0
-1078 -1127 0
-1079 -1080 0
-1079 -1081 0
-1079 -1082 0
-1079 -1083 0
-1079 -1084 0
-1079 -1085 0
-1079 -1086 0
-1079 -1087 0
-1079 -1088 0
-1079 -1089 0
-1079 -1090 0
-1079 -1091 0
-1079 -1092 0
-1079 -1093 0
-1079 -1094 0
-1079 -1095 0
-1079 -1096 0
-1079 -1097 0
-1079 -1098 0
-1079 -1099 0
-1079 -1100 0
-1079 -1101 0
-1079 -1102 0
-1079 -1103 0
-1079 -1104 0
-1079 -1105 0
-1079 -1106 0
-1079 -1107 0
-1079 -1108 0
-1079 -1109 0
-1079 -1110 0
-1079 -1111 0
-1079 -1112 0
-1079 -1113 0
-1079 -1114 0
-1079 -1115 0
-1079 -1116 0
-1079 -1117 0
-1079 -1118 0
-1079 -1119 0
-1079 -1120 0
-1079 -1121 0
-1079 -1122 0
-1079 -1123 0
-1079 -1124 0
-1079 -1125 0
-1079 -1126 0
-1079 -1127 0
-1080 -1081 0
-1080 -1082 0
-1080 -1083 0
-1080 -1084 0
-1080 -1085 0
-1080 -1086 0
-1080 -1087 0
-1080 -1088 0
-1080 -1089 0
-1080 -1090 0
-1080 -1091 0
-1080 -1092 0
-1080 -1093 0
-1080 -1094 0
-1080 -1095 0
-1080 -1096 0
-1080 -1097 0
-1080 -1098 0
-1080 -1099 0
-1080 -1100 0
-1080 -1101 0
-1080 -1102 0
-1080 -1103 0
-1080 -1104 0
-1080 -1105 0
-1080 -1106 0
-1080 -1107 0
-1080 -1108 0
-1080 -1109 0
-1080 -1110 0
-1080 -1111 0
-1080 -1112 0
-1080 -1113 0
-1080 -1114 0
-1080 -1115 0
-1080 -1116 0
-1080 -1117 0
-1080 -1118 0
-1080 -1119 0
-1080 -1120 0
-1080 -1121 0
-1080 -1122 0
-1080 -1123 0
-1080 -1124 0
-1080 -1125 0
-1080 -1126 0
-1080 -1127 0
-1081 -1082 0
-1081 -1083 0
-1081 -1084 0
-1081 -1085 0
-1081 -1086 0
-1081 -1087 0
-1081 -1088 0
-1081 -1089 0
-1081 -1090 0
-1081 -1091 0
-1081 -1092 0
-1081 -1093 0
-1081 -1094 0
-1081 -1095 0
-1081 -1096 0
-1081 -1097 0
-1081 -1098 0
-1081 -1099 0
-1081 -1100 0
-1081 -1101 0
-1081 -1102 0
-1081 -1103 0
-1081 -1104 0
-1081 -1105 0
-1081 -1106 0
-1081 -1107 0
-1081 -1108 0
-1081 -1109 0
-1081 -1110 0
-1081 -1111 0
-1081 -1112 0
-1081 -1113 0
-1081 -1114 0
-1081 -1115 0
-1081 -1116 0
-1081 -1117 0
-1081 -1118 0
-1081 -1119 0
-1081 -1120 0
-1081 -1121 0
-1081 -1122 0
-1081 -1123 0
-1081 -1124 0
-1081 -1125 0
-1081 -1126 0
-1081 -1127 0
-1082 -1083 0
-1082 -1084 0
-1082 -1085 0
-1082 -1086 0
-1082 -1087 0
-1082 -1088 0
-1082 -1089 0
-1082 -1090 0
-1082 -1091 0
-1082 -1092 0
-1082 -1093 0
-1082 -1094 0
-1082 -1095 0
-1082 -1096 0
-1082 -1097 0
-1082 -1098 0
-1082 -1099 0
-1082 -1100 0
-1082 -1101 0
-1082 -1102 0
-1082 -1103 0
-1082 -1104 0
-1082 -1105 0
-1082 -1106 0
-1082 -1107 0
-1082 -1108 0
-1082 -1109 0
-1082 -1110 0
-1082 -1111 0
-1082 -1112 0
-1082 -1113 0
-1082 -1114 0
-1082 -1115 0
-1082 -1116 0
-1082 -1117 0
-1082 -1118 0
-1082 -1119 0
-1082 -1120 0
-1082 -1121 0
-1082 -1122 0
-1082 -1123 0
-1082 -1124 0
-1082 -1125 0
-1082 -1126 0
-1082 -1127 0
-1083 -1084 0
-1083 -1085 0
-1083 -1086 0
-1083 -1087 0
-1083 -1088 0
-1083 -1089 0
-1083 -1090 0
-1083 -1091 0
-1083 -1092 0
-1083 -1093 0
-1083 -1094 0
-1083 -1095 0
-1083 -1096 0
-1083 -1097 0
-1083 -1098 0
-1083 -1099 0
-1083 -1100 0
-1083 -1101 0
-1083 -1102 0
-1083 -1103 0
-1083 -1104 0
-1083 -1105 0
-1083 -1106 0
-1083 -1107 0
-1083 -1108 0
-1083 -1109 0
-1083 -1110 0
-1083 -1111 0
-1083 -1112 0
-1083 -1113 0
-1083 -1114 0
-1083 -1115 0
-1083 -1116 0
-1083 -1117 0
-1083 -1118 0
-1083 -1119 0
-1083 -1120 0
-1083 -1121 0
-1083 -1122 0
-1083 -1123 0
-1083 -1124 0
-1083 -1125 0
-1083 -1126 0
-1083 -1127 0
-1084 -1085 0
-1084 -1086 0
-1084 -1087 0
-1084 -1088 0
-1084 -1089 0
-1084 -1090 0
-1084 -1091 0
-1084 -1092 0
-1084 -1093 0
-1084 -1094 0
-1084 -1095 0
-1084 -1096 0
-1084 -1097 0
-1084 -1098 0
-1084 -1099 0
-1084 -1100 0
-1084 -1101 0
-1084 -1102 0
-1084 -1103 0
-1084 -1104 0
-1084 -1105 0
-1084 -1106 0
-1084 -1107 0
-1084 -1108 0
-1084 -1109 0
-1084 -1110 0
-1084 -1111 0
-1084 -1112 0
-1084 -1113 0
-1084 -1114 0
-1084 -1115 0
-1084 -1116 0
-1084 -1117 0
-1084 -1118 0
-1084 -1119 0
-1084 -1120 0
-1084 -1121 0
-1084 -1122 0
-1084 -1123 0
-1084 -1124 0
-1084 -1125 0
-1084 -1126 0
-1084 -1127 0
-1085 -1086 0
-1085 -1087 0
-1085 -1088 0
-1085 -1089 0
-1085 -1090 0
-1085 -1091 0
-1085 -1092 0
-1085 -1093 0
-1085 -1094 0
-1085 -1095 0
-1085 -1096 0
-1085 -1097 0
-1085 -1098 0
-1085 -1099 0
-1085 -1100 0
-1085 -1101 0
-1085 -1102 0
-1085 -1103 0
-1085 -1104 0
-1085 -1105 0
-1085 -1106 0
-1085 -1107 0
-1085 -1108 0
-1085 -1109 0
-1085 -1110 0
-1085 -1111 0
-1085 -1112 0
-1085 -1113 0
-1085 -1114 0
-1085 -1115 0
-1085 -1116 0
-1085 -1117 0
-1085 -1118 0
-1085 -1119 0
-1085 -1120 0
-1085 -1121 0
-1085 -1122 0
-1085 -1123 0
-1085 -1124 0
-1085 -1125 0
-1085 -1126 0
-1085 -1127 0
-1086 -1087 0
-1086 -1088 0
-1086 -1089 0
-1086 -1090 0
-1086 -1091 0
-1086 -1092 0
-1086 -1093 0
-1086 -1094 0
-1086 -1095 0
-1086 -1096 0
-1086 -1097 0
-1086 -1098 0
-1086 -1099 0
-1086 -1100 0
-1086 -1101 0
-1086 -1102 0
-1086 -1103 0
-1086 -1104 0
-1086 -1105 0
-1086 -1106 0
-1086 -1107 0
-1086 -1108 0
-1086 -1109 0
-1086 -1110 0
-1086 -1111 0
-1086 -1112 0
-1086 -1113 0
-1086 -1114 0
-1086 -1115 0
-1086 -1116 0
-1086 -1117 0
-1086 -1118 0
-1086 -1119 0
-1086 -1120 0
-1086 -1121 0
-1086 -1122 0
-1086 -1123 0
-1086 -1124 0
-1086 -1125 0
-1086 -1126 0
-1086 -1127 0
-1087 -1088 0
-1087 -1089 0
-1087 -1090 0
-1087 -1091 0
-1087 -1092 0
-1087 -1093 0
-1087 -1094 0
-1087 -1095 0
-1087 -1096 0
-1087 -1097 0
-1087 -1098 0
-1087 -1099 0
-1087 -1100 0
-1087 -1101 0
-1087 -1102 0
-1087 -1103 0
-1087 -1104 0
-1087 -1105 0
-1087 -1106 0
-1087 -1107 0
-1087 -1108 0
-1087 -1109 0
-1087 -1110 0
-1087 -1111 0
-1087 -1112 0
-1087 -1113 0
-1087 -1114 0
-1087 -1115 0
-1087 -1116 0
-1087 -1117 0
-1087 -1118 0
-1087 -1119 0
-1087 -1120 0
-1087 -1121 0
-1087 -1122 0
-1087 -1123 0
-1087 -1124 0
-1087 -1125 0
-1087 -1126 0
-1087 -1127 0
-1088 -1089 0
-1088 -1090 0
-1088 -1091 0
-1088 -1092 0
-1088 -1093 0
-1088 -1094 0
-1088 -1095 0
-1088 -1096 0
-1088 -1097 0
-1088 -1098 0
-1088 -1099 0
-1088 -1100 0
-1088 -1101 0
-1088 -1102 0
-1088 -1103 0
-1088 -1104 0
-1088 -1105 0
-1088 -1106 0
-1088 -1107 0
-1088 -1108 0
-1088 -1109 0
-1088 -1110 0
-1088 -1111 0
-1088 -1112 0
-1088 -1113 0
-1088 -1114 0
-1088 -1115 0
-1088 -1116 0
-1088 -1117 0
-1088 -1118 0
-1088 -1119 0
-1088 -1120 0
-1088 -1121 0
-1088 -1122 0
-1088 -1123 0
-1088 -1124 0
-1088 -1125 0
-1088 -1126 0
-1088 -1127 0
-1089 -1090 0
-1089 -1091 0
-1089 -1092 0
-1089 -1093 0
-1089 -1094 0
-1089 -1095 0
-1089 -1096 0
-1089 -1097 0
-1089 -1098 0
-1089 -1099 0
-1089 -1100 0
-1089 -1101 0
-1089 -1102 0
-1089 -1103 0
-1089 -1104 0
-1089 -1105 0
-1089 -1106 0
-1089 -1107 0
-1089 -1108 0
-1089 -1109 0
-1089 -1110 0
-1089 -1111 0
-1089 -1112 0
-1089 -1113 0
-1089 -1114 0
-1089 -1115 0
-1089 -1116 0
-1089 -1117 0
-1089 -1118 0
-1089 -1119 0
-1089 -1120 0
-1089 -1121 0
-1089 -1122 0
-1089 -1123 0
-1089 -1124 0
-1089 -1125 0
-1089 -1126 0
-1089 -1127 0
-1090 -1091 0
-1090 -1092 0
-1090 -1093 0
-1090 -1094 0
-1090 -1095 0
-1090 -1096 0
-1090 -1097 0
-1090 -1098 0
-1090 -1099 0
-1090 -1100 0
-1090 -1101 0
-1090 -1102 0
-1090 -1103 0
-1090 -1104 0
-1090 -1105 0
-1090 -1106 0
-1090 -1107 0
-1090 -1108 0
-1090 -1109 0
-1090 -1110 0
-1090 -1111 0
-1090 -1112 0
-1090 -1113 0
-1090 -1114 0
-1090 -1115 0
-1090 -1116 0
-1090 -1117 0
-1090 -1118 0
-1090 -1119 0
-1090 -1120 0
-1090 -1121 0
-1090 -1122 0
-1090 -1123 0
-1090 -1124 0
-1090 -1125 0
-1090 -1126 0
-1090 -1127 0
-1091 -1092 0
-1091 -1093 0
-1091 -1094 0
-1091 -1095 0
-1091 -1096 0
-1091 -1097 0
-1091 -1098 0
-1091 -1099 0
-1091 -1100 0
-1091 -1101 0
-1091 -1102 0
-1091 -1103 0
-1091 -1104 0
-1091 -1105 0
-1091 -1106 0
-1091 -1107 0
-1091 -1108 0
-1091 -1109 0
-1091 -1110 0
-1091 -1111 0
-1091 -1112 0
-1091 -1113 0
-1091 -1114 0
-1091 -1115 0
-1091 -1116 0
-1091 -1117 0
-1091 -1118 0
-1091 -1119 0
-1091 -1120 0
-1091 -1121 0
-1091 -1122 0
-1091 -1123 0
-1091 -1124 0
-1091 -1125 0
-1091 -1126 0
-1091 -1127 0
-1092 -1093 0
-1092 -1094 0
-1092 -1095 0
-1092 -1096 0
-1092 -1097 0
-1092 -1098 0
-1092 -1099 0
-1092 -1100 0
-1092 -1101 0
-1092 -1102 0
-1092 -1103 0
-1092 -1104 0
-1092 -1105 0
-1092 -1106 0
-1092 -1107 0
-1092 -1108 0
-1092 -1109 0
-1092 -1110 0
-1092 -1111 0
-1092 -1112 0
-1092 -1113 0
-1092 -1114 0
-1092 -1115 0
-1092 -1116 0
-1092 -1117 0
-1092 -1118 0
-1092 -1119 0
-1092 -1120 0
-1092 -1121 0
-1092 -1122 0
-1092 -1123 0
-1092 -1124 0
-1092 -1125 0
-1092 -1126 0
-1092 -1127 0
-1093 -1094 0
-1093 -1095 0
-1093 -1096 0
-1093 -1097 0
-1093 -1098 0
-1093 -1099 0
-1093 -1100 0
-1093 -1101 0
-1093 -1102 0
-1093 -1103 0
-1093 -1104 0
-1093 -1105 0
-1093 -1106 0
-1093 -1107 0
-1093 -1108 0
-1093 -1109 0
-1093 -1110 0
-1093 -1111 0
-1093 -1112 0
-1093 -1113 0
-1093 -1114 0
-1093 -1115 0
-1093 -1116 0
-1093 -1117 0
-1093 -1118 0
-1093 -1119 0
-1093 -1120 0
-1093 -1121 0
-1093 -1122 0
-1093 -1123 0
-1093 -1124 0
-1093 -1125 0
-1093 -1126 0
-1093 -1127 0
-1094 -1095 0
-1094 -1096 0
-1094 -1097 0
-1094 -1098 0
-1094 -1099 0
-1094 -1100 0
-1094 -1101 0
-1094 -1102 0
-1094 -1103 0
-1094 -1104 0
-1094 -1105 0
-1094 -1106 0
-1094 -1107 0
-1094 -1108 0
-1094 -1109 0
-1094 -1110 0
-1094 -1111 0
-1094 -1112 0
-1094 -1113 0
-1094 -1114 0
-1094 -1115 0
-1094 -1116 0
-1094 -1117 0
-1094 -1118 0
-1094 -1119 0
-1094 -1120 0
-1094 -1121 0
-1094 -1122 0
-1094 -1123 0
-1094 -1124 0
-1094 -1125 0
-1094 -1126 0
-1094 -1127 0
-1095 -1096 0
-1095 -1097 0
-1095 -1098 0
-1095 -1099 0
-1095 -1100 0
-1095 -1101 0
-1095 -1102 0
-1095 -1103 0
-1095 -1104 0
-1095 -1105 0
-1095 -1106 0
-1095 -1107 0
-1095 -1108 0
-1095 -1109 0
-1095 -1110 0
-1095 -1111 0
-1095 -1112 0
-1095 -1113 0
-1095 -1114 0
-1095 -1115 0
-1095 -1116 0
-1095 -1117 0
-1095 -1118 0
-1095 -1119 0
-1095 -1120 0
-1095 -1121 0
-1095 -1122 0
-1095 -1123 0
-1095 -1124 0
-1095 -1125 0
-1095 -1126 0
-1095 -1127 0
-1096 -1097 0
-1096 -1098 0
-1096 -1099 0
-1096 -1100 0
-1096 -1101 0
-1096 -1102 0
-1096 -1103 0
-1096 -1104 0
-1096 -1105 0
-1096 -1106 0
-1096 -1107 0
-1096 -1108 0
-1096 -1109 0
-1096 -1110 0
-1096 -1111 0
-1096 -1112 0
-1096 -1113 0
-1096 -1114 0
-1096 -1115 0
-1096 -1116 0
-1096 -1117 0
-1096 -1118 0
-1096 -1119 0
-1096 -1120 0
-1096 -1121 0
-1096 -1122 0
-1096 -1123 0
-1096 -1124 0
-1096 -1125 0
-1096 -1126 0
-1096 -1127 0
-1097 -1098 0
-1097 -1099 0
-1097 -1100 0
-1097 -1101 0
-1097 -1102 0
-1097 -1103 0
-1097 -1104 0
-1097 -1105 0
-1097 -1106 0
-1097 -1107 0
-1097 -1108 0
-1097 -1109 0
-1097 -1110 0
-1097 -1111 0
-1097 -1112 0
-1097 -1113 0
-1097 -1114 0
-1097 -1115 0
-1097 -1116 0
-1097 -1117 0
-1097 -1118 0
-1097 -1119 0
-1097 -1120 0
-1097 -1121 0
-1097 -1122 0
-1097 -1123 0
-1097 -1124 0
-1097 -1125 0
-1097 -1126 0
-1097 -1127 0
-1098 -1099 0
-1098 -1100 0
-1098 -1101 0
-1098 -1102 0
-1098 -1103 0
-1098 -1104 0
-1098 -1105 0
-1098 -1106 0
-1098 -1107 0
-1098 -1108 0
-1098 -1109 0
-1098 -1110 0
-1098 -1111 0
-1098 -1112 0
-1098 -1113 0
-1098 -1114 0
-1098 -1115 0
-1098 -1116 0
-1098 -1117 0
-1098 -1118 0
-1098 -1119 0
-1098 -1120 0
-1098 -1121 0
-1098 -1122 0
-1098 -1123 0
-1098 -1124 0
-1098 -1125 0
-1098 -1126 0
-1098 -1127 0
-1099 -1100 0
-1099 -1101 0
-1099 -1102 0
-1099 -1103 0
-1099 -1104 0
-1099 -1105 0
-1099 -1106 0
-1099 -1107 0
-1099 -1108 0
-1099 -1109 0
-1099 -1110 0
-1099 -1111 0
-1099 -1112 0
-1099 -1113 0
-1099 -1114 0
-1099 -1115 0
-1099 -1116 0
-1099 -1117 0
-1099 -1118 0
-1099 -1119 0
-1099 -1120 0
-1099 -1121 0
-1099 -1122 0
-1099 -1123 0
-1099 -1124 0
-1099 -1125 0
-1099 -1126 0
-1099 -1127 0
-1100 -1101 0
-1100 -1102 0
-1100 -1103 0
-1100 -1104 0
-1100 -1105 0
-1100 -1106 0
-1100 -1107 0
-1100 -1108 0
-1100 -1109 0
-1100 -1110 0
-1100 -1111 0
-1100 -1112 0
-1100 -1113 0
-1100 -1114 0
-1100 -1115 0
-1100 -1116 0
-1100 -1117 0
-1100 -1118 0
-1100 -1119 0
-1100 -1120 0
-1100 -1121 0
-1100 -1122 0
-1100 -1123 0
-1100 -1124 0
-1100 -1125 0
-1100 -1126 0
-1100 -1127 0
-1101 -1102 0
-1101 -1103 0
-1101 -1104 0
-1101 -1105 0
-1101 -1106 0
-1101 -1107 0
-1101 -1108 0
-1101 -1109 0
-1101 -1110 0
-1101 -1111 0
-1101 -1112 0
-1101 -1113 0
-1101 -1114 0
-1101 -1115 0
-1101 -1116 0
-1101 -1117 0
-1101 -1118 0
-1101 -1119 0
-1101 -1120 0
-1101 -1121 0
-1101 -1122 0
-1101 -1123 0
-1101 -1124 0
-1101 -1125 0
-1101 -1126 0
-1101 -1127 0
-1102 -1103 0
-1102 -1104 0
-1102 -1105 0
-1102 -1106 0
-1102 -1107 0
-1102 -1108 0
-1102 -1109 0
-1102 -1110 0
-1102 -1111 0
-1102 -1112 0
-1102 -1113 0
-1102 -1114 0
-1102 -1115 0
-1102 -1116 0
-1102 -1117 0
-1102 -1118 0
-1102 -1119 0
-1102 -1120 0
-1102 -1121 0
-1102 -1122 0
-1102 -1123 0
-1102 -1124 0
-1102 -1125 0
-1102 -1126 0
-1102 -1127 0
-1103 -1104 0
-1103 -1105 0
-1103 -1106 0
-1103 -1107 0
-1103 -1108 0
-1103 -1109 0
-1103 -1110 0
-1103 -1111 0
-1103 -1112 0
-1103 -1113 0
-1103 -1114 0
-1103 -1115 0
-1103 -1116 0
-1103 -1117 0
-1103 -1118 0
-1103 -1119 0
-1103 -1120 0
-1103 -1121 0
-1103 -1122 0
-1103 -1123 0
-1103 -1124 0
-1103 -1125 0
-1103 -1126 0
-1103 -1127 0
-1104 -1105 0
-1104 -1106 0
-1104 -1107 0
-1104 -1108 0
-1104 -1109 0
-1104 -1110 0
-1104 -1111 0
-1104 -1112 0
-1104 -1113 0
-1104 -1114 0
-1104 -1115 0
-1104 -1116 0
-1104 -1117 0
-1104 -1118 0
-1104 -1119 0
-1104 -1120 0
-1104 -1121 0
-1104 -1122 0
-1104 -1123 0
-1104 -1124 0
-1104 -1125 0
-1104 -1126 0
-1104 -1127 0
-1105 -1106 0
-1105 -1107 0
-1105 -1108 0
-1105 -1109 0
-1105 -1110 0
-1105 -1111 0
-1105 -1112 0
-1105 -1113 0
-1105 -1114 0
-1105 -1115 0
-1105 -1116 0
-1105 -1117 0
-1105 -1118 0
-1105 -1119 0
-1105 -1120 0
-1105 -1121 0
-1105 -1122 0
-1105 -1123 0
-1105 -1124 0
-1105 -1125 0
-1105 -1126 0
-1105 -1127 0
-1106 -1107 0
-1106 -1108 0
-1106 -1109 0
-1106 -1110 0
-1106 -1111 0
-1106 -1112 0
-1106 -1113 0
-1106 -1114 0
-1106 -1115 0
-1106 -1116 0
-1106 -1117 0
-1106 -1118 0
-1106 -1119 0
-1106 -1120 0
-1106 -1121 0
-1106 -1122 0
-1106 -1123 0
-1106 -1124 0
-1106 -1125 0
-1106 -1126 0
-1106 -1127 0
-1107 -1108 0
-1107 -1109 0
-1107 -1110 0
-1107 -1111 0
-1107 -1112 0
-1107 -1113 0
-1107 -1114 0
-1107 -1115 0
-1107 -1116 0
-1107 -1117 0
-1107 -1118 0
-1107 -1119 0
-1107 -1120 0
-1107 -1121 0
-1107 -1122 0
-1107 -1123 0
-1107 -1124 0
-1107 -1125 0
-1107 -1126 0
-1107 -1127 0
-1108 -1109 0
-1108 -1110 0
-1108 -1111 0
-1108 -1112 0
-1108 -1113 0
-1108 -1114 0
-1108 -1115 0
-1108 -1116 0
-1108 -1117 0
-1108 -1118 0
-1108 -1119 0
-1108 -1120 0
-1108 -1121 0
-1108 -1122 0
-1108 -1123 0
-1108 -1124 0
-1108 -1125 0
-1108 -1126 0
-1108 -1127 0
-1109 -1110 0
-1109 -1111 0
-1109 -1112 0
-1109 -1113 0
-1109 -1114 0
-1109 -1115 0
-1109 -1116 0
-1109 -1117 0
-1109 -1118 0
-1109 -1119 0
-1109 -1120 0
-1109 -1121 0
-1109 -1122 0
-1109 -1123 0
-1109 -1124 0
-1109 -1125 0
-1109 -1126 0
-1109 -1127 0
-1110 -1111 0
-1110 -1112 0
-1110 -1113 0
-1110 -1114 0
-1110 -1115 0
-1110 -1116 0
-1110 -1117 0
-1110 -1118 0
-1110 -1119 0
-1110 -1120 0
-1110 -1121 0
-1110 -1122 0
-1110 -1123 0
-1110 -1124 0
-1110 -1125 0
-1110 -1126 0
-1110 -1127 0
-1111 -1112 0
-1111 -1113 0
-1111 -1114 0
-1111 -1115 0
-1111 -1116 0
-1111 -1117 0
-1111 -1118 0
-1111 -1119 0
-1111 -1120 0
-1111 -1121 0
-1111 -1122 0
-1111 -1123 0
-1111 -1124 0
-1111 -1125 0
-1111 -1126 0
-1111 -1127 0
-1112 -1113 0
-1112 -1114 0
-1112 -1115 0
-1112 -1116 0
-1112 -1117 0
-1112 -1118 0
-1112 -1119 0
-1112 -1120 0
-1112 -1121 0
-1112 -1122 0
-1112 -1123 0
-1112 -1124 0
-1112 -1125 0
-1112 -1126 0
-1112 -1127 0
-1113 -1114 0
-1113 -1115 0
-1113 -1116 0
-1113 -1117 0
-1113 -1118 0
-1113 -1119 0
-1113 -1120 0
-1113 -1121 0
-1113 -1122 0
-1113 -1123 0
-1113 -1124 0
-1113 -1125 0
-1113 -1126 0
-1113 -1127 0
-1114 -1115 0
-1114 -1116 0
-1114 -1117 0
-1114 -1118 0
-1114 -1119 0
-1114 -1120 0
-1114 -1121 0
-1114 -1122 0
-1114 -1123 0
-1114 -1124 0
-1114 -1125 0
-1114 -1126 0
-1114 -1127 0
-1115 -1116 0
-1115 -1117 0
-1115 -1118 0
-1115 -1119 0
-1115 -1120 0
-1115 -1121 0
-1115 -1122 0
-1115 -1123 0
-1115 -1124 0
-1115 -1125 0
-1115 -1126 0
-1115 -1127 0
-1116 -1117 0
-1116 -1118 0
-1116 -1119 0
-1116 -1120 0
-1116 -1121 0
-1116 -1122 0
-1116 -1123 0
-1116 -1124 0
-1116 -1125 0
-1116 -1126 0
-1116 -1127 0
-1117 -1118 0
-1117 -1119 0
-1117 -1120 0
-1117 -1121 0
-1117 -1122 0
-1117 -1123 0
-1117 -1124 0
-1117 -1125 0
-1117 -1126 0
-1117 -1127 0
-1118 -1119 0
-1118 -1120 0
-1118 -1121 0
-1118 -1122 0
-1118 -1123 0
-1118 -1124 0
-1118 -1125 0
-1118 -1126 0
-1118 -1127 0
-1119 -1120 0
-1119 -1121 0
-1119 -1122 0
-1119 -1123 0
-1119 -1124 0
-1119 -1125 0
-1119 -1126 0
-1119 -1127 0
-1120 -1121 0
-1120 -1122 0
-1120 -1123 0
-1120 -1124 0
-1120 -1125 0
-1120 -1126 0
-1120 -1127 0
-1121 -1122 0
-1121 -1123 0
-1121 -1124 0
-1121 -1125 0
-1121 -1126 0
-1121 -1127 0
-1122 -1123 0
-1122 -1124 0
-1122 -1125 0
-1122 -1126 0
-1122 -1127 0
-1123 -1124 0
-1123 -1125 0
-1123 -1126 0
-1123 -1127 0
-1124 -1125 0
-1124 -1126 0
-1124 -1127 0
-1125 -1126 0
-1125 -1127 0
-1126 -1127 0
-1128 268 0
-1128 -43 -184 -181 0
-1128 -43 -185 -182 0
-1128 -43 -186 -183 0
-1128 49 0
-1128 -49 -184 1525 486 0
-1128 -49 -185 1525 492 0
-1128 -49 -186 1525 498 0
-1128 -184 -510 0
-1128 -184 -534 0
-1128 -184 -558 0
-1128 -184 -516 0
-1128 -184 -540 0
-1128 -184 -564 0
-1128 -184 -522 0
-1128 -184 -546 0
-1128 -184 -570 0
-1128 -185 -516 0
-1128 -185 -540 0
-1128 -185 -564 0
-1128 -185 -522 0
-1128 -185 -546 0
-1128 -185 -570 0
-1128 -186 -522 0
-1128 -186 -546 0
-1128 -186 -570 0
-1128 -187 0
-1128 64 0
-1128 -184 197 0
-1128 -185 198 0
-1128 -186 199 0
-1128 -273 0
-1129 268 0
-1129 -44 -184 -181 0
-1129 -44 -185 -182 0
-1129 -44 -186 -183 0
-1129 50 0
-1129 -50 -184 1526 487 0
-1129 -50 -185 1526 493 0
-1129 -50 -186 1526 499 0
-1129 -184 -511 0
-1129 -184 -535 0
-1129 -184 -559 0
-1129 -184 -517 0
-1129 -184 -541 0
-1129 -184 -565 0
-1129 -184 -523 0
-1129 -184 -547 0
-1129 -184 -571 0
-1129 -185 -517 0
-1129 -185 -541 0
-1129 -185 -565 0
-1129 -185 -523 0
-1129 -185 -547 0
-1129 -185 -571 0
-1129 -186 -523 0
-1129 -186 -547 0
-1129 -186 -571 0
-1129 -187 0
-1129 65 0
-1129 -184 197 0
-1129 -185 198 0
-1129 -186 199 0
-1129 -273 0
-1130 268 0
-1130 -45 -184 -181 0
-1130 -45 -185 -182 0
-1130 -45 -186 -183 0
-1130 51 0
-1130 -51 -184 1527 488 0
-1130 -51 -185 1527 494 0
-1130 -51 -186 1527 500 0
-1130 -184 -512 0
-1130 -184 -536 0
-1130 -184 -560 0
-1130 -184 -518 0
-1130 -184 -542 0
-1130 -184 -566 0
-1130 -184 -524 0
-1130 -184 -548 0
-1130 -184 -572 0
-1130 -185 -518 0
-1130 -185 -542 0
-1130 -185 -566 0
-1130 -185 -524 0
-1130 -185 -548 0
-1130 -185 -572 0
-1130 -186 -524 0
-1130 -186 -548 0
-1130 -186 -572 0
-1130 -187 0
-1130 66 0
-1130 -184 197 0
-1130 -185 198 0
-1130 -186 199 0
-1130 -273 0
-1131 268 0
-1131 -46 -184 -181 0
-1131 -46 -185 -182 0
-1131 -46 -186 -183 0
-1131 52 0
-1131 -52 -184 1528 489 0
-1131 -52 -185 1528 495 0
-1131 -52 -186 1528 501 0
-1131 -184 -513 0
-1131 -184 -537 0
-1131 -184 -561 0
-1131 -184 -519 0
-1131 -184 -543 0
-1131 -184 -567 0
-1131 -184 -525 0
-1131 -184 -549 0
-1131 -184 -573 0
-1131 -185 -519 0
-1131 -185 -543 0
-1131 -185 -567 0
-1131 -185 -525 0
-1131 -185 -549 0
-1131 -185 -573 0
-1131 -186 -525 0
-1131 -186 -549 0
-1131 -186 -573 0
-1131 -187 0
-1131 67 0
-1131 -184 197 0
-1131 -185 198 0
-1131 -186 199 0
-1131 -273 0
-1132 268 0
-1132 -47 -184 -181 0
-1132 -47 -185 -182 0
-1132 -47 -186 -183 0
-1132 53 0
-1132 -53 -184 1529 490 0
-1132 -53 -185 1529 496 0
-1132 -53 -186 1529 502 0
-1132 -184 -514 0
-1132 -184 -538 0
-1132 -184 -562 0
-1132 -184 -520 0
-1132 -184 -544 0
-1132 -184 -568 0
-1132 -184 -526 0
-1132 -184 -550 0
-1132 -184 -574 0
-1132 -185 -520 0
-1132 -185 -544 0
-1132 -185 -568 0
-1132 -185 -526 0
-1132 -185 -550 0
-1132 -185 -574 0
-1132 -186 -526 0
-1132 -186 -550 0
-1132 -186 -574 0
-1132 -187 0
-1132 68 0
-1132 -184 197 0
-1132 -185 198 0
-1132 -186 199 0
-1132 -273 0
-1133 268 0
-1133 -48 -184 -181 0
-1133 -48 -185 -182 0
-1133 -48 -186 -183 0
-1133 54 0
-1133 -54 -184 1530 491 0
-1133 -54 -185 1530 497 0
-1133 -54 -186 1530 503 0
-1133 -184 -515 0
-1133 -184 -539 0
-1133 -184 -563 0
-1133 -184 -521 0
-1133 -184 -545 0
-1133 -184 -569 0
-1133 -184 -527 0
-1133 -184 -551 0
-1133 -184 -575 0
-1133 -185 -521 0
-1133 -185 -545 0
-1133 -185 -569 0
-1133 -185 -527 0
-1133 -185 -551 0
-1133 -185 -575 0
-1133 -186 -527 0
-1133 -186 -551 0
-1133 -186 -575 0
-1133 -187 0
-1133 69 0
-1133 -184 197 0
-1133 -185 198 0
-1133 -186 199 0
-1133 -273 0
-1134 268 0
-1134 -43 -188 -181 0
-1134 -43 -189 -182 0
-1134 -43 -190 -183 0
-1134 55 0
-1134 -55 -188 1531 486 0
-1134 -55 -189 1531 492 0
-1134 -55 -190 1531 498 0
-1134 -188 -510 0
-1134 -188 -534 0
-1134 -188 -558 0
-1134 -188 -516 0
-1134 -188 -540 0
-1134 -188 -564 0
-1134 -188 -522 0
-1134 -188 -546 0
-1134 -188 -570 0
-1134 -189 -516 0
-1134 -189 -540 0
-1134 -189 -564 0
-1134 -189 -522 0
-1134 -189 -546 0
-1134 -189 -570 0
-1134 -190 -522 0
-1134 -190 -546 0
-1134 -190 -570 0
-1134 -191 0
-1134 64 0
-1134 -188 197 0
-1134 -189 198 0
-1134 -190 199 0
-1134 -274 0
-1135 268 0
-1135 -44 -188 -181 0
-1135 -44 -189 -182 0
-1135 -44 -190 -183 0
-1135 55 56 0
-1135 -55 -188 1532 487 0
-1135 -55 -189 1532 493 0
-1135 -55 -190 1532 499 0
-1135 -56 -188 1532 487 0
-1135 -56 -189 1532 493 0
-1135 -56 -190 1532 499 0
-1135 -188 -511 0
-1135 -188 -535 0
-1135 -188 -559 0
-1135 -188 -517 0
-1135 -188 -541 0
-1135 -188 -565 0
-1135 -188 -523 0
-1135 -188 -547 0
-1135 -188 -571 0
-1135 -189 -517 0
-1135 -189 -541 0
-1135 -189 -565 0
-1135 -189 -523 0
-1135 -189 -547 0
-1135 -189 -571 0
-1135 -190 -523 0
-1135 -190 -547 0
-1135 -190 -571 0
-1135 -191 0
-1135 65 0
-1135 -188 197 0
-1135 -189 198 0
-1135 -190 199 0
-1135 -274 0
-1136 268 0
-1136 -45 -188 -181 0
-1136 -45 -189 -182 0
-1136 -45 -190 -183 0
-1136 56 57 0
-1136 -56 -188 1533 488 0
-1136 -56 -189 1533 494 0
-1136 -56 -190 1533 500 0
-1136 -57 -188 1533 488 0
-1136 -57 -189 1533 494 0
-1136 -57 -190 1533 500 0
-1136 -188 -512 0
-1136 -188 -536 0
-1136 -188 -560 0
-1136 -188 -518 0
-1136 -188 -542 0
-1136 -188 -566 0
-1136 -188 -524 0
-1136 -188 -548 0
-1136 -188 -572 0
-1136 -189 -518 0
-1136 -189 -542 0
-1136 -189 -566 0
-1136 -189 -524 0
-1136 -189 -548 0
-1136 -189 -572 0
-1136 -190 -524 0
-1136 -190 -548 0
-1136 -190 -572 0
-1136 -191 0
-1136 66 0
-1136 -188 197 0
-1136 -189 198 0
-1136 -190 199 0
-1136 -274 0
-1137 268 0
-1137 -46 -188 -181 0
-1137 -46 -189 -182 0
-1137 -46 -190 -183 0
-1137 57 58 0
-1137 -57 -188 1534 489 0
-1137 -57 -189 1534 495 0
-1137 -57 -190 1534 501 0
-1137 -58 -188 1534 489 0
-1137 -58 -189 1534 495 0
-1137 -58 -190 1534 501 0
-1137 -188 -513 0
-1137 -188 -537 0
-1137 -188 -561 0
-1137 -188 -519 0
-1137 -188 -543 0
-1137 -188 -567 0
-1137 -188 -525 0
-1137 -188 -549 0
-1137 -188 -573 0
-1137 -189 -519 0
-1137 -189 -543 0
-1137 -189 -567 0
-1137 -189 -525 0
-1137 -189 -549 0
-1137 -189 -573 0
-1137 -190 -525 0
-1137 -190 -549 0
-1137 -190 -573 0
-1137 -191 0
-1137 67 0
-1137 -188 197 0
-1137 -189 198 0
-1137 -190 199 0
-1137 -274 0
-1138 268 0
-1138 -47 -188 -181 0
-1138 -47 -189 -182 0
-1138 -47 -190 -183 0
-1138 58 59 0
-1138 -58 -188 1535 490 0
-1138 -58 -189 1535 496 0
-1138 -58 -190 1535 502 0
-1138 -59 -188 1535 490 0
-1138 -59 -189 1535 496 0
-1138 -59 -190 1535 502 0
-1138 -188 -514 0
-1138 -188 -538 0
-1138 -188 -562 0
-1138 -188 -520 0
-1138 -188 -544 0
-1138 -188 -568 0
-1138 -188 -526 0
-1138 -188 -550 0
-1138 -188 -574 0
-1138 -189 -520 0
-1138 -189 -544 0
-1138 -189 -568 0
-1138 -189 -526 0
-1138 -189 -550 0
-1138 -189 -574 0
-1138 -190 -526 0
-1138 -190 -550 0
-1138 -190 -574 0
-1138 -191 0
-1138 68 0
-1138 -188 197 0
-1138 -189 198 0
-1138 -190 199 0
-1138 -274 0
-1139 268 0
-1139 -48 -188 -181 0
-1139 -48 -189 -182 0
-1139 -48 -190 -183 0
-1139 59 0
-1139 -59 -188 1536 491 0
-1139 -59 -189 1536 497 0
-1139 -59 -190 1536 503 0
-1139 -188 -515 0
-1139 -188 -539 0
-1139 -188 -563 0
-1139 -188 -521 0
-1139 -188 -545 0
-1139 -188 -569 0
-1139 -188 -527 0
-1139 -188 -551 0
-1139 -188 -575 0
-1139 -189 -521 0
-1139 -189 -545 0
-1139 -189 -569 0
-1139 -189 -527 0
-1139 -189 -551 0
-1139 -189 -575 0
-1139 -190 -527 0
-1139 -190 -551 0
-1139 -190 -575 0
-1139 -191 0
-1139 69 0
-1139 -188 197 0
-1139 -189 198 0
-1139 -190 199 0
-1139 -274 0
-1140 268 0
-1140 -43 -192 -181 0
-1140 -43 -193 -182 0
-1140 -43 -194 -183 0
-1140 60 0
-1140 -60 -192 1537 486 0
-1140 -60 -193 1537 492 0
-1140 -60 -194 1537 498 0
-1140 -192 -510 0
-1140 -192 -534 0
-1140 -192 -558 0
-1140 -192 -516 0
-1140 -192 -540 0
-1140 -192 -564 0
-1140 -192 -522 0
-1140 -192 -546 0
-1140 -192 -570 0
-1140 -193 -516 0
-1140 -193 -540 0
-1140 -193 -564 0
-1140 -193 -522 0
-1140 -193 -546 0
-1140 -193 -570 0
-1140 -194 -522 0
-1140 -194 -546 0
-1140 -194 -570 0
-1140 -195 0
-1140 64 0
-1140 -192 197 0
-1140 -193 198 0
-1140 -194 199 0
-1140 -275 0
-1141 268 0
-1141 -44 -192 -181 0
-1141 -44 -193 -182 0
-1141 -44 -194 -183 0
-1141 60 61 0
-1141 -60 -192 1538 487 0
-1141 -60 -193 1538 493 0
-1141 -60 -194 1538 499 0
-1141 -61 -192 1538 487 0
-1141 -61 -193 1538 493 0
-1141 -61 -194 1538 499 0
-1141 -192 -511 0
-1141 -192 -535 0
-1141 -192 -559 0
-1141 -192 -517 0
-1141 -192 -541 0
-1141 -192 -565 0
-1141 -192 -523 0
-1141 -192 -547 0
-1141 -192 -571 0
-1141 -193 -517 0
-1141 -193 -541 0
-1141 -193 -565 0
-1141 -193 -523 0
-1141 -193 -547 0
-1141 -193 -571 0
-1141 -194 -523 0
-1141 -194 -547 0
-1141 -194 -571 0
-1141 -195 0
-1141 65 0
-1141 -192 197 0
-1141 -193 198 0
-1141 -194 199 0
-1141 -275 0
-1142 268 0
-1142 -45 -192 -181 0
-1142 -45 -193 -182 0
-1142 -45 -194 -183 0
-1142 60 61 62 0
-1142 -60 -192 1539 488 0
-1142 -60 -193 1539 494 0
-1142 -60 -194 1539 500 0
-1142 -61 -192 1539 488 0
-1142 -61 -193 1539 494 0
-1142 -61 -194 1539 500 0
-1142 -62 -192 1539 488 0
-1142 -62 -193 1539 494 0
-1142 -62 -194 1539 500 0
-1142 -192 -512 0
-1142 -192 -536 0
-1142 -192 -560 0
-1142 -192 -518 0
-1142 -192 -542 0
-1142 -192 -566 0
-1142 -192 -524 0
-1142 -192 -548 0
-1142 -192 -572 0
-1142 -193 -518 0
-1142 -193 -542 0
-1142 -193 -566 0
-1142 -193 -524 0
-1142 -193 -548 0
-1142 -193 -572 0
-1142 -194 -524 0
-1142 -194 -548 0
-1142 -194 -572 0
-1142 -195 0
-1142 66 0
-1142 -192 197 0
-1142 -193 198 0
-1142 -194 199 0
-1142 -275 0
-1143 268 0
-1143 -46 -192 -181 0
-1143 -46 -193 -182 0
-1143 -46 -194 -183 0
-1143 61 62 63 0
-1143 -61 -192 1540 489 0
-1143 -61 -193 1540 495 0
-1143 -61 -194 1540 501 0
-1143 -62 -192 1540 489 0
-1143 -62 -193 1540 495 0
-1143 -62 -194 1540 501 0
-1143 -63 -192 1540 489 0
-1143 -63 -193 1540 495 0
-1143 -63 -194 1540 501 0
-1143 -192 -513 0
-1143 -192 -537 0
-1143 -192 -561 0
-1143 -192 -519 0
-1143 -192 -543 0
-1143 -192 -567 0
-1143 -192 -525 0
-1143 -192 -549 0
-1143 -192 -573 0
-1143 -193 -519 0
-1143 -193 -543 0
-1143 -193 -567 0
-1143 -193 -525 0
-1143 -193 -549 0
-1143 -193 -573 0
-1143 -194 -525 0
-1143 -194 -549 0
-1143 -194 -573 0
-1143 -195 0
-1143 67 0
-1143 -192 197 0
-1143 -193 198 0
-1143 -194 199 0
-1143 -275 0
-1144 268 0
-1144 -47 -192 -181 0
-1144 -47 -193 -182 0
-1144 -47 -194 -183 0
-1144 62 63 0
-1144 -62 -192 1541 490 0
-1144 -62 -193 1541 496 0
-1144 -62 -194 1541 502 0
-1144 -63 -192 1541 490 0
-1144 -63 -193 1541 496 0
-1144 -63 -194 1541 502 0
-1144 -192 -514 0
-1144 -192 -538 0
-1144 -192 -562 0
-1144 -192 -520 0
-1144 -192 -544 0
-1144 -192 -568 0
-1144 -192 -526 0
-1144 -192 -550 0
-1144 -192 -574 0
-1144 -193 -520 0
-1144 -193 -544 0
-1144 -193 -568 0
-1144 -193 -526 0
-1144 -193 -550 0
-1144 -193 -574 0
-1144 -194 -526 0
-1144 -194 -550 0
-1144 -194 -574 0
-1144 -195 0
-1144 68 0
-1144 -192 197 0
-1144 -193 198 0
-1144 -194 199 0
-1144 -275 0
-1145 268 0
-1145 -48 -192 -181 0
-1145 -48 -193 -182 0
-1145 -48 -194 -183 0
-1145 63 0
-1145 -63 -192 1542 491 0
-1145 -63 -193 1542 497 0
-1145 -63 -194 1542 503 0
-1145 -192 -515 0
-1145 -192 -539 0
-1145 -192 -563 0
-1145 -192 -521 0
-1145 -192 -545 0
-1145 -192 -569 0
-1145 -192 -527 0
-1145 -192 -551 0
-1145 -192 -575 0
-1145 -193 -521 0
-1145 -193 -545 0
-1145 -193 -569 0
-1145 -193 -527 0
-1145 -193 -551 0
-1145 -193 -575 0
-1145 -194 -527 0
-1145 -194 -551 0
-1145 -194 -575 0
-1145 -195 0
-1145 69 0
-1145 -192 197 0
-1145 -193 198 0
-1145 -194 199 0
-1145 -275 0
-1146 268 0
-1146 -43 -180 0
-1146 -504 0
-1146 -528 0
-1146 -552 0
-1146 -510 0
-1146 -534 0
-1146 -558 0
-1146 -516 0
-1146 -540 0
-1146 -564 0
-1146 -522 0
-1146 -546 0
-1146 -570 0
-1146 64 0
-1146 196 0
-1147 268 0
-1147 -44 -180 0
-1147 -505 0
-1147 -529 0
-1147 -553 0
-1147 -511 0
-1147 -535 0
-1147 -559 0
-1147 -517 0
-1147 -541 0
-1147 -565 0
-1147 -523 0
-1147 -547 0
-1147 -571 0
-1147 65 0
-1147 196 0
-1148 268 0
-1148 -45 -180 0
-1148 -506 0
-1148 -530 0
-1148 -554 0
-1148 -512 0
-1148 -536 0
-1148 -560 0
-1148 -518 0
-1148 -542 0
-1148 -566 0
-1148 -524 0
-1148 -548 0
-1148 -572 0
-1148 66 0
-1148 196 0
-1149 268 0
-1149 -46 -180 0
-1149 -507 0
-1149 -531 0
-1149 -555 0
-1149 -513 0
-1149 -537 0
-1149 -561 0
-1149 -519 0
-1149 -543 0
-1149 -567 0
-1149 -525 0
-1149 -549 0
-1149 -573 0
-1149 67 0
-1149 196 0
-1150 268 0
-1150 -47 -180 0
-1150 -508 0
-1150 -532 0
-1150 -556 0
-1150 -514 0
-1150 -538 0
-1150 -562 0
-1150 -520 0
-1150 -544 0
-1150 -568 0
-1150 -526 0
-1150 -550 0
-1150 -574 0
-1150 68 0
-1150 196 0
-1151 268 0
-1151 -48 -180 0
-1151 -509 0
-1151 -533 0
-1151 -557 0
-1151 -515 0
-1151 -539 0
-1151 -563 0
-1151 -521 0
-1151 -545 0
-1151 -569 0
-1151 -527 0
-1151 -551 0
-1151 -575 0
-1151 69 0
-1151 196 0
-1152 269 0
-1152 -49 -180 -185 0
-1152 -49 -181 -186 0
-1152 -49 -182 -187 0
-1152 43 0
-1152 -43 -180 1519 510 0
-1152 -43 -181 1519 516 0
-1152 -43 -182 1519 522 0
-1152 -180 -486 0
-1152 -180 -534 0
-1152 -180 -558 0
-1152 -180 -492 0
-1152 -180 -540 0
-1152 -180 -564 0
-1152 -180 -498 0
-1152 -180 -546 0
-1152 -180 -570 0
-1152 -181 -492 0
-1152 -181 -540 0
-1152 -181 -564 0
-1152 -181 -498 0
-1152 -181 -546 0
-1152 -181 -570 0
-1152 -182 -498 0
-1152 -182 -546 0
-1152 -182 -570 0
-1152 -183 0
-1152 70 0
-1152 -180 201 0
-1152 -181 202 0
-1152 -182 203 0
-1152 -272 0
-1153 269 0
-1153 -50 -180 -185 0
-1153 -50 -181 -186 0
-1153 -50 -182 -187 0
-1153 44 0
-1153 -44 -180 1520 511 0
-1153 -44 -181 1520 517 0
-1153 -44 -182 1520 523 0
-1153 -180 -487 0
-1153 -180 -535 0
-1153 -180 -559 0
-1153 -180 -493 0
-1153 -180 -541 0
-1153 -180 -565 0
-1153 -180 -499 0
-1153 -180 -547 0
-1153 -180 -571 0
-1153 -181 -493 0
-1153 -181 -541 0
-1153 -181 -565 0
-1153 -181 -499 0
-1153 -181 -547 0
-1153 -181 -571 0
-1153 -182 -499 0
-1153 -182 -547 0
-1153 -182 -571 0
-1153 -183 0
-1153 71 0
-1153 -180 201 0
-1153 -181 202 0
-1153 -182 203 0
-1153 -272 0
-1154 269 0
-1154 -51 -180 -185 0
-1154 -51 -181 -186 0
-1154 -51 -182 -187 0
-1154 45 0
-1154 -45 -180 1521 512 0
-1154 -45 -181 1521 518 0
-1154 -45 -182 1521 524 0
-1154 -180 -488 0
-1154 -180 -536 0
-1154 -180 -560 0
-1154 -180 -494 0
-1154 -180 -542 0
-1154 -180 -566 0
-1154 -180 -500 0
-1154 -180 -548 0
-1154 -180 -572 0
-1154 -181 -494 0
-1154 -181 -542 0
-1154 -181 -566 0
-1154 -181 -500 0
-1154 -181 -548 0
-1154 -181 -572 0
-1154 -182 -500 0
-1154 -182 -548 0
-1154 -182 -572 0
-1154 -183 0
-1154 72 0
-1154 -180 201 0
-1154 -181 202 0
-1154 -182 203 0
-1154 -272 0
-1155 269 0
-1155 -52 -180 -185 0
-1155 -52 -181 -186 0
-1155 -52 -182 -187 0
-1155 46 0
-1155 -46 -180 1522 513 0
-1155 -46 -181 1522 519 0
-1155 -46 -182 1522 525 0
-1155 -180 -489 0
-1155 -180 -537 0
-1155 -180 -561 0
-1155 -180 -495 0
-1155 -180 -543 0
-1155 -180 -567 0
-1155 -180 -501 0
-1155 -180 -549 0
-1155 -180 -573 0
-1155 -181 -495 0
-1155 -181 -543 0
-1155 -181 -567 0
-1155 -181 -501 0
-1155 -181 -549 0
-1155 -181 -573 0
-1155 -182 -501 0
-1155 -182 -549 0
-1155 -182 -573 0
-1155 -183 0
-1155 73 0
-1155 -180 201 0
-1155 -181 202 0
-1155 -182 203 0
-1155 -272 0
-1156 269 0
-1156 -53 -180 -185 0
-1156 -53 -181 -186 0
-1156 -53 -182 -187 0
-1156 47 0
-1156 -47 -180 1523 514 0
-1156 -47 -181 1523 520 0
-1156 -47 -182 1523 526 0
-1156 -180 -490 0
-1156 -180 -538 0
-1156 -180 -562 0
-1156 -180 -496 0
-1156 -180 -544 0
-1156 -180 -568 0
-1156 -180 -502 0
-1156 -180 -550 0
-1156 -180 -574 0
-1156 -181 -496 0
-1156 -181 -544 0
-1156 -181 -568 0
-1156 -181 -502 0
-1156 -181 -550 0
-1156 -181 -574 0
-1156 -182 -502 0
-1156 -182 -550 0
-1156 -182 -574 0
-1156 -183 0
-1156 74 0
-1156 -180 201 0
-1156 -181 202 0
-1156 -182 203 0
-1156 -272 0
-1157 269 0
-1157 -54 -180 -185 0
-1157 -54 -181 -186 0
-1157 -54 -182 -187 0
-1157 48 0
-1157 -48 -180 1524 515 0
-1157 -48 -181 1524 521 0
-1157 -48 -182 1524 527 0
-1157 -180 -491 0
-1157 -180 -539 0
-1157 -180 -563 0
-1157 -180 -497 0
-1157 -180 -545 0
-1157 -180 -569 0
-1157 -180 -503 0
-1157 -180 -551 0
-1157 -180 -575 0
-1157 -181 -497 0
-1157 -181 -545 0
-1157 -181 -569 0
-1157 -181 -503 0
-1157 -181 -551 0
-1157 -181 -575 0
-1157 -182 -503 0
-1157 -182 -551 0
-1157 -182 -575 0
-1157 -183 0
-1157 75 0
-1157 -180 201 0
-1157 -181 202 0
-1157 -182 203 0
-1157 -272 0
-1158 269 0
-1158 -49 -188 -185 0
-1158 -49 -189 -186 0
-1158 -49 -190 -187 0
-1158 55 0
-1158 -55 -188 1531 510 0
-1158 -55 -189 1531 516 0
-1158 -55 -190 1531 522 0
-1158 -188 -486 0
-1158 -188 -534 0
-1158 -188 -558 0
-1158 -188 -492 0
-1158 -188 -540 0
-1158 -188 -564 0
-1158 -188 -498 0
-1158 -188 -546 0
-1158 -188 -570 0
-1158 -189 -492 0
-1158 -189 -540 0
-1158 -189 -564 0
-1158 -189 -498 0
-1158 -189 -546 0
-1158 -189 -570 0
-1158 -190 -498 0
-1158 -190 -546 0
-1158 -190 -570 0
-1158 -191 0
-1158 70 0
-1158 -188 201 0
-1158 -189 202 0
-1158 -190 203 0
-1158 -274 0
-1159 269 0
-1159 -50 -188 -185 0
-1159 -50 -189 -186 0
-1159 -50 -190 -187 0
-1159 55 56 0
-1159 -55 -188 1532 511 0
-1159 -55 -189 1532 517 0
-1159 -55 -190 1532 523 0
-1159 -56 -188 1532 511 0
-1159 -56 -189 1532 517 0
-1159 -56 -190 1532 523 0
-1159 -188 -487 0
-1159 -188 -535 0
-1159 -188 -559 0
-1159 -188 -493 0
-1159 -188 -541 0
-1159 -188 -565 0
-1159 -188 -499 0
-1159 -188 -547 0
-1159 -188 -571 0
-1159 -189 -493 0
-1159 -189 -541 0
-1159 -189 -565 0
-1159 -189 -499 0
-1159 -189 -547 0
-1159 -189 -571 0
-1159 -190 -499 0
-1159 -190 -547 0
-1159 -190 -571 0
-1159 -191 0
-1159 71 0
-1159 -188 201 0
-1159 -189 202 0
-1159 -190 203 0
-1159 -274 0
-1160 269 0
-1160 -51 -188 -185 0
-1160 -51 -189 -186 0
-1160 -51 -190 -187 0
-1160 56 57 0
-1160 -56 -188 1533 512 0
-1160 -56 -189 1533 518 0
-1160 -56 -190 1533 524 0
-1160 -57 -188 1533 512 0
-1160 -57 -189 1533 518 0
-1160 -57 -190 1533 524 0
-1160 -188 -488 0
-1160 -188 -536 0
-1160 -188 -560 0
-1160 -188 -494 0
-1160 -188 -542 0
-1160 -188 -566 0
-1160 -188 -500 0
-1160 -188 -548 0
-1160 -188 -572 0
-1160 -189 -494 0
-1160 -189 -542 0
-1160 -189 -566 0
-1160 -189 -500 0
-1160 -189 -548 0
-1160 -189 -572 0
-1160 -190 -500 0
-1160 -190 -548 0
-1160 -190 -572 0
-1160 -191 0
-1160 72 0
-1160 -188 201 0
-1160 -189 202 0
-1160 -190 203 0
-1160 -274 0
-1161 269 0
-1161 -52 -188 -185 0
-1161 -52 -189 -186 0
-1161 -52 -190 -187 0
-1161 57 58 0
-1161 -57 -188 1534 513 0
-1161 -57 -189 1534 519 0
-1161 -57 -190 1534 525 0
-1161 -58 -188 1534 513 0
-1161 -58 -189 1534 519 0
-1161 -58 -190 1534 525 0
-1161 -188 -489 0
-1161 -188 -537 0
-1161 -188 -561 0
-1161 -188 -495 0
-1161 -188 -543 0
-1161 -188 -567 0
-1161 -188 -501 0
-1161 -188 -549 0
-1161 -188 -573 0
-1161 -189 -495 0
-1161 -189 -543 0
-1161 -189 -567 0
-1161 -189 -501 0
-1161 -189 -549 0
-1161 -189 -573 0
-1161 -190 -501 0
-1161 -190 -549 0
-1161 -190 -573 0
-1161 -191 0
-1161 73 0
-1161 -188 201 0
-1161 -189 202 0
-1161 -190 203 0
-1161 -274 0
-1162 269 0
-1162 -53 -188 -185 0
-1162 -53 -189 -186 0
-1162 -53 -190 -187 0
-1162 58 59 0
-1162 -58 -188 1535 514 0
-1162 -58 -189 1535 520 0
-1162 -58 -190 1535 526 0
-1162 -59 -188 1535 514 0
-1162 -59 -189 1535 520 0
-1162 -59 -190 1535 526 0
-1162 -188 -490 0
-1162 -188 -538 0
-1162 -188 -562 0
-1162 -188 -496 0
-1162 -188 -544 0
-1162 -188 -568 0
-1162 -188 -502 0
-1162 -188 -550 0
-1162 -188 -574 0
-1162 -189 -496 0
-1162 -189 -544 0
-1162 -189 -568 0
-1162 -189 -502 0
-1162 -189 -550 0
-1162 -189 -574 0
-1162 -190 -502 0
-1162 -190 -550 0
-1162 -190 -574 0
-1162 -191 0
-1162 74 0
-1162 -188 201 0
-1162 -189 202 0
-1162 -190 203 0
-1162 -274 0
-1163 269 0
-1163 -54 -188 -185 0
-1163 -54 -189 -186 0
-1163 -54 -190 -187 0
-1163 59 0
-1163 -59 -188 1536 515 0
-1163 -59 -189 1536 521 0
-1163 -59 -190 1536 527 0
-1163 -188 -491 0
-1163 -188 -539 0
-1163 -188 -563 0
-1163 -188 -497 0
-1163 -188 -545 0
-1163 -188 -569 0
-1163 -188 -503 0
-1163 -188 -551 0
-1163 -188 -575 0
-1163 -189 -497 0
-1163 -189 -545 0
-1163 -189 -569 0
-1163 -189 -503 0
-1163 -189 -551 0
-1163 -189 -575 0
-1163 -190 -503 0
-1163 -190 -551 0
-1163 -190 -575 0
-1163 -191 0
-1163 75 0
-1163 -188 201 0
-1163 -189 202 0
-1163 -190 203 0
-1163 -274 0
-1164 269 0
-1164 -49 -192 -185 0
-1164 -49 -193 -186 0
-1164 -49 -194 -187 0
-1164 60 0
-1164 -60 -192 1537 510 0
-1164 -60 -193 1537 516 0
-1164 -60 -194 1537 522 0
-1164 -192 -486 0
-1164 -192 -534 0
-1164 -192 -558 0
-1164 -192 -492 0
-1164 -192 -540 0
-1164 -192 -564 0
-1164 -192 -498 0
-1164 -192 -546 0
-1164 -192 -570 0
-1164 -193 -492 0
-1164 -193 -540 0
-1164 -193 -564 0
-1164 -193 -498 0
-1164 -193 -546 0
-1164 -193 -570 0
-1164 -194 -498 0
-1164 -194 -546 0
-1164 -194 -570 0
-1164 -195 0
-1164 70 0
-1164 -192 201 0
-1164 -193 202 0
-1164 -194 203 0
-1164 -275 0
-1165 269 0
-1165 -50 -192 -185 0
-1165 -50 -193 -186 0
-1165 -50 -194 -187 0
-1165 60 61 0
-1165 -60 -192 1538 511 0
-1165 -60 -193 1538 517 0
-1165 -60 -194 1538 523 0
-1165 -61 -192 1538 511 0
-1165 -61 -193 1538 517 0
-1165 -61 -194 1538 523 0
-1165 -192 -487 0
-1165 -192 -535 0
-1165 -192 -559 0
-1165 -192 -493 0
-1165 -192 -541 0
-1165 -192 -565 0
-1165 -192 -499 0
-1165 -192 -547 0
-1165 -192 -571 0
-1165 -193 -493 0
-1165 -193 -541 0
-1165 -193 -565 0
-1165 -193 -499 0
-1165 -193 -547 0
-1165 -193 -571 0
-1165 -194 -499 0
-1165 -194 -547 0
-1165 -194 -571 0
-1165 -195 0
-1165 71 0
-1165 -192 201 0
-1165 -193 202 0
-1165 -194 203 0
-1165 -275 0
-1166 269 0
-1166 -51 -192 -185 0
-1166 -51 -193 -186 0
-1166 -51 -194 -187 0
-1166 60 61 62 0
-1166 -60 -192 1539 512 0
-1166 -60 -193 1539 518 0
-1166 -60 -194 1539 524 0
-1166 -61 -192 1539 512 0
-1166 -61 -193 1539 518 0
-1166 -61 -194 1539 524 0
-1166 -62 -192 1539 512 0
-1166 -62 -193 1539 518 0
-1166 -62 -194 1539 524 0
-1166 -192 -488 0
-1166 -192 -536 0
-1166 -192 -560 0
-1166 -192 -494 0
-1166 -192 -542 0
-1166 -192 -566 0
-1166 -192 -500 0
-1166 -192 -548 0
-1166 -192 -572 0
-1166 -193 -494 0
-1166 -193 -542 0
-1166 -193 -566 0
-1166 -193 -500 0
-1166 -193 -548 0
-1166 -193 -572 0
-1166 -194 -500 0
-1166 -194 -548 0
-1166 -194 -572 0
-1166 -195 0
-1166 72 0
-1166 -192 201 0
-1166 -193 202 0
-1166 -194 203 0
-1166 -275 0
-1167 269 0
-1167 -52 -192 -185 0
-1167 -52 -193 -186 0
-1167 -52 -194 -187 0
-1167 61 62 63 0
-1167 -61 -192 1540 513 0
-1167 -61 -193 1540 519 0
-1167 -61 -194 1540 525 0
-1167 -62 -192 1540 513 0
-1167 -62 -193 1540 519 0
-1167 -62 -194 1540 525 0
-1167 -63 -192 1540 513 0
-1167 -63 -193 1540 519 0
-1167 -63 -194 1540 525 0
-1167 -192 -489 0
-1167 -192 -537 0
-1167 -192 -561 0
-1167 -192 -495 0
-1167 -192 -543 0
-1167 -192 -567 0
-1167 -192 -501 0
-1167 -192 -549 0
-1167 -192 -573 0
-1167 -193 -495 0
-1167 -193 -543 0
-1167 -193 -567 0
-1167 -193 -501 0
-1167 -193 -549 0
-1167 -193 -573 0
-1167 -194 -501 0
-1167 -194 -549 0
-1167 -194 -573 0
-1167 -195 0
-1167 73 0
-1167 -192 201 0
-1167 -193 202 0
-1167 -194 203 0
-1167 -275 0
-1168 269 0
-1168 -53 -192 -185 0
-1168 -53 -193 -186 0
-1168 -53 -194 -187 0
-1168 62 63 0
-1168 -62 -192 1541 514 0
-1168 -62 -193 1541 520 0
-1168 -62 -194 1541 526 0
-1168 -63 -192 1541 514 0
-1168 -63 -193 1541 520 0
-1168 -63 -194 1541 526 0
-1168 -192 -490 0
-1168 -192 -538 0
-1168 -192 -562 0
-1168 -192 -496 0
-1168 -192 -544 0
-1168 -192 -568 0
-1168 -192 -502 0
-1168 -192 -550 0
-1168 -192 -574 0
-1168 -193 -496 0
-1168 -193 -544 0
-1168 -193 -568 0
-1168 -193 -502 0
-1168 -193 -550 0
-1168 -193 -574 0
-1168 -194 -502 0
-1168 -194 -550 0
-1168 -194 -574 0
-1168 -195 0
-1168 74 0
-1168 -192 201 0
-1168 -193 202 0
-1168 -194 203 0
-1168 -275 0
-1169 269 0
-1169 -54 -192 -185 0
-1169 -54 -193 -186 0
-1169 -54 -194 -187 0
-1169 63 0
-1169 -63 -192 1542 515 0
-1169 -63 -193 1542 521 0
-1169 -63 -194 1542 527 0
-1169 -192 -491 0
-1169 -192 -539 0
-1169 -192 -563 0
-1169 -192 -497 0
-1169 -192 -545 0
-1169 -192 -569 0
-1169 -192 -503 0
-1169 -192 -551 0
-1169 -192 -575 0
-1169 -193 -497 0
-1169 -193 -545 0
-1169 -193 -569 0
-1169 -193 -503 0
-1169 -193 -551 0
-1169 -193 -575 0
-1169 -194 -503 0
-1169 -194 -551 0
-1169 -194 -575 0
-1169 -195 0
-1169 75 0
-1169 -192 201 0
-1169 -193 202 0
-1169 -194 203 0
-1169 -275 0
-1170 269 0
-1170 -49 -184 0
-1170 -480 0
-1170 -528 0
-1170 -552 0
-1170 -486 0
-1170 -534 0
-1170 -558 0
-1170 -492 0
-1170 -540 0
-1170 -564 0
-1170 -498 0
-1170 -546 0
-1170 -570 0
-1170 70 0
-1170 200 0
-1171 269 0
-1171 -50 -184 0
-1171 -481 0
-1171 -529 0
-1171 -553 0
-1171 -487 0
-1171 -535 0
-1171 -559 0
-1171 -493 0
-1171 -541 0
-1171 -565 0
-1171 -499 0
-1171 -547 0
-1171 -571 0
-1171 71 0
-1171 200 0
-1172 269 0
-1172 -51 -184 0
-1172 -482 0
-1172 -530 0
-1172 -554 0
-1172 -488 0
-1172 -536 0
-1172 -560 0
-1172 -494 0
-1172 -542 0
-1172 -566 0
-1172 -500 0
-1172 -548 0
-1172 -572 0
-1172 72 0
-1172 200 0
-1173 269 0
-1173 -52 -184 0
-1173 -483 0
-1173 -531 0
-1173 -555 0
-1173 -489 0
-1173 -537 0
-1173 -561 0
-1173 -495 0
-1173 -543 0
-1173 -567 0
-1173 -501 0
-1173 -549 0
-1173 -573 0
-1173 73 0
-1173 200 0
-1174 269 0
-1174 -53 -184 0
-1174 -484 0
-1174 -532 0
-1174 -556 0
-1174 -490 0
-1174 -538 0
-1174 -562 0
-1174 -496 0
-1174 -544 0
-1174 -568 0
-1174 -502 0
-1174 -550 0
-1174 -574 0
-1174 74 0
-1174 200 0
-1175 269 0
-1175 -54 -184 0
-1175 -485 0
-1175 -533 0
-1175 -557 0
-1175 -491 0
-1175 -539 0
-1175 -563 0
-1175 -497 0
-1175 -545 0
-1175 -569 0
-1175 -503 0
-1175 -551 0
-1175 -575 0
-1175 75 0
-1175 200 0
-1176 270 0
-1176 -55 -180 -189 0
-1176 -55 -181 -190 0
-1176 -55 -182 -191 0
-1176 43 44 0
-1176 -43 -180 1519 534 0
-1176 -43 -181 1519 540 0
-1176 -43 -182 1519 546 0
-1176 -44 -180 1520 535 0
-1176 -44 -181 1520 541 0
-1176 -44 -182 1520 547 0
-1176 -180 -486 0
-1176 -180 -510 0
-1176 -180 -558 0
-1176 -180 -492 0
-1176 -180 -516 0
-1176 -180 -564 0
-1176 -180 -498 0
-1176 -180 -522 0
-1176 -180 -570 0
-1176 -180 -487 0
-1176 -180 -511 0
-1176 -180 -559 0
-1176 -180 -493 0
-1176 -180 -517 0
-1176 -180 -565 0
-1176 -180 -499 0
-1176 -180 -523 0
-1176 -180 -571 0
-1176 -181 -492 0
-1176 -181 -516 0
-1176 -181 -564 0
-1176 -181 -498 0
-1176 -181 -522 0
-1176 -181 -570 0
-1176 -181 -493 0
-1176 -181 -517 0
-1176 -181 -565 0
-1176 -181 -499 0
-1176 -181 -523 0
-1176 -181 -571 0
-1176 -182 -498 0
-1176 -182 -522 0
-1176 -182 -570 0
-1176 -182 -499 0
-1176 -182 -523 0
-1176 -182 -571 0
-1176 -183 0
-1176 76 0
-1176 -180 205 0
-1176 -181 206 0
-1176 -182 207 0
-1176 -272 0
-1177 270 0
-1177 -56 -180 -189 0
-1177 -56 -181 -190 0
-1177 -56 -182 -191 0
-1177 44 45 0
-1177 -44 -180 1520 535 0
-1177 -44 -181 1520 541 0
-1177 -44 -182 1520 547 0
-1177 -45 -180 1521 536 0
-1177 -45 -181 1521 542 0
-1177 -45 -182 1521 548 0
-1177 -180 -487 0
-1177 -180 -511 0
-1177 -180 -559 0
-1177 -180 -493 0
-1177 -180 -517 0
-1177 -180 -565 0
-1177 -180 -499 0
-1177 -180 -523 0
-1177 -180 -571 0
-1177 -180 -488 0
-1177 -180 -512 0
-1177 -180 -560 0
-1177 -180 -494 0
-1177 -180 -518 0
-1177 -180 -566 0
-1177 -180 -500 0
-1177 -180 -524 0
-1177 -180 -572 0
-1177 -181 -493 0
-1177 -181 -517 0
-1177 -181 -565 0
-1177 -181 -499 0
-1177 -181 -523 0
-1177 -181 -571 0
-1177 -181 -494 0
-1177 -181 -518 0
-1177 -181 -566 0
-1177 -181 -500 0
-1177 -181 -524 0
-1177 -181 -572 0
-1177 -182 -499 0
-1177 -182 -523 0
-1177 -182 -571 0
-1177 -182 -500 0
-1177 -182 -524 0
-1177 -182 -572 0
-1177 -183 0
-1177 77 0
-1177 -180 205 0
-1177 -181 206 0
-1177 -182 207 0
-1177 -272 0
-1178 270 0
-1178 -57 -180 -189 0
-1178 -57 -181 -190 0
-1178 -57 -182 -191 0
-1178 45 46 0
-1178 -45 -180 1521 536 0
-1178 -45 -181 1521 542 0
-1178 -45 -182 1521 548 0
-1178 -46 -180 1522 537 0
-1178 -46 -181 1522 543 0
-1178 -46 -182 1522 549 0
-1178 -180 -488 0
-1178 -180 -512 0
-1178 -180 -560 0
-1178 -180 -494 0
-1178 -180 -518 0
-1178 -180 -566 0
-1178 -180 -500 0
-1178 -180 -524 0
-1178 -180 -572 0
-1178 -180 -489 0
-1178 -180 -513 0
-1178 -180 -561 0
-1178 -180 -495 0
-1178 -180 -519 0
-1178 -180 -567 0
-1178 -180 -501 0
-1178 -180 -525 0
-1178 -180 -573 0
-1178 -181 -494 0
-1178 -181 -518 0
-1178 -181 -566 0
-1178 -181 -500 0
-1178 -181 -524 0
-1178 -181 -572 0
-1178 -181 -495 0
-1178 -181 -519 0
-1178 -181 -567 0
-1178 -181 -501 0
-1178 -181 -525 0
-1178 -181 -573 0
-1178 -182 -500 0
-1178 -182 -524 0
-1178 -182 -572 0
-1178 -182 -501 0
-1178 -182 -525 0
-1178 -182 -573 0
-1178 -183 0
-1178 78 0
-1178 -180 205 0
-1178 -181 206 0
-1178 -182 207 0
-1178 -272 0
-1179 270 0
-1179 -58 -180 -189 0
-1179 -58 -181 -190 0
-1179 -58 -182 -191 0
-1179 46 47 0
-1179 -46 -180 1522 537 0
-1179 -46 -181 1522 543 0
-1179 -46 -182 1522 549 0
-1179 -47 -180 1523 538 0
-1179 -47 -181 1523 544 0
-1179 -47 -182 1523 550 0
-1179 -180 -489 0
-1179 -180 -513 0
-1179 -180 -561 0
-1179 -180 -495 0
-1179 -180 -519 0
-1179 -180 -567 0
-1179 -180 -501 0
-1179 -180 -525 0
-1179 -180 -573 0
-1179 -180 -490 0
-1179 -180 -514 0
-1179 -180 -562 0
-1179 -180 -496 0
-1179 -180 -520 0
-1179 -180 -568 0
-1179 -180 -502 0
-1179 -180 -526 0
-1179 -180 -574 0
-1179 -181 -495 0
-1179 -181 -519 0
-1179 -181 -567 0
-1179 -181 -501 0
-1179 -181 -525 0
-1179 -181 -573 0
-1179 -181 -496 0
-1179 -181 -520 0
-1179 -181 -568 0
-1179 -181 -502 0
-1179 -181 -526 0
-1179 -181 -574 0
-1179 -182 -501 0
-1179 -182 -525 0
-1179 -182 -573 0
-1179 -182 -502 0
-1179 -182 -526 0
-1179 -182 -574 0
-1179 -183 0
-1179 79 0
-1179 -180 205 0
-1179 -181 206 0
-1179 -182 207 0
-1179 -272 0
-1180 270 0
-1180 -59 -180 -189 0
-1180 -59 -181 -190 0
-1180 -59 -182 -191 0
-1180 47 48 0
-1180 -47 -180 1523 538 0
-1180 -47 -181 1523 544 0
-1180 -47 -182 1523 550 0
-1180 -48 -180 1524 539 0
-1180 -48 -181 1524 545 0
-1180 -48 -182 1524 551 0
-1180 -180 -490 0
-1180 -180 -514 0
-1180 -180 -562 0
-1180 -180 -496 0
-1180 -180 -520 0
-1180 -180 -568 0
-1180 -180 -502 0
-1180 -180 -526 0
-1180 -180 -574 0
-1180 -180 -491 0
-1180 -180 -515 0
-1180 -180 -563 0
-1180 -180 -497 0
-1180 -180 -521 0
-1180 -180 -569 0
-1180 -180 -503 0
-1180 -180 -527 0
-1180 -180 -575 0
-1180 -181 -496 0
-1180 -181 -520 0
-1180 -181 -568 0
-1180 -181 -502 0
-1180 -181 -526 0
-1180 -181 -574 0
-1180 -181 -497 0
-1180 -181 -521 0
-1180 -181 -569 0
-1180 -181 -503 0
-1180 -181 -527 0
-1180 -181 -575 0
-1180 -182 -502 0
-1180 -182 -526 0
-1180 -182 -574 0
-1180 -182 -503 0
-1180 -182 -527 0
-1180 -182 -575 0
-1180 -183 0
-1180 80 0
-1180 -180 205 0
-1180 -181 206 0
-1180 -182 207 0
-1180 -272 0
-1181 270 0
-1181 -55 -184 -189 0
-1181 -55 -185 -190 0
-1181 -55 -186 -191 0
-1181 49 50 0
-1181 -49 -184 1525 534 0
-1181 -49 -185 1525 540 0
-1181 -49 -186 1525 546 0
-1181 -50 -184 1526 535 0
-1181 -50 -185 1526 541 0
-1181 -50 -186 1526 547 0
-1181 -184 -486 0
-1181 -184 -510 0
-1181 -184 -558 0
-1181 -184 -492 0
-1181 -184 -516 0
-1181 -184 -564 0
-1181 -184 -498 0
-1181 -184 -522 0
-1181 -184 -570 0
-1181 -184 -487 0
-1181 -184 -511 0
-1181 -184 -559 0
-1181 -184 -493 0
-1181 -184 -517 0
-1181 -184 -565 0
-1181 -184 -499 0
-1181 -184 -523 0
-1181 -184 -571 0
-1181 -185 -492 0
-1181 -185 -516 0
-1181 -185 -564 0
-1181 -185 -498 0
-1181 -185 -522 0
-1181 -185 -570 0
-1181 -185 -493 0
-1181 -185 -517 0
-1181 -185 -565 0
-1181 -185 -499 0
-1181 -185 -523 0
-1181 -185 -571 0
-1181 -186 -498 0
-1181 -186 -522 0
-1181 -186 -570 0
-1181 -186 -499 0
-1181 -186 -523 0
-1181 -186 -571 0
-1181 -187 0
-1181 76 0
-1181 -184 205 0
-1181 -185 206 0
-1181 -186 207 0
-1181 -273 0
-1182 270 0
-1182 -56 -184 -189 0
-1182 -56 -185 -190 0
-1182 -56 -186 -191 0
-1182 50 51 0
-1182 -50 -184 1526 535 0
-1182 -50 -185 1526 541 0
-1182 -50 -186 1526 547 0
-1182 -51 -184 1527 536 0
-1182 -51 -185 1527 542 0
-1182 -51 -186 1527 548 0
-1182 -184 -487 0
-1182 -184 -511 0
-1182 -184 -559 0
-1182 -184 -493 0
-1182 -184 -517 0
-1182 -184 -565 0
-1182 -184 -499 0
-1182 -184 -523 0
-1182 -184 -571 0
-1182 -184 -488 0
-1182 -184 -512 0
-1182 -184 -560 0
-1182 -184 -494 0
-1182 -184 -518 0
-1182 -184 -566 0
-1182 -184 -500 0
-1182 -184 -524 0
-1182 -184 -572 0
-1182 -185 -493 0
-1182 -185 -517 0
-1182 -185 -565 0
-1182 -185 -499 0
-1182 -185 -523 0
-1182 -185 -571 0
-1182 -185 -494 0
-1182 -185 -518 0
-1182 -185 -566 0
-1182 -185 -500 0
-1182 -185 -524 0
-1182 -185 -572 0
-1182 -186 -499 0
-1182 -186 -523 0
-1182 -186 -571 0
-1182 -186 -500 0
-1182 -186 -524 0
-1182 -186 -572 0
-1182 -187 0
-1182 77 0
-1182 -184 205 0
-1182 -185 206 0
-1182 -186 207 0
-1182 -273 0
-1183 270 0
-1183 -57 -184 -189 0
-1183 -57 -185 -190 0
-1183 -57 -186 -191 0
-1183 51 52 0
-1183 -51 -184 1527 536 0
-1183 -51 -185 1527 542 0
-1183 -51 -186 1527 548 0
-1183 -52 -184 1528 537 0
-1183 -52 -185 1528 543 0
-1183 -52 -186 1528 549 0
-1183 -184 -488 0
-1183 -184 -512 0
-1183 -184 -560 0
-1183 -184 -494 0
-1183 -184 -518 0
-1183 -184 -566 0
-1183 -184 -500 0
-1183 -184 -524 0
-1183 -184 -572 0
-1183 -184 -489 0
-1183 -184 -513 0
-1183 -184 -561 0
-1183 -184 -495 0
-1183 -184 -519 0
-1183 -184 -567 0
-1183 -184 -501 0
-1183 -184 -525 0
-1183 -184 -573 0
-1183 -185 -494 0
-1183 -185 -518 0
-1183 -185 -566 0
-1183 -185 -500 0
-1183 -185 -524 0
-1183 -185 -572 0
-1183 -185 -495 0
-1183 -185 -519 0
-1183 -185 -567 0
-1183 -185 -501 0
-1183 -185 -525 0
-1183 -185 -573 0
-1183 -186 -500 0
-1183 -186 -524 0
-1183 -186 -572 0
-1183 -186 -501 0
-1183 -186 -525 0
-1183 -186 -573 0
-1183 -187 0
-1183 78 0
-1183 -184 205 0
-1183 -185 206 0
-1183 -186 207 0
-1183 -273 0
-1184 270 0
-1184 -58 -184 -189 0
-1184 -58 -185 -190 0
-1184 -58 -186 -191 0
-1184 52 53 0
-1184 -52 -184 1528 537 0
-1184 -52 -185 1528 543 0
-1184 -52 -186 1528 549 0
-1184 -53 -184 1529 538 0
-1184 -53 -185 1529 544 0
-1184 -53 -186 1529 550 0
-1184 -184 -489 0
-1184 -184 -513 0
-1184 -184 -561 0
-1184 -184 -495 0
-1184 -184 -519 0
-1184 -184 -567 0
-1184 -184 -501 0
-1184 -184 -525 0
-1184 -184 -573 0
-1184 -184 -490 0
-1184 -184 -514 0
-1184 -184 -562 0
-1184 -184 -496 0
-1184 -184 -520 0
-1184 -184 -568 0
-1184 -184 -502 0
-1184 -184 -526 0
-1184 -184 -574 0
-1184 -185 -495 0
-1184 -185 -519 0
-1184 -185 -567 0
-1184 -185 -501 0
-1184 -185 -525 0
-1184 -185 -573 0
-1184 -185 -496 0
-1184 -185 -520 0
-1184 -185 -568 0
-1184 -185 -502 0
-1184 -185 -526 0
-1184 -185 -574 0
-1184 -186 -501 0
-1184 -186 -525 0
-1184 -186 -573 0
-1184 -186 -502 0
-1184 -186 -526 0
-1184 -186 -574 0
-1184 -187 0
-1184 79 0
-1184 -184 205 0
-1184 -185 206 0
-1184 -186 207 0
-1184 -273 0
-1185 270 0
-1185 -59 -184 -189 0
-1185 -59 -185 -190 0
-1185 -59 -186 -191 0
-1185 53 54 0
-1185 -53 -184 1529 538 0
-1185 -53 -185 1529 544 0
-1185 -53 -186 1529 550 0
-1185 -54 -184 1530 539 0
-1185 -54 -185 1530 545 0
-1185 -54 -186 1530 551 0
-1185 -184 -490 0
-1185 -184 -514 0
-1185 -184 -562 0
-1185 -184 -496 0
-1185 -184 -520 0
-1185 -184 -568 0
-1185 -184 -502 0
-1185 -184 -526 0
-1185 -184 -574 0
-1185 -184 -491 0
-1185 -184 -515 0
-1185 -184 -563 0
-1185 -184 -497 0
-1185 -184 -521 0
-1185 -184 -569 0
-1185 -184 -503 0
-1185 -184 -527 0
-1185 -184 -575 0
-1185 -185 -496 0
-1185 -185 -520 0
-1185 -185 -568 0
-1185 -185 -502 0
-1185 -185 -526 0
-1185 -185 -574 0
-1185 -185 -497 0
-1185 -185 -521 0
-1185 -185 -569 0
-1185 -185 -503 0
-1185 -185 -527 0
-1185 -185 -575 0
-1185 -186 -502 0
-1185 -186 -526 0
-1185 -186 -574 0
-1185 -186 -503 0
-1185 -186 -527 0
-1185 -186 -575 0
-1185 -187 0
-1185 80 0
-1185 -184 205 0
-1185 -185 206 0
-1185 -186 207 0
-1185 -273 0
-1186 270 0
-1186 -55 -192 -189 0
-1186 -55 -193 -190 0
-1186 -55 -194 -191 0
-1186 60 61 0
-1186 -60 -192 1537 534 0
-1186 -60 -193 1537 540 0
-1186 -60 -194 1537 546 0
-1186 -60 -192 1538 535 0
-1186 -60 -193 1538 541 0
-1186 -60 -194 1538 547 0
-1186 -61 -192 1538 535 0
-1186 -61 -193 1538 541 0
-1186 -61 -194 1538 547 0
-1186 -192 -486 0
-1186 -192 -510 0
-1186 -192 -558 0
-1186 -192 -492 0
-1186 -192 -516 0
-1186 -192 -564 0
-1186 -192 -498 0
-1186 -192 -522 0
-1186 -192 -570 0
-1186 -192 -487 0
-1186 -192 -511 0
-1186 -192 -559 0
-1186 -192 -493 0
-1186 -192 -517 0
-1186 -192 -565 0
-1186 -192 -499 0
-1186 -192 -523 0
-1186 -192 -571 0
-1186 -193 -492 0
-1186 -193 -516 0
-1186 -193 -564 0
-1186 -193 -498 0
-1186 -193 -522 0
-1186 -193 -570 0
-1186 -193 -493 0
-1186 -193 -517 0
-1186 -193 -565 0
-1186 -193 -499 0
-1186 -193 -523 0
-1186 -193 -571 0
-1186 -194 -498 0
-1186 -194 -522 0
-1186 -194 -570 0
-1186 -194 -499 0
-1186 -194 -523 0
-1186 -194 -571 0
-1186 -195 0
-1186 76 0
-1186 -192 205 0
-1186 -193 206 0
-1186 -194 207 0
-1186 -275 0
-1187 270 0
-1187 -56 -192 -189 0
-1187 -56 -193 -190 0
-1187 -56 -194 -191 0
-1187 60 61 62 0
-1187 -60 -192 1538 535 0
-1187 -60 -193 1538 541 0
-1187 -60 -194 1538 547 0
-1187 -60 -192 1539 536 0
-1187 -60 -193 1539 542 0
-1187 -60 -194 1539 548 0
-1187 -61 -192 1538 535 0
-1187 -61 -193 1538 541 0
-1187 -61 -194 1538 547 0
-1187 -61 -192 1539 536 0
-1187 -61 -193 1539 542 0
-1187 -61 -194 1539 548 0
-1187 -62 -192 1539 536 0
-1187 -62 -193 1539 542 0
-1187 -62 -194 1539 548 0
-1187 -192 -487 0
-1187 -192 -511 0
-1187 -192 -559 0
-1187 -192 -493 0
-1187 -192 -517 0
-1187 -192 -565 0
-1187 -192 -499 0
-1187 -192 -523 0
-1187 -192 -571 0
-1187 -192 -488 0
-1187 -192 -512 0
-1187 -192 -560 0
-1187 -192 -494 0
-1187 -192 -518 0
-1187 -192 -566 0
-1187 -192 -500 0
-1187 -192 -524 0
-1187 -192 -572 0
-1187 -193 -493 0
-1187 -193 -517 0
-1187 -193 -565 0
-1187 -193 -499 0
-1187 -193 -523 0
-1187 -193 -571 0
-1187 -193 -494 0
-1187 -193 -518 0
-1187 -193 -566 0
-1187 -193 -500 0
-1187 -193 -524 0
-1187 -193 -572 0
-1187 -194 -499 0
-1187 -194 -523 0
-1187 -194 -571 0
-1187 -194 -500 0
-1187 -194 -524 0
-1187 -194 -572 0
-1187 -195 0
-1187 77 0
-1187 -192 205 0
-1187 -193 206 0
-1187 -194 207 0
-1187 -275 0
-1188 270 0
-1188 -57 -192 -189 0
-1188 -57 -193 -190 0
-1188 -57 -194 -191 0
-1188 60 61 62 63 0
-1188 -60 -192 1539 536 0
-1188 -60 -193 1539 542 0
-1188 -60 -194 1539 548 0
-1188 -61 -192 1539 536 0
-1188 -61 -193 1539 542 0
-1188 -61 -194 1539 548 0
-1188 -61 -192 1540 537 0
-1188 -61 -193 1540 543 0
-1188 -61 -194 1540 549 0
-1188 -62 -192 1539 536 0
-1188 -62 -193 1539 542 0
-1188 -62 -194 1539 548 0
-1188 -62 -192 1540 537 0
-1188 -62 -193 1540 543 0
-1188 -62 -194 1540 549 0
-1188 -63 -192 1540 537 0
-1188 -63 -193 1540 543 0
-1188 -63 -194 1540 549 0
-1188 -192 -488 0
-1188 -192 -512 0
-1188 -192 -560 0
-1188 -192 -494 0
-1188 -192 -518 0
-1188 -192 -566 0
-1188 -192 -500 0
-1188 -192 -524 0
-1188 -192 -572 0
-1188 -192 -489 0
-1188 -192 -513 0
-1188 -192 -561 0
-1188 -192 -495 0
-1188 -192 -519 0
-1188 -192 -567 0
-1188 -192 -501 0
-1188 -192 -525 0
-1188 -192 -573 0
-1188 -193 -494 0
-1188 -193 -518 0
-1188 -193 -566 0
-1188 -193 -500 0
-1188 -193 -524 0
-1188 -193 -572 0
-1188 -193 -495 0
-1188 -193 -519 0
-1188 -193 -567 0
-1188 -193 -501 0
-1188 -193 -525 0
-1188 -193 -573 0
-1188 -194 -500 0
-1188 -194 -524 0
-1188 -194 -572 0
-1188 -194 -501 0
-1188 -194 -525 0
-1188 -194 -573 0
-1188 -195 0
-1188 78 0
-1188 -192 205 0
-1188 -193 206 0
-1188 -194 207 0
-1188 -275 0
-1189 270 0
-1189 -58 -192 -189 0
-1189 -58 -193 -190 0
-1189 -58 -194 -191 0
-1189 61 62 63 0
-1189 -61 -192 1540 537 0
-1189 -61 -193 1540 543 0
-1189 -61 -194 1540 549 0
-1189 -62 -192 1540 537 0
-1189 -62 -193 1540 543 0
-1189 -62 -194 1540 549 0
-1189 -62 -192 1541 538 0
-1189 -62 -193 1541 544 0
-1189 -62 -194 1541 550 0
-1189 -63 -192 1540 537 0
-1189 -63 -193 1540 543 0
-1189 -63 -194 1540 549 0
-1189 -63 -192 1541 538 0
-1189 -63 -193 1541 544 0
-1189 -63 -194 1541 550 0
-1189 -192 -489 0
-1189 -192 -513 0
-1189 -192 -561 0
-1189 -192 -495 0
-1189 -192 -519 0
-1189 -192 -567 0
-1189 -192 -501 0
-1189 -192 -525 0
-1189 -192 -573 0
-1189 -192 -490 0
-1189 -192 -514 0
-1189 -192 -562 0
-1189 -192 -496 0
-1189 -192 -520 0
-1189 -192 -568 0
-1189 -192 -502 0
-1189 -192 -526 0
-1189 -192 -574 0
-1189 -193 -495 0
-1189 -193 -519 0
-1189 -193 -567 0
-1189 -193 -501 0
-1189 -193 -525 0
-1189 -193 -573 0
-1189 -193 -496 0
-1189 -193 -520 0
-1189 -193 -568 0
-1189 -193 -502 0
-1189 -193 -526 0
-1189 -193 -574 0
-1189 -194 -501 0
-1189 -194 -525 0
-1189 -194 -573 0
-1189 -194 -502 0
-1189 -194 -526 0
-1189 -194 -574 0
-1189 -195 0
-1189 79 0
-1189 -192 205 0
-1189 -193 206 0
-1189 -194 207 0
-1189 -275 0
-1190 270 0
-1190 -59 -192 -189 0
-1190 -59 -193 -190 0
-1190 -59 -194 -191 0
-1190 62 63 0
-1190 -62 -192 1541 538 0
-1190 -62 -193 1541 544 0
-1190 -62 -194 1541 550 0
-1190 -63 -192 1541 538 0
-1190 -63 -193 1541 544 0
-1190 -63 -194 1541 550 0
-1190 -63 -192 1542 539 0
-1190 -63 -193 1542 545 0
-1190 -63 -194 1542 551 0
-1190 -192 -490 0
-1190 -192 -514 0
-1190 -192 -562 0
-1190 -192 -496 0
-1190 -192 -520 0
-1190 -192 -568 0
-1190 -192 -502 0
-1190 -192 -526 0
-1190 -192 -574 0
-1190 -192 -491 0
-1190 -192 -515 0
-1190 -192 -563 0
-1190 -192 -497 0
-1190 -192 -521 0
-1190 -192 -569 0
-1190 -192 -503 0
-1190 -192 -527 0
-1190 -192 -575 0
-1190 -193 -496 0
-1190 -193 -520 0
-1190 -193 -568 0
-1190 -193 -502 0
-1190 -193 -526 0
-1190 -193 -574 0
-1190 -193 -497 0
-1190 -193 -521 0
-1190 -193 -569 0
-1190 -193 -503 0
-1190 -193 -527 0
-1190 -193 -575 0
-1190 -194 -502 0
-1190 -194 -526 0
-1190 -194 -574 0
-1190 -194 -503 0
-1190 -194 -527 0
-1190 -194 -575 0
-1190 -195 0
-1190 80 0
-1190 -192 205 0
-1190 -193 206 0
-1190 -194 207 0
-1190 -275 0
-1191 270 0
-1191 -55 -188 0
-1191 -480 0
-1191 -504 0
-1191 -552 0
-1191 -486 0
-1191 -510 0
-1191 -558 0
-1191 -492 0
-1191 -516 0
-1191 -564 0
-1191 -498 0
-1191 -522 0
-1191 -570 0
-1191 -481 0
-1191 -505 0
-1191 -553 0
-1191 -487 0
-1191 -511 0
-1191 -559 0
-1191 -493 0
-1191 -517 0
-1191 -565 0
-1191 -499 0
-1191 -523 0
-1191 -571 0
-1191 76 0
-1191 204 0
-1192 270 0
-1192 -56 -188 0
-1192 -481 0
-1192 -505 0
-1192 -553 0
-1192 -487 0
-1192 -511 0
-1192 -559 0
-1192 -493 0
-1192 -517 0
-1192 -565 0
-1192 -499 0
-1192 -523 0
-1192 -571 0
-1192 -482 0
-1192 -506 0
-1192 -554 0
-1192 -488 0
-1192 -512 0
-1192 -560 0
-1192 -494 0
-1192 -518 0
-1192 -566 0
-1192 -500 0
-1192 -524 0
-1192 -572 0
-1192 77 0
-1192 204 0
-1193 270 0
-1193 -57 -188 0
-1193 -482 0
-1193 -506 0
-1193 -554 0
-1193 -488 0
-1193 -512 0
-1193 -560 0
-1193 -494 0
-1193 -518 0
-1193 -566 0
-1193 -500 0
-1193 -524 0
-1193 -572 0
-1193 -483 0
-1193 -507 0
-1193 -555 0
-1193 -489 0
-1193 -513 0
-1193 -561 0
-1193 -495 0
-1193 -519 0
-1193 -567 0
-1193 -501 0
-1193 -525 0
-1193 -573 0
-1193 78 0
-1193 204 0
-1194 270 0
-1194 -58 -188 0
-1194 -483 0
-1194 -507 0
-1194 -555 0
-1194 -489 0
-1194 -513 0
-1194 -561 0
-1194 -495 0
-1194 -519 0
-1194 -567 0
-1194 -501 0
-1194 -525 0
-1194 -573 0
-1194 -484 0
-1194 -508 0
-1194 -556 0
-1194 -490 0
-1194 -514 0
-1194 -562 0
-1194 -496 0
-1194 -520 0
-1194 -568 0
-1194 -502 0
-1194 -526 0
-1194 -574 0
-1194 79 0
-1194 204 0
-1195 270 0
-1195 -59 -188 0
-1195 -484 0
-1195 -508 0
-1195 -556 0
-1195 -490 0
-1195 -514 0
-1195 -562 0
-1195 -496 0
-1195 -520 0
-1195 -568 0
-1195 -502 0
-1195 -526 0
-1195 -574 0
-1195 -485 0
-1195 -509 0
-1195 -557 0
-1195 -491 0
-1195 -515 0
-1195 -563 0
-1195 -497 0
-1195 -521 0
-1195 -569 0
-1195 -503 0
-1195 -527 0
-1195 -575 0
-1195 80 0
-1195 204 0
-1196 271 0
-1196 -60 -180 -193 0
-1196 -60 -181 -194 0
-1196 -60 -182 -195 0
-1196 43 44 45 0
-1196 -43 -180 1519 558 0
-1196 -43 -181 1519 564 0
-1196 -43 -182 1519 570 0
-1196 -44 -180 1520 559 0
-1196 -44 -181 1520 565 0
-1196 -44 -182 1520 571 0
-1196 -45 -180 1521 560 0
-1196 -45 -181 1521 566 0
-1196 -45 -182 1521 572 0
-1196 -180 -486 0
-1196 -180 -510 0
-1196 -180 -534 0
-1196 -180 -492 0
-1196 -180 -516 0
-1196 -180 -540 0
-1196 -180 -498 0
-1196 -180 -522 0
-1196 -180 -546 0
-1196 -180 -487 0
-1196 -180 -511 0
-1196 -180 -535 0
-1196 -180 -493 0
-1196 -180 -517 0
-1196 -180 -541 0
-1196 -180 -499 0
-1196 -180 -523 0
-1196 -180 -547 0
-1196 -180 -488 0
-1196 -180 -512 0
-1196 -180 -536 0
-1196 -180 -494 0
-1196 -180 -518 0
-1196 -180 -542 0
-1196 -180 -500 0
-1196 -180 -524 0
-1196 -180 -548 0
-1196 -181 -492 0
-1196 -181 -516 0
-1196 -181 -540 0
-1196 -181 -498 0
-1196 -181 -522 0
-1196 -181 -546 0
-1196 -181 -493 0
-1196 -181 -517 0
-1196 -181 -541 0
-1196 -181 -499 0
-1196 -181 -523 0
-1196 -181 -547 0
-1196 -181 -494 0
-1196 -181 -518 0
-1196 -181 -542 0
-1196 -181 -500 0
-1196 -181 -524 0
-1196 -181 -548 0
-1196 -182 -498 0
-1196 -182 -522 0
-1196 -182 -546 0
-1196 -182 -499 0
-1196 -182 -523 0
-1196 -182 -547 0
-1196 -182 -500 0
-1196 -182 -524 0
-1196 -182 -548 0
-1196 -183 0
-1196 81 0
-1196 -180 209 0
-1196 -181 210 0
-1196 -182 211 0
-1196 -272 0
-1197 271 0
-1197 -61 -180 -193 0
-1197 -61 -181 -194 0
-1197 -61 -182 -195 0
-1197 44 45 46 0
-1197 -44 -180 1520 559 0
-1197 -44 -181 1520 565 0
-1197 -44 -182 1520 571 0
-1197 -45 -180 1521 560 0
-1197 -45 -181 1521 566 0
-1197 -45 -182 1521 572 0
-1197 -46 -180 1522 561 0
-1197 -46 -181 1522 567 0
-1197 -46 -182 1522 573 0
-1197 -180 -487 0
-1197 -180 -511 0
-1197 -180 -535 0
-1197 -180 -493 0
-1197 -180 -517 0
-1197 -180 -541 0
-1197 -180 -499 0
-1197 -180 -523 0
-1197 -180 -547 0
-1197 -180 -488 0
-1197 -180 -512 0
-1197 -180 -536 0
-1197 -180 -494 0
-1197 -180 -518 0
-1197 -180 -542 0
-1197 -180 -500 0
-1197 -180 -524 0
-1197 -180 -548 0
-1197 -180 -489 0
-1197 -180 -513 0
-1197 -180 -537 0
-1197 -180 -495 0
-1197 -180 -519 0
-1197 -180 -543 0
-1197 -180 -501 0
-1197 -180 -525 0
-1197 -180 -549 0
-1197 -181 -493 0
-1197 -181 -517 0
-1197 -181 -541 0
-1197 -181 -499 0
-1197 -181 -523 0
-1197 -181 -547 0
-1197 -181 -494 0
-1197 -181 -518 0
-1197 -181 -542 0
-1197 -181 -500 0
-1197 -181 -524 0
-1197 -181 -548 0
-1197 -181 -495 0
-1197 -181 -519 0
-1197 -181 -543 0
-1197 -181 -501 0
-1197 -181 -525 0
-1197 -181 -549 0
-1197 -182 -499 0
-1197 -182 -523 0
-1197 -182 -547 0
-1197 -182 -500 0
-1197 -182 -524 0
-1197 -182 -548 0
-1197 -182 -501 0
-1197 -182 -525 0
-1197 -182 -549 0
-1197 -183 0
-1197 82 0
-1197 -180 209 0
-1197 -181 210 0
-1197 -182 211 0
-1197 -272 0
-1198 271 0
-1198 -62 -180 -193 0
-1198 -62 -181 -194 0
-1198 -62 -182 -195 0
-1198 45 46 47 0
-1198 -45 -180 1521 560 0
-1198 -45 -181 1521 566 0
-1198 -45 -182 1521 572 0
-1198 -46 -180 1522 561 0
-1198 -46 -181 1522 567 0
-1198 -46 -182 1522 573 0
-1198 -47 -180 1523 562 0
-1198 -47 -181 1523 568 0
-1198 -47 -182 1523 574 0
-1198 -180 -488 0
-1198 -180 -512 0
-1198 -180 -536 0
-1198 -180 -494 0
-1198 -180 -518 0
-1198 -180 -542 0
-1198 -180 -500 0
-1198 -180 -524 0
-1198 -180 -548 0
-1198 -180 -489 0
-1198 -180 -513 0
-1198 -180 -537 0
-1198 -180 -495 0
-1198 -180 -519 0
-1198 -180 -543 0
-1198 -180 -501 0
-1198 -180 -525 0
-1198 -180 -549 0
-1198 -180 -490 0
-1198 -180 -514 0
-1198 -180 -538 0
-1198 -180 -496 0
-1198 -180 -520 0
-1198 -180 -544 0
-1198 -180 -502 0
-1198 -180 -526 0
-1198 -180 -550 0
-1198 -181 -494 0
-1198 -181 -518 0
-1198 -181 -542 0
-1198 -181 -500 0
-1198 -181 -524 0
-1198 -181 -548 0
-1198 -181 -495 0
-1198 -181 -519 0
-1198 -181 -543 0
-1198 -181 -501 0
-1198 -181 -525 0
-1198 -181 -549 0
-1198 -181 -496 0
-1198 -181 -520 0
-1198 -181 -544 0
-1198 -181 -502 0
-1198 -181 -526 0
-1198 -181 -550 0
-1198 -182 -500 0
-1198 -182 -524 0
-1198 -182 -548 0
-1198 -182 -501 0
-1198 -182 -525 0
-1198 -182 -549 0
-1198 -182 -502 0
-1198 -182 -526 0
-1198 -182 -550 0
-1198 -183 0
-1198 83 0
-1198 -180 209 0
-1198 -181 210 0
-1198 -182 211 0
-1198 -272 0
-1199 271 0
-1199 -63 -180 -193 0
-1199 -63 -181 -194 0
-1199 -63 -182 -195 0
-1199 46 47 48 0
-1199 -46 -180 1522 561 0
-1199 -46 -181 1522 567 0
-1199 -46 -182 1522 573 0
-1199 -47 -180 1523 562 0
-1199 -47 -181 1523 568 0
-1199 -47 -182 1523 574 0
-1199 -48 -180 1524 563 0
-1199 -48 -181 1524 569 0
-1199 -48 -182 1524 575 0
-1199 -180 -489 0
-1199 -180 -513 0
-1199 -180 -537 0
-1199 -180 -495 0
-1199 -180 -519 0
-1199 -180 -543 0
-1199 -180 -501 0
-1199 -180 -525 0
-1199 -180 -549 0
-1199 -180 -490 0
-1199 -180 -514 0
-1199 -180 -538 0
-1199 -180 -496 0
-1199 -180 -520 0
-1199 -180 -544 0
-1199 -180 -502 0
-1199 -180 -526 0
-1199 -180 -550 0
-1199 -180 -491 0
-1199 -180 -515 0
-1199 -180 -539 0
-1199 -180 -497 0
-1199 -180 -521 0
-1199 -180 -545 0
-1199 -180 -503 0
-1199 -180 -527 0
-1199 -180 -551 0
-1199 -181 -495 0
-1199 -181 -519 0
-1199 -181 -543 0
-1199 -181 -501 0
-1199 -181 -525 0
-1199 -181 -549 0
-1199 -181 -496 0
-1199 -181 -520 0
-1199 -181 -544 0
-1199 -181 -502 0
-1199 -181 -526 0
-1199 -181 -550 0
-1199 -181 -497 0
-1199 -181 -521 0
-1199 -181 -545 0
-1199 -181 -503 0
-1199 -181 -527 0
-1199 -181 -551 0
-1199 -182 -501 0
-1199 -182 -525 0
-1199 -182 -549 0
-1199 -182 -502 0
-1199 -182 -526 0
-1199 -182 -550 0
-1199 -182 -503 0
-1199 -182 -527 0
-1199 -182 -551 0
-1199 -183 0
-1199 84 0
-1199 -180 209 0
-1199 -181 210 0
-1199 -182 211 0
-1199 -272 0
-1200 271 0
-1200 -60 -184 -193 0
-1200 -60 -185 -194 0
-1200 -60 -186 -195 0
-1200 49 50 51 0
-1200 -49 -184 1525 558 0
-1200 -49 -185 1525 564 0
-1200 -49 -186 1525 570 0
-1200 -50 -184 1526 559 0
-1200 -50 -185 1526 565 0
-1200 -50 -186 1526 571 0
-1200 -51 -184 1527 560 0
-1200 -51 -185 1527 566 0
-1200 -51 -186 1527 572 0
-1200 -184 -486 0
-1200 -184 -510 0
-1200 -184 -534 0
-1200 -184 -492 0
-1200 -184 -516 0
-1200 -184 -540 0
-1200 -184 -498 0
-1200 -184 -522 0
-1200 -184 -546 0
-1200 -184 -487 0
-1200 -184 -511 0
-1200 -184 -535 0
-1200 -184 -493 0
-1200 -184 -517 0
-1200 -184 -541 0
-1200 -184 -499 0
-1200 -184 -523 0
-1200 -184 -547 0
-1200 -184 -488 0
-1200 -184 -512 0
-1200 -184 -536 0
-1200 -184 -494 0
-1200 -184 -518 0
-1200 -184 -542 0
-1200 -184 -500 0
-1200 -184 -524 0
-1200 -184 -548 0
-1200 -185 -492 0
-1200 -185 -516 0
-1200 -185 -540 0
-1200 -185 -498 0
-1200 -185 -522 0
-1200 -185 -546 0
-1200 -185 -493 0
-1200 -185 -517 0
-1200 -185 -541 0
-1200 -185 -499 0
-1200 -185 -523 0
-1200 -185 -547 0
-1200 -185 -494 0
-1200 -185 -518 0
-1200 -185 -542 0
-1200 -185 -500 0
-1200 -185 -524 0
-1200 -185 -548 0
-1200 -186 -498 0
-1200 -186 -522 0
-1200 -186 -546 0
-1200 -186 -499 0
-1200 -186 -523 0
-1200 -186 -547 0
-1200 -186 -500 0
-1200 -186 -524 0
-1200 -186 -548 0
-1200 -187 0
-1200 81 0
-1200 -184 209 0
-1200 -185 210 0
-1200 -186 211 0
-1200 -273 0
-1201 271 0
-1201 -61 -184 -193 0
-1201 -61 -185 -194 0
-1201 -61 -186 -195 0
-1201 50 51 52 0
-1201 -50 -184 1526 559 0
-1201 -50 -185 1526 565 0
-1201 -50 -186 1526 571 0
-1201 -51 -184 1527 560 0
-1201 -51 -185 1527 566 0
-1201 -51 -186 1527 572 0
-1201 -52 -184 1528 561 0
-1201 -52 -185 1528 567 0
-1201 -52 -186 1528 573 0
-1201 -184 -487 0
-1201 -184 -511 0
-1201 -184 -535 0
-1201 -184 -493 0
-1201 -184 -517 0
-1201 -184 -541 0
-1201 -184 -499 0
-1201 -184 -523 0
-1201 -184 -547 0
-1201 -184 -488 0
-1201 -184 -512 0
-1201 -184 -536 0
-1201 -184 -494 0
-1201 -184 -518 0
-1201 -184 -542 0
-1201 -184 -500 0
-1201 -184 -524 0
-1201 -184 -548 0
-1201 -184 -489 0
-1201 -184 -513 0
-1201 -184 -537 0
-1201 -184 -495 0
-1201 -184 -519 0
-1201 -184 -543 0
-1201 -184 -501 0
-1201 -184 -525 0
-1201 -184 -549 0
-1201 -185 -493 0
-1201 -185 -517 0
-1201 -185 -541 0
-1201 -185 -499 0
-1201 -185 -523 0
-1201 -185 -547 0
-1201 -185 -494 0
-1201 -185 -518 0
-1201 -185 -542 0
-1201 -185 -500 0
-1201 -185 -524 0
-1201 -185 -548 0
-1201 -185 -495 0
-1201 -185 -519 0
-1201 -185 -543 0
-1201 -185 -501 0
-1201 -185 -525 0
-1201 -185 -549 0
-1201 -186 -499 0
-1201 -186 -523 0
-1201 -186 -547 0
-1201 -186 -500 0
-1201 -186 -524 0
-1201 -186 -548 0
-1201 -186 -501 0
-1201 -186 -525 0
-1201 -186 -549 0
-1201 -187 0
-1201 82 0
-1201 -184 209 0
-1201 -185 210 0
-1201 -186 211 0
-1201 -273 0
-1202 271 0
-1202 -62 -184 -193 0
-1202 -62 -185 -194 0
-1202 -62 -186 -195 0
-1202 51 52 53 0
-1202 -51 -184 1527 560 0
-1202 -51 -185 1527 566 0
-1202 -51 -186 1527 572 0
-1202 -52 -184 1528 561 0
-1202 -52 -185 1528 567 0
-1202 -52 -186 1528 573 0
-1202 -53 -184 1529 562 0
-1202 -53 -185 1529 568 0
-1202 -53 -186 1529 574 0
-1202 -184 -488 0
-1202 -184 -512 0
-1202 -184 -536 0
-1202 -184 -494 0
-1202 -184 -518 0
-1202 -184 -542 0
-1202 -184 -500 0
-1202 -184 -524 0
-1202 -184 -548 0
-1202 -184 -489 0
-1202 -184 -513 0
-1202 -184 -537 0
-1202 -184 -495 0
-1202 -184 -519 0
-1202 -184 -543 0
-1202 -184 -501 0
-1202 -184 -525 0
-1202 -184 -549 0
-1202 -184 -490 0
-1202 -184 -514 0
-1202 -184 -538 0
-1202 -184 -496 0
-1202 -184 -520 0
-1202 -184 -544 0
-1202 -184 -502 0
-1202 -184 -526 0
-1202 -184 -550 0
-1202 -185 -494 0
-1202 -185 -518 0
-1202 -185 -542 0
-1202 -185 -500 0
-1202 -185 -524 0
-1202 -185 -548 0
-1202 -185 -495 0
-1202 -185 -519 0
-1202 -185 -543 0
-1202 -185 -501 0
-1202 -185 -525 0
-1202 -185 -549 0
-1202 -185 -496 0
-1202 -185 -520 0
-1202 -185 -544 0
-1202 -185 -502 0
-1202 -185 -526 0
-1202 -185 -550 0
-1202 -186 -500 0
-1202 -186 -524 0
-1202 -186 -548 0
-1202 -186 -501 0
-1202 -186 -525 0
-1202 -186 -549 0
-1202 -186 -502 0
-1202 -186 -526 0
-1202 -186 -550 0
-1202 -187 0
-1202 83 0
-1202 -184 209 0
-1202 -185 210 0
-1202 -186 211 0
-1202 -273 0
-1203 271 0
-1203 -63 -184 -193 0
-1203 -63 -185 -194 0
-1203 -63 -186 -195 0
-1203 52 53 54 0
-1203 -52 -184 1528 561 0
-1203 -52 -185 1528 567 0
-1203 -52 -186 1528 573 0
-1203 -53 -184 1529 562 0
-1203 -53 -185 1529 568 0
-1203 -53 -186 1529 574 0
-1203 -54 -184 1530 563 0
-1203 -54 -185 1530 569 0
-1203 -54 -186 1530 575 0
-1203 -184 -489 0
-1203 -184 -513 0
-1203 -184 -537 0
-1203 -184 -495 0
-1203 -184 -519 0
-1203 -184 -543 0
-1203 -184 -501 0
-1203 -184 -525 0
-1203 -184 -549 0
-1203 -184 -490 0
-1203 -184 -514 0
-1203 -184 -538 0
-1203 -184 -496 0
-1203 -184 -520 0
-1203 -184 -544 0
-1203 -184 -502 0
-1203 -184 -526 0
-1203 -184 -550 0
-1203 -184 -491 0
-1203 -184 -515 0
-1203 -184 -539 0
-1203 -184 -497 0
-1203 -184 -521 0
-1203 -184 -545 0
-1203 -184 -503 0
-1203 -184 -527 0
-1203 -184 -551 0
-1203 -185 -495 0
-1203 -185 -519 0
-1203 -185 -543 0
-1203 -185 -501 0
-1203 -185 -525 0
-1203 -185 -549 0
-1203 -185 -496 0
-1203 -185 -520 0
-1203 -185 -544 0
-1203 -185 -502 0
-1203 -185 -526 0
-1203 -185 -550 0
-1203 -185 -497 0
-1203 -185 -521 0
-1203 -185 -545 0
-1203 -185 -503 0
-1203 -185 -527 0
-1203 -185 -551 0
-1203 -186 -501 0
-1203 -186 -525 0
-1203 -186 -549 0
-1203 -186 -502 0
-1203 -186 -526 0
-1203 -186 -550 0
-1203 -186 -503 0
-1203 -186 -527 0
-1203 -186 -551 0
-1203 -187 0
-1203 84 0
-1203 -184 209 0
-1203 -185 210 0
-1203 -186 211 0
-1203 -273 0
-1204 271 0
-1204 -60 -188 -193 0
-1204 -60 -189 -194 0
-1204 -60 -190 -195 0
-1204 55 56 57 0
-1204 -55 -188 1531 558 0
-1204 -55 -189 1531 564 0
-1204 -55 -190 1531 570 0
-1204 -55 -188 1532 559 0
-1204 -55 -189 1532 565 0
-1204 -55 -190 1532 571 0
-1204 -56 -188 1532 559 0
-1204 -56 -189 1532 565 0
-1204 -56 -190 1532 571 0
-1204 -56 -188 1533 560 0
-1204 -56 -189 1533 566 0
-1204 -56 -190 1533 572 0
-1204 -57 -188 1533 560 0
-1204 -57 -189 1533 566 0
-1204 -57 -190 1533 572 0
-1204 -188 -486 0
-1204 -188 -510 0
-1204 -188 -534 0
-1204 -188 -492 0
-1204 -188 -516 0
-1204 -188 -540 0
-1204 -188 -498 0
-1204 -188 -522 0
-1204 -188 -546 0
-1204 -188 -487 0
-1204 -188 -511 0
-1204 -188 -535 0
-1204 -188 -493 0
-1204 -188 -517 0
-1204 -188 -541 0
-1204 -188 -499 0
-1204 -188 -523 0
-1204 -188 -547 0
-1204 -188 -488 0
-1204 -188 -512 0
-1204 -188 -536 0
-1204 -188 -494 0
-1204 -188 -518 0
-1204 -188 -542 0
-1204 -188 -500 0
-1204 -188 -524 0
-1204 -188 -548 0
-1204 -189 -492 0
-1204 -189 -516 0
-1204 -189 -540 0
-1204 -189 -498 0
-1204 -189 -522 0
-1204 -189 -546 0
-1204 -189 -493 0
-1204 -189 -517 0
-1204 -189 -541 0
-1204 -189 -499 0
-1204 -189 -523 0
-1204 -189 -547 0
-1204 -189 -494 0
-1204 -189 -518 0
-1204 -189 -542 0
-1204 -189 -500 0
-1204 -189 -524 0
-1204 -189 -548 0
-1204 -190 -498 0
-1204 -190 -522 0
-1204 -190 -546 0
-1204 -190 -499 0
-1204 -190 -523 0
-1204 -190 -547 0
-1204 -190 -500 0
-1204 -190 -524 0
-1204 -190 -548 0
-1204 -191 0
-1204 81 0
-1204 -188 209 0
-1204 -189 210 0
-1204 -190 211 0
-1204 -274 0
-1205 271 0
-1205 -61 -188 -193 0
-1205 -61 -189 -194 0
-1205 -61 -190 -195 0
-1205 55 56 57 58 0
-1205 -55 -188 1532 559 0
-1205 -55 -189 1532 565 0
-1205 -55 -190 1532 571 0
-1205 -56 -188 1532 559 0
-1205 -56 -189 1532 565 0
-1205 -56 -190 1532 571 0
-1205 -56 -188 1533 560 0
-1205 -56 -189 1533 566 0
-1205 -56 -190 1533 572 0
-1205 -57 -188 1533 560 0
-1205 -57 -189 1533 566 0
-1205 -57 -190 1533 572 0
-1205 -57 -188 1534 561 0
-1205 -57 -189 1534 567 0
-1205 -57 -190 1534 573 0
-1205 -58 -188 1534 561 0
-1205 -58 -189 1534 567 0
-1205 -58 -190 1534 573 0
-1205 -188 -487 0
-1205 -188 -511 0
-1205 -188 -535 0
-1205 -188 -493 0
-1205 -188 -517 0
-1205 -188 -541 0
-1205 -188 -499 0
-1205 -188 -523 0
-1205 -188 -547 0
-1205 -188 -488 0
-1205 -188 -512 0
-1205 -188 -536 0
-1205 -188 -494 0
-1205 -188 -518 0
-1205 -188 -542 0
-1205 -188 -500 0
-1205 -188 -524 0
-1205 -188 -548 0
-1205 -188 -489 0
-1205 -188 -513 0
-1205 -188 -537 0
-1205 -188 -495 0
-1205 -188 -519 0
-1205 -188 -543 0
-1205 -188 -501 0
-1205 -188 -525 0
-1205 -188 -549 0
-1205 -189 -493 0
-1205 -189 -517 0
-1205 -189 -541 0
-1205 -189 -499 0
-1205 -189 -523 0
-1205 -189 -547 0
-1205 -189 -494 0
-1205 -189 -518 0
-1205 -189 -542 0
-1205 -189 -500 0
-1205 -189 -524 0
-1205 -189 -548 0
-1205 -189 -495 0
-1205 -189 -519 0
-1205 -189 -543 0
-1205 -189 -501 0
-1205 -189 -525 0
-1205 -189 -549 0
-1205 -190 -499 0
-1205 -190 -523 0
-1205 -190 -547 0
-1205 -190 -500 0
-1205 -190 -524 0
-1205 -190 -548 0
-1205 -190 -501 0
-1205 -190 -525 0
-1205 -190 -549 0
-1205 -191 0
-1205 82 0
-1205 -188 209 0
-1205 -189 210 0
-1205 -190 211 0
-1205 -274 0
-1206 271 0
-1206 -62 -188 -193 0
-1206 -62 -189 -194 0
-1206 -62 -190 -195 0
-1206 56 57 58 59 0
-1206 -56 -188 1533 560 0
-1206 -56 -189 1533 566 0
-1206 -56 -190 1533 572 0
-1206 -57 -188 1533 560 0
-1206 -57 -189 1533 566 0
-1206 -57 -190 1533 572 0
-1206 -57 -188 1534 561 0
-1206 -57 -189 1534 567 0
-1206 -57 -190 1534 573 0
-1206 -58 -188 1534 561 0
-1206 -58 -189 1534 567 0
-1206 -58 -190 1534 573 0
-1206 -58 -188 1535 562 0
-1206 -58 -189 1535 568 0
-1206 -58 -190 1535 574 0
-1206 -59 -188 1535 562 0
-1206 -59 -189 1535 568 0
-1206 -59 -190 1535 574 0
-1206 -188 -488 0
-1206 -188 -512 0
-1206 -188 -536 0
-1206 -188 -494 0
-1206 -188 -518 0
-1206 -188 -542 0
-1206 -188 -500 0
-1206 -188 -524 0
-1206 -188 -548 0
-1206 -188 -489 0
-1206 -188 -513 0
-1206 -188 -537 0
-1206 -188 -495 0
-1206 -188 -519 0
-1206 -188 -543 0
-1206 -188 -501 0
-1206 -188 -525 0
-1206 -188 -549 0
-1206 -188 -490 0
-1206 -188 -514 0
-1206 -188 -538 0
-1206 -188 -496 0
-1206 -188 -520 0
-1206 -188 -544 0
-1206 -188 -502 0
-1206 -188 -526 0
-1206 -188 -550 0
-1206 -189 -494 0
-1206 -189 -518 0
-1206 -189 -542 0
-1206 -189 -500 0
-1206 -189 -524 0
-1206 -189 -548 0
-1206 -189 -495 0
-1206 -189 -519 0
-1206 -189 -543 0
-1206 -189 -501 0
-1206 -189 -525 0
-1206 -189 -549 0
-1206 -189 -496 0
-1206 -189 -520 0
-1206 -189 -544 0
-1206 -189 -502 0
-1206 -189 -526 0
-1206 -189 -550 0
-1206 -190 -500 0
-1206 -190 -524 0
-1206 -190 -548 0
-1206 -190 -501 0
-1206 -190 -525 0
-1206 -190 -549 0
-1206 -190 -502 0
-1206 -190 -526 0
-1206 -190 -550 0
-1206 -191 0
-1206 83 0
-1206 -188 209 0
-1206 -189 210 0
-1206 -190 211 0
-1206 -274 0
-1207 271 0
-1207 -63 -188 -193 0
-1207 -63 -189 -194 0
-1207 -63 -190 -195 0
-1207 57 58 59 0
-1207 -57 -188 1534 561 0
-1207 -57 -189 1534 567 0
-1207 -57 -190 1534 573 0
-1207 -58 -188 1534 561 0
-1207 -58 -189 1534 567 0
-1207 -58 -190 1534 573 0
-1207 -58 -188 1535 562 0
-1207 -58 -189 1535 568 0
-1207 -58 -190 1535 574 0
-1207 -59 -188 1535 562 0
-1207 -59 -189 1535 568 0
-1207 -59 -190 1535 574 0
-1207 -59 -188 1536 563 0
-1207 -59 -189 1536 569 0
-1207 -59 -190 1536 575 0
-1207 -188 -489 0
-1207 -188 -513 0
-1207 -188 -537 0
-1207 -188 -495 0
-1207 -188 -519 0
-1207 -188 -543 0
-1207 -188 -501 0
-1207 -188 -525 0
-1207 -188 -549 0
-1207 -188 -490 0
-1207 -188 -514 0
-1207 -188 -538 0
-1207 -188 -496 0
-1207 -188 -520 0
-1207 -188 -544 0
-1207 -188 -502 0
-1207 -188 -526 0
-1207 -188 -550 0
-1207 -188 -491 0
-1207 -188 -515 0
-1207 -188 -539 0
-1207 -188 -497 0
-1207 -188 -521 0
-1207 -188 -545 0
-1207 -188 -503 0
-1207 -188 -527 0
-1207 -188 -551 0
-1207 -189 -495 0
-1207 -189 -519 0
-1207 -189 -543 0
-1207 -189 -501 0
-1207 -189 -525 0
-1207 -189 -549 0
-1207 -189 -496 0
-1207 -189 -520 0
-1207 -189 -544 0
-1207 -189 -502 0
-1207 -189 -526 0
-1207 -189 -550 0
-1207 -189 -497 0
-1207 -189 -521 0
-1207 -189 -545 0
-1207 -189 -503 0
-1207 -189 -527 0
-1207 -189 -551 0
-1207 -190 -501 0
-1207 -190 -525 0
-1207 -190 -549 0
-1207 -190 -502 0
-1207 -190 -526 0
-1207 -190 -550 0
-1207 -190 -503 0
-1207 -190 -527 0
-1207 -190 -551 0
-1207 -191 0
-1207 84 0
-1207 -188 209 0
-1207 -189 210 0
-1207 -190 211 0
-1207 -274 0
-1208 271 0
-1208 -60 -192 0
-1208 -480 0
-1208 -504 0
-1208 -528 0
-1208 -486 0
-1208 -510 0
-1208 -534 0
-1208 -492 0
-1208 -516 0
-1208 -540 0
-1208 -498 0
-1208 -522 0
-1208 -546 0
-1208 -481 0
-1208 -505 0
-1208 -529 0
-1208 -487 0
-1208 -511 0
-1208 -535 0
-1208 -493 0
-1208 -517 0
-1208 -541 0
-1208 -499 0
-1208 -523 0
-1208 -547 0
-1208 -482 0
-1208 -506 0
-1208 -530 0
-1208 -488 0
-1208 -512 0
-1208 -536 0
-1208 -494 0
-1208 -518 0
-1208 -542 0
-1208 -500 0
-1208 -524 0
-1208 -548 0
-1208 81 0
-1208 208 0
-1209 271 0
-1209 -61 -192 0
-1209 -481 0
-1209 -505 0
-1209 -529 0
-1209 -487 0
-1209 -511 0
-1209 -535 0
-1209 -493 0
-1209 -517 0
-1209 -541 0
-1209 -499 0
-1209 -523 0
-1209 -547 0
-1209 -482 0
-1209 -506 0
-1209 -530 0
-1209 -488 0
-1209 -512 0
-1209 -536 0
-1209 -494 0
-1209 -518 0
-1209 -542 0
-1209 -500 0
-1209 -524 0
-1209 -548 0
-1209 -483 0
-1209 -507 0
-1209 -531 0
-1209 -489 0
-1209 -513 0
-1209 -537 0
-1209 -495 0
-1209 -519 0
-1209 -543 0
-1209 -501 0
-1209 -525 0
-1209 -549 0
-1209 82 0
-1209 208 0
-1210 271 0
-1210 -62 -192 0
-1210 -482 0
-1210 -506 0
-1210 -530 0
-1210 -488 0
-1210 -512 0
-1210 -536 0
-1210 -494 0
-1210 -518 0
-1210 -542 0
-1210 -500 0
-1210 -524 0
-1210 -548 0
-1210 -483 0
-1210 -507 0
-1210 -531 0
-1210 -489 0
-1210 -513 0
-1210 -537 0
-1210 -495 0
-1210 -519 0
-1210 -543 0
-1210 -501 0
-1210 -525 0
-1210 -549 0
-1210 -484 0
-1210 -508 0
-1210 -532 0
-1210 -490 0
-1210 -514 0
-1210 -538 0
-1210 -496 0
-1210 -520 0
-1210 -544 0
-1210 -502 0
-1210 -526 0
-1210 -550 0
-1210 83 0
-1210 208 0
-1211 271 0
-1211 -63 -192 0
-1211 -483 0
-1211 -507 0
-1211 -531 0
-1211 -489 0
-1211 -513 0
-1211 -537 0
-1211 -495 0
-1211 -519 0
-1211 -543 0
-1211 -501 0
-1211 -525 0
-1211 -549 0
-1211 -484 0
-1211 -508 0
-1211 -532 0
-1211 -490 0
-1211 -514 0
-1211 -538 0
-1211 -496 0
-1211 -520 0
-1211 -544 0
-1211 -502 0
-1211 -526 0
-1211 -550 0
-1211 -485 0
-1211 -509 0
-1211 -533 0
-1211 -491 0
-1211 -515 0
-1211 -539 0
-1211 -497 0
-1211 -521 0
-1211 -545 0
-1211 -503 0
-1211 -527 0
-1211 -551 0
-1211 84 0
-1211 208 0
43 -64 1128 1129 1130 1131 1132 1133 1134 1135 1136 1137 1138 1139 1140 1141 1142 1143 1144 1145 1146 1147 1148 1149 1150 1151 0
-43 64 1128 1129 1130 1131 1132 1133 1134 1135 1136 1137 1138 1139 1140 1141 1142 1143 1144 1145 1146 1147 1148 1149 1150 1151 0
44 -65 1128 1129 1130 1131 1132 1133 1134 1135 1136 1137 1138 1139 1140 1141 1142 1143 1144 1145 1146 1147 1148 1149 1150 1151 0
-44 65 1128 1129 1130 1131 1132 1133 1134 1135 1136 1137 1138 1139 1140 1141 1142 1143 1144 1145 1146 1147 1148 1149 1150 1151 0
45 -66 1128 1129 1130 1131 1132 1133 1134 1135 1136 1137 1138 1139 1140 1141 1142 1143 1144 1145 1146 1147 1148 1149 1150 1151 0
-45 66 1128 1129 1130 1131 1132 1133 1134 1135 1136 1137 1138 1139 1140 1141 1142 1143 1144 1145 1146 1147 1148 1149 1150 1151 0
46 -67 1128 1129 1130 1131 1132 1133 1134 1135 1136 1137 1138 1139 1140 1141 1142 1143 1144 1145 1146 1147 1148 1149 1150 1151 0
-46 67 1128 1129 1130 1131 1132 1133 1134 1135 1136 1137 1138 1139 1140 1141 1142 1143 1144 1145 1146 1147 1148 1149 1150 1151 0
47 -68 1128 1129 1130 1131 1132 1133 1134 1135 1136 1137 1138 1139 1140 1141 1142 1143 1144 1145 1146 1147 1148 1149 1150 1151 0
-47 68 1128 1129 1130 1131 1132 1133 1134 1135 1136 1137 1138 1139 1140 1141 1142 1143 1144 1145 1146 1147 1148 1149 1150 1151 0
48 -69 1128 1129 1130 1131 1132 1133 1134 1135 1136 1137 1138 1139 1140 1141 1142 1143 1144 1145 1146 1147 1148 1149 1150 1151 0
-48 69 1128 1129 1130 1131 1132 1133 1134 1135 1136 1137 1138 1139 1140 1141 1142 1143 1144 1145 1146 1147 1148 1149 1150 1151 0
180 -196 1128 1129 1130 1131 1132 1133 1134 1135 1136 1137 1138 1139 1140 1141 1142 1143 1144 1145 1146 1147 1148 1149 1150 1151 0
-180 196 1128 1129 1130 1131 1132 1133 1134 1135 1136 1137 1138 1139 1140 1141 1142 1143 1144 1145 1146 1147 1148 1149 1150 1151 0
181 -197 1128 1129 1130 1131 1132 1133 1134 1135 1136 1137 1138 1139 1140 1141 1142 1143 1144 1145 1146 1147 1148 1149 1150 1151 0
-181 197 1128 1129 1130 1131 1132 1133 1134 1135 1136 1137 1138 1139 1140 1141 1142 1143 1144 1145 1146 1147 1148 1149 1150 1151 0
182 -198 1128 1129 1130 1131 1132 1133 1134 1135 1136 1137 1138 1139 1140 1141 1142 1143 1144 1145 1146 1147 1148 1149 1150 1151 0
-182 198 1128 1129 1130 1131 1132 1133 1134 1135 1136 1137 1138 1139 1140 1141 1142 1143 1144 1145 1146 1147 1148 1149 1150 1151 0
183 -199 1128 1129 1130 1131 1132 1133 1134 1135 1136 1137 1138 1139 1140 1141 1142 1143 1144 1145 1146 1147 1148 1149 1150 1151 0
-183 199 1128 1129 1130 1131 1132 1133 1134 1135 1136 1137 1138 1139 1140 1141 1142 1143 1144 1145 1146 1147 1148 1149 1150 1151 0
49 -70 1152 1153 1154 1155 1156 1157 1158 1159 1160 1161 1162 1163 1164 1165 1166 1167 1168 1169 1170 1171 1172 1173 1174 1175 0
-49 70 1152 1153 1154 1155 1156 1157 1158 1159 1160 1161 1162 1163 1164 1165 1166 1167 1168 1169 1170 1171 1172 1173 1174 1175 0
50 -71 1152 1153 1154 1155 1156 1157 1158 1159 1160 1161 1162 1163 1164 1165 1166 1167 1168 1169 1170 1171 1172 1173 1174 1175 0
-50 71 1152 1153 1154 1155 1156 1157 1158 1159 1160 1161 1162 1163 1164 1165 1166 1167 1168 1169 1170 1171 1172 1173 1174 1175 0
51 -72 1152 1153 1154 1155 1156 1157 1158 1159 1160 1161 1162 1163 1164 1165 1166 1167 1168 1169 1170 1171 1172 1173 1174 1175 0
-51 72 1152 1153 1154 1155 1156 1157 1158 1159 1160 1161 1162 1163 1164 1165 1166 1167 1168 1169 1170 1171 1172 1173 1174 1175 0
52 -73 1152 1153 1154 1155 1156 1157 1158 1159 1160 1161 1162 1163 1164 1165 1166 1167 1168 1169 1170 1171 1172 1173 1174 1175 0
-52 73 1152 1153 1154 1155 1156 1157 1158 1159 1160 1161 1162 1163 1164 1165 1166 1167 1168 1169 1170 1171 1172 1173 1174 1175 0
53 -74 1152 1153 1154 1155 1156 1157 1158 1159 1160 1161 1162 1163 1164 1165 1166 1167 1168 1169 1170 1171 1172 1173 1174 1175 0
-53 74 1152 1153 1154 1155 1156 1157 1158 1159 1160 1161 1162 1163 1164 1165 1166 1167 1168 1169 1170 1171 1172 1173 1174 1175 0
54 -75 1152 1153 1154 1155 1156 1157 1158 1159 1160 1161 1162 1163 1164 1165 1166 1167 1168 1169 1170 1171 1172 1173 1174 1175 0
-54 75 1152 1153 1154 1155 1156 1157 1158 1159 1160 1161 1162 1163 1164 1165 1166 1167 1168 1169 1170 1171 1172 1173 1174 1175 0
184 -200 1152 1153 1154 1155 1156 1157 1158 1159 1160 1161 1162 1163 1164 1165 1166 1167 1168 1169 1170 1171 1172 1173 1174 1175 0
-184 200 1152 1153 1154 1155 1156 1157 1158 1159 1160 1161 1162 1163 1164 1165 1166 1167 1168 1169 1170 1171 1172 1173 1174 1175 0
185 -201 1152 1153 1154 1155 1156 1157 1158 1159 1160 1161 1162 1163 1164 1165 1166 1167 1168 1169 1170 1171 1172 1173 1174 1175 0
-185 201 1152 1153 1154 1155 1156 1157 1158 1159 1160 1161 1162 1163 1164 1165 1166 1167 1168 1169 1170 1171 1172 1173 1174 1175 0
186 -202 1152 1153 1154 1155 1156 1157 1158 1159 1160 1161 1162 1163 1164 1165 1166 1167 1168 1169 1170 1171 1172 1173 1174 1175 0
-186 202 1152 1153 1154 1155 1156 1157 1158 1159 1160 1161 1162 1163 1164 1165 1166 1167 1168 1169 1170 1171 1172 1173 1174 1175 0
187 -203 1152 1153 1154 1155 1156 1157 1158 1159 1160 1161 1162 1163 1164 1165 1166 1167 1168 1169 1170 1171 1172 1173 1174 1175 0
-187 203 1152 1153 1154 1155 1156 1157 1158 1159 1160 1161 1162 1163 1164 1165 1166 1167 1168 1169 1170 1171 1172 1173 1174 1175 0
55 -76 1176 1177 1178 1179 1180 1181 1182 1183 1184 1185 1186 1187 1188 1189 1190 1191 1192 1193 1194 1195 0
-55 76 1176 1177 1178 1179 1180 1181 1182 1183 1184 1185 1186 1187 1188 1189 1190 1191 1192 1193 1194 1195 0
56 -77 1176 1177 1178 1179 1180 1181 1182 1183 1184 1185 1186 1187 1188 1189 1190 1191 1192 1193 1194 1195 0
-56 77 1176 1177 1178 1179 1180 1181 1182 1183 1184 1185 1186 1187 1188 1189 1190 1191 1192 1193 1194 1195 0
57 -78 1176 1177 1178 1179 1180 1181 1182 1183 1184 1185 1186 1187 1188 1189 1190 1191 1192 1193 1194 1195 0
-57 78 1176 1177 1178 1179 1180 1181 1182 1183 1184 1185 1186 1187 1188 1189 1190 1191 1192 1193 1194 1195 0
58 -79 1176 1177 1178 1179 1180 1181 1182 1183 1184 1185 1186 1187 1188 1189 1190 1191 1192 1193 1194 1195 0
-58 79 1176 1177 1178 1179 1180 1181 1182 1183 1184 1185 1186 1187 1188 1189 1190 1191 1192 1193 1194 1195 0
59 -80 1176 1177 1178 1179 1180 1181 1182 1183 1184 1185 1186 1187 1188 1189 1190 1191 1192 1193 1194 1195 0
-59 80 1176 1177 1178 1179 1180 1181 1182 1183 1184 1185 1186 1187 1188 1189 1190 1191 1192 1193 1194 1195 0
188 -204 1176 1177 1178 1179 1180 1181 1182 1183 1184 1185 1186 1187 1188 1189 1190 1191 1192 1193 1194 1195 0
-188 204 1176 1177 1178 1179 1180 1181 1182 1183 1184 1185 1186 1187 1188 1189 1190 1191 1192 1193 1194 1195 0
189 -205 1176 1177 1178 1179 1180 1181 1182 1183 1184 1185 1186 1187 1188 1189 1190 1191 1192 1193 1194 1195 0
-189 205 1176 1177 1178 1179 1180 1181 1182 1183 1184 1185 1186 1187 1188 1189 1190 1191 1192 1193 1194 1195 0
190 -206 1176 1177 1178 1179 1180 1181 1182 1183 1184 1185 1186 1187 1188 1189 1190 1191 1192 1193 1194 1195 0
-190 206 1176 1177 1178 1179 1180 1181 1182 1183 1184 1185 1186 1187 1188 1189 1190 1191 1192 1193 1194 1195 0
191 -207 1176 1177 1178 1179 1180 1181 1182 1183 1184 1185 1186 1187 1188 1189 1190 1191 1192 1193 1194 1195 0
-191 207 1176 1177 1178 1179 1180 1181 1182 1183 1184 1185 1186 1187 1188 1189 1190 1191 1192 1193 1194 1195 0
60 -81 1196 1197 1198 1199 1200 1201 1202 1203 1204 1205 1206 1207 1208 1209 1210 1211 0
-60 81 1196 1197 1198 1199 1200 1201 1202 1203 1204 1205 1206 1207 1208 1209 1210 1211 0
61 -82 1196 1197 1198 1199 1200 1201 1202 1203 1204 1205 1206 1207 1208 1209 1210 1211 0
-61 82 1196 1197 1198 1199 1200 1201 1202 1203 1204 1205 1206 1207 1208 1209 1210 1211 0
62 -83 1196 1197 1198 1199 1200 1201 1202 1203 1204 1205 1206 1207 1208 1209 1210 1211 0
-62 83 1196 1197 1198 1199 1200 1201 1202 1203 1204 1205 1206 1207 1208 1209 1210 1211 0
63 -84 1196 1197 1198 1199 1200 1201 1202 1203 1204 1205 1206 1207 1208 1209 1210 1211 0
-63 84 1196 1197 1198 1199 1200 1201 1202 1203 1204 1205 1206 1207 1208 1209 1210 1211 0
192 -208 1196 1197 1198 1199 1200 1201 1202 1203 1204 1205 1206 1207 1208 1209 1210 1211 0
-192 208 1196 1197 1198 1199 1200 1201 1202 1203 1204 1205 1206 1207 1208 1209 1210 1211 0
193 -209 1196 1197 1198 1199 1200 1201 1202 1203 1204 1205 1206 1207 1208 1209 1210 1211 0
-193 209 1196 1197 1198 1199 1200 1201 1202 1203 1204 1205 1206 1207 1208 1209 1210 1211 0
194 -210 1196 1197 1198 1199 1200 1201 1202 1203 1204 1205 1206 1207 1208 1209 1210 1211 0
-194 210 1196 1197 1198 1199 1200 1201 1202 1203 1204 1205 1206 1207 1208 1209 1210 1211 0
195 -211 1196 1197 1198 1199 1200 1201 1202 1203 1204 1205 1206 1207 1208 1209 1210 1211 0
-195 211 1196 1197 1198 1199 1200 1201 1202 1203 1204 1205 1206 1207 1208 1209 1210 1211 0
1128 1129 1130 1131 1132 1133 1134 1135 1136 1137 1138 1139 1140 1141 1142 1143 1144 1145 1146 1147 1148 1149 1150 1151 1152 1153 1154 1155 1156 1157 1158 1159 1160 1161 1162 1163 1164 1165 1166 1167 1168 1169 1170 1171 1172 1173 1174 1175 1176 1177 1178 1179 1180 1181 1182 1183 1184 1185 1186 1187 1188 1189 1190 1191 1192 1193 1194 1195 1196 1197 1198 1199 1200 1201 1202 1203 1204 1205 1206 1207 1208 1209 1210 1211 0
-1128 -1129 0
-1128 -1130 0
-1128 -1131 0
-1128 -1132 0
-1128 -1133 0
-1128 -1134 0
-1128 -1135 0
-1128 -1136 0
-1128 -1137 0
-1128 -1138 0
-1128 -1139 0
-1128 -1140 0
-1128 -1141 0
-1128 -1142 0
-1128 -1143 0
-1128 -1144 0
-1128 -1145 0
-1128 -1146 0
-1128 -1147 0
-1128 -1148 0
-1128 -1149 0
-1128 -1150 0
-1128 -1151 0
-1128 -1152 0
-1128 -1153 0
-1128 -1154 0
-1128 -1155 0
-1128 -1156 0
-1128 -1157 0
-1128 -1158 0
-1128 -1159 0
-1128 -1160 0
-1128 -1161 0
-1128 -1162 0
-1128 -1163 0
-1128 -1164 0
-1128 -1165 0
-1128 -1166 0
-1128 -1167 0
-1128 -1168 0
-1128 -1169 0
-1128 -1170 0
-1128 -1171 0
-1128 -1172 0
-1128 -1173 0
-1128 -1174 0
-1128 -1175 0
-1128 -1176 0
-1128 -1177 0
-1128 -1178 0
-1128 -1179 0
-1128 -1180 0
-1128 -1181 0
-1128 -1182 0
-1128 -1183 0
-1128 -1184 0
-1128 -1185 0
-1128 -1186 0
-1128 -1187 0
-1128 -1188 0
-1128 -1189 0
-1128 -1190 0
-1128 -1191 0
-1128 -1192 0
-1128 -1193 0
-1128 -1194 0
-1128 -1195 0
-1128 -1196 0
-1128 -1197 0
-1128 -1198 0
-1128 -1199 0
-1128 -1200 0
-1128 -1201 0
-1128 -1202 0
-1128 -1203 0
-1128 -1204 0
-1128 -1205 0
-1128 -1206 0
-1128 -1207 0
-1128 -1208 0
-1128 -1209 0
-1128 -1210 0
-1128 -1211 0
-1129 -1130 0
-1129 -1131 0
-1129 -1132 0
-1129 -1133 0
-1129 -1134 0
-1129 -1135 0
-1129 -1136 0
-1129 -1137 0
-1129 -1138 0
-1129 -1139 0
-1129 -1140 0
-1129 -1141 0
-1129 -1142 0
-1129 -1143 0
-1129 -1144 0
-1129 -1145 0
-1129 -1146 0
-1129 -1147 0
-1129 -1148 0
-1129 -1149 0
-1129 -1150 0
-1129 -1151 0
-1129 -1152 0
-1129 -1153 0
-1129 -1154 0
-1129 -1155 0
-1129 -1156 0
-1129 -1157 0
-1129 -1158 0
-1129 -1159 0
-1129 -1160 0
-1129 -1161 0
-1129 -1162 0
-1129 -1163 0
-1129 -1164 0
-1129 -1165 0
-1129 -1166 0
-1129 -1167 0
-1129 -1168 0
-1129 -1169 0
-1129 -1170 0
-1129 -1171 0
-1129 -1172 0
-1129 -1173 0
-1129 -1174 0
-1129 -1175 0
-1129 -1176 0
-1129 -1177 0
-1129 -1178 0
-1129 -1179 0
-1129 -1180 0
-1129 -1181 0
-1129 -1182 0
-1129 -1183 0
-1129 -1184 0
-1129 -1185 0
-1129 -1186 0
-1129 -1187 0
-1129 -1188 0
-1129 -1189 0
-1129 -1190 0
-1129 -1191 0
-1129 -1192 0
-1129 -1193 0
-1129 -1194 0
-1129 -1195 0
-1129 -1196 0
-1129 -1197 0
-1129 -1198 0
-1129 -1199 0
-1129 -1200 0
-1129 -1201 0
-1129 -1202 0
-1129 -1203 0
-1129 -1204 0
-1129 -1205 0
-1129 -1206 0
-1129 -1207 0
-1129 -1208 0
-1129 -1209 0
-1129 -1210 0
-1129 -1211 0
-1130 -1131 0
-1130 -1132 0
-1130 -1133 0
-1130 -1134 0
-1130 -1135 0
-1130 -1136 0
-1130 -1137 0
-1130 -1138 0
-1130 -1139 0
-1130 -1140 0
-1130 -1141 0
-1130 -1142 0
-1130 -1143 0
-1130 -1144 0
-1130 -1145 0
-1130 -1146 0
-1130 -1147 0
-1130 -1148 0
-1130 -1149 0
-1130 -1150 0
-1130 -1151 0
-1130 -1152 0
-1130 -1153 0
-1130 -1154 0
-1130 -1155 0
-1130 -1156 0
-1130 -1157 0
-1130 -1158 0
-1130 -1159 0
-1130 -1160 0
-1130 -1161 0
-1130 -1162 0
-1130 -1163 0
-1130 -1164 0
-1130 -1165 0
-1130 -1166 0
-1130 -1167 0
-1130 -1168 0
-1130 -1169 0
-1130 -1170 0
-1130 -1171 0
-1130 -1172 0
-1130 -1173 0
-1130 -1174 0
-1130 -1175 0
-1130 -1176 0
-1130 -1177 0
-1130 -1178 0
-1130 -1179 0
-1130 -1180 0
-1130 -1181 0
-1130 -1182 0
-1130 -1183 0
-1130 -1184 0
-1130 -1185 0
-1130 -1186 0
-1130 -1187 0
-1130 -1188 0
-1130 -1189 0
-1130 -1190 0
-1130 -1191 0
-1130 -1192 0
-1130 -1193 0
-1130 -1194 0
-1130 -1195 0
-1130 -1196 0
-1130 -1197 0
-1130 -1198 0
-1130 -1199 0
-1130 -1200 0
-1130 -1201 0
-1130 -1202 0
-1130 -1203 0
-1130 -1204 0
-1130 -1205 0
-1130 -1206 0
-1130 -1207 0
-1130 -1208 0
-1130 -1209 0
-1130 -1210 0
-1130 -1211 0
-1131 -1132 0
-1131 -1133 0
-1131 -1134 0
-1131 -1135 0
-1131 -1136 0
-1131 -1137 0
-1131 -1138 0
-1131 -1139 0
-1131 -1140 0
-1131 -1141 0
-1131 -1142 0
-1131 -1143 0
-1131 -1144 0
-1131 -1145 0
-1131 -1146 0
-1131 -1147 0
-1131 -1148 0
-1131 -1149 0
-1131 -1150 0
-1131 -1151 0
-1131 -1152 0
-1131 -1153 0
-1131 -1154 0
-1131 -1155 0
-1131 -1156 0
-1131 -1157 0
-1131 -1158 0
-1131 -1159 0
-1131 -1160 0
-1131 -1161 0
-1131 -1162 0
-1131 -1163 0
-1131 -1164 0
-1131 -1165 0
-1131 -1166 0
-1131 -1167 0
-1131 -1168 0
-1131 -1169 0
-1131 -1170 0
-1131 -1171 0
-1131 -1172 0
-1131 -1173 0
-1131 -1174 0
-1131 -1175 0
-1131 -1176 0
-1131 -1177 0
-1131 -1178 0
-1131 -1179 0
-1131 -1180 0
-1131 -1181 0
-1131 -1182 0
-1131 -1183 0
-1131 -1184 0
-1131 -1185 0
-1131 -1186 0
-1131 -1187 0
-1131 -1188 0
-1131 -1189 0
-1131 -1190 0
-1131 -1191 0
-1131 -1192 0
-1131 -1193 0
-1131 -1194 0
-1131 -1195 0
-1131 -1196 0
-1131 -1197 0
-1131 -1198 0
-1131 -1199 0
-1131 -1200 0
-1131 -1201 0
-1131 -1202 0
-1131 -1203 0
-1131 -1204 0
-1131 -1205 0
-1131 -1206 0
-1131 -1207 0
-1131 -1208 0
-1131 -1209 0
-1131 -1210 0
-1131 -1211 0
-1132 -1133 0
-1132 -1134 0
-1132 -1135 0
-1132 -1136 0
-1132 -1137 0
-1132 -1138 0
-1132 -1139 0
-1132 -1140 0
-1132 -1141 0
-1132 -1142 0
-1132 -1143 0
-1132 -1144 0
-1132 -1145 0
-1132 -1146 0
-1132 -1147 0
-1132 -1148 0
-1132 -1149 0
-1132 -1150 0
-1132 -1151 0
-1132 -1152 0
-1132 -1153 0
-1132 -1154 0
-1132 -1155 0
-1132 -1156 0
-1132 -1157 0
-1132 -1158 0
-1132 -1159 0
-1132 -1160 0
-1132 -1161 0
-1132 -1162 0
-1132 -1163 0
-1132 -1164 0
-1132 -1165 0
-1132 -1166 0
-1132 -1167 0
-1132 -1168 0
-1132 -1169 0
-1132 -1170 0
-1132 -1171 0
-1132 -1172 0
-1132 -1173 0
-1132 -1174 0
-1132 -1175 0
-1132 -1176 0
-1132 -1177 0
-1132 -1178 0
-1132 -1179 0
-1132 -1180 0
-1132 -1181 0
-1132 -1182 0
-1132 -1183 0
-1132 -1184 0
-1132 -1185 0
-1132 -1186 0
-1132 -1187 0
-1132 -1188 0
-1132 -1189 0
-1132 -1190 0
-1132 -1191 0
-1132 -1192 0
-1132 -1193 0
-1132 -1194 0
-1132 -1195 0
-1132 -1196 0
-1132 -1197 0
-1132 -1198 0
-1132 -1199 0
-1132 -1200 0
-1132 -1201 0
-1132 -1202 0
-1132 -1203 0
-1132 -1204 0
-1132 -1205 0
-1132 -1206 0
-1132 -1207 0
-1132 -1208 0
-1132 -1209 0
-1132 -1210 0
-1132 -1211 0
-1133 -1134 0
-1133 -1135 0
-1133 -1136 0
-1133 -1137 0
-1133 -1138 0
-1133 -1139 0
-1133 -1140 0
-1133 -1141 0
-1133 -1142 0
-1133 -1143 0
-1133 -1144 0
-1133 -1145 0
-1133 -1146 0
-1133 -1147 0
-1133 -1148 0
-1133 -1149 0
-1133 -1150 0
-1133 -1151 0
-1133 -1152 0
-1133 -1153 0
-1133 -1154 0
-1133 -1155 0
-1133 -1156 0
-1133 -1157 0
-1133 -1158 0
-1133 -1159 0
-1133 -1160 0
-1133 -1161 0
-1133 -1162 0
-1133 -1163 0
-1133 -1164 0
-1133 -1165 0
-1133 -1166 0
-1133 -1167 0
-1133 -1168 0
-1133 -1169 0
-1133 -1170 0
-1133 -1171 0
-1133 -1172 0
-1133 -1173 0
-1133 -1174 0
-1133 -1175 0
-1133 -1176 0
-1133 -1177 0
-1133 -1178 0
-1133 -1179 0
-1133 -1180 0
-1133 -1181 0
-1133 -1182 0
-1133 -1183 0
-1133 -1184 0
-1133 -1185 0
-1133 -1186 0
-1133 -1187 0
-1133 -1188 0
-1133 -1189 0
-1133 -1190 0
-1133 -1191 0
-1133 -1192 0
-1133 -1193 0
-1133 -1194 0
-1133 -1195 0
-1133 -1196 0
-1133 -1197 0
-1133 -1198 0
-1133 -1199 0
-1133 -1200 0
-1133 -1201 0
-1133 -1202 0
-1133 -1203 0
-1133 -1204 0
-1133 -1205 0
-1133 -1206 0
-1133 -1207 0
-1133 -1208 0
-1133 -1209 0
-1133 -1210 0
-1133 -1211 0
-1134 -1135 0
-1134 -1136 0
-1134 -1137 0
-1134 -1138 0
-1134 -1139 0
-1134 -1140 0
-1134 -1141 0
-1134 -1142 0
-1134 -1143 0
-1134 -1144 0
-1134 -1145 0
-1134 -1146 0
-1134 -1147 0
-1134 -1148 0
-1134 -1149 0
-1134 -1150 0
-1134 -1151 0
-1134 -1152 0
-1134 -1153 0
-1134 -1154 0
-1134 -1155 0
-1134 -1156 0
-1134 -1157 0
-1134 -1158 0
-1134 -1159 0
-1134 -1160 0
-1134 -1161 0
-1134 -1162 0
-1134 -1163 0
-1134 -1164 0
-1134 -1165 0
-1134 -1166 0
-1134 -1167 0
-1134 -1168 0
-1134 -1169 0
-1134 -1170 0
-1134 -1171 0
-1134 -1172 0
-1134 -1173 0
-1134 -1174 0
-1134 -1175 0
-1134 -1176 0
-1134 -1177 0
-1134 -1178 0
-1134 -1179 0
-1134 -1180 0
-1134 -1181 0
-1134 -1182 0
-1134 -1183 0
-1134 -1184 0
-1134 -1185 0
-1134 -1186 0
-1134 -1187 0
-1134 -1188 0
-1134 -1189 0
-1134 -1190 0
-1134 -1191 0
-1134 -1192 0
-1134 -1193 0
-1134 -1194 0
-1134 -1195 0
-1134 -1196 0
-1134 -1197 0
-1134 -1198 0
-1134 -1199 0
-1134 -1200 0
-1134 -1201 0
-1134 -1202 0
-1134 -1203 0
-1134 -1204 0
-1134 -1205 0
-1134 -1206 0
-1134 -1207 0
-1134 -1208 0
-1134 -1209 0
-1134 -1210 0
-1134 -1211 0
-1135 -1136 0
-1135 -1137 0
-1135 -1138 0
-1135 -1139 0
-1135 -1140 0
-1135 -1141 0
-1135 -1142 0
-1135 -1143 0
-1135 -1144 0
-1135 -1145 0
-1135 -1146 0
-1135 -1147 0
-1135 -1148 0
-1135 -1149 0
-1135 -1150 0
-1135 -1151 0
-1135 -1152 0
-1135 -1153 0
-1135 -1154 0
-1135 -1155 0
-1135 -1156 0
-1135 -1157 0
-1135 -1158 0
-1135 -1159 0
-1135 -1160 0
-1135 -1161 0
-1135 -1162 0
-1135 -1163 0
-1135 -1164 0
-1135 -1165 0
-1135 -1166 0
-1135 -1167 0
-1135 -1168 0
-1135 -1169 0
-1135 -1170 0
-1135 -1171 0
-1135 -1172 0
-1135 -1173 0
-1135 -1174 0
-1135 -1175 0
-1135 -1176 0
-1135 -1177 0
-1135 -1178 0
-1135 -1179 0
-1135 -1180 0
-1135 -1181 0
-1135 -1182 0
-1135 -1183 0
-1135 -1184 0
-1135 -1185 0
-1135 -1186 0
-1135 -1187 0
-1135 -1188 0
-1135 -1189 0
-1135 -1190 0
-1135 -1191 0
-1135 -1192 0
-1135 -1193 0
-1135 -1194 0
-1135 -1195 0
-1135 -1196 0
-1135 -1197 0
-1135 -1198 0
-1135 -1199 0
-1135 -1200 0
-1135 -1201 0
-1135 -1202 0
-1135 -1203 0
-1135 -1204 0
-1135 -1205 0
-1135 -1206 0
-1135 -1207 0
-1135 -1208 0
-1135 -1209 0
-1135 -1210 0
-1135 -1211 0
-1136 -1137 0
-1136 -1138 0
-1136 -1139 0
-1136 -1140 0
-1136 -1141 0
-1136 -1142 0
-1136 -1143 0
-1136 -1144 0
-1136 -1145 0
-1136 -1146 0
-1136 -1147 0
-1136 -1148 0
-1136 -1149 0
-1136 -1150 0
-1136 -1151 0
-1136 -1152 0
-1136 -1153 0
-1136 -1154 0
-1136 -1155 0
-1136 -1156 0
-1136 -1157 0
-1136 -1158 0
-1136 -1159 0
-1136 -1160 0
-1136 -1161 0
-1136 -1162 0
-1136 -1163 0
-1136 -1164 0
-1136 -1165 0
-1136 -1166 0
-1136 -1167 0
-1136 -1168 0
-1136 -1169 0
-1136 -1170 0
-1136 -1171 0
-1136 -1172 0
-1136 -1173 0
-1136 -1174 0
-1136 -1175 0
-1136 -1176 0
-1136 -1177 0
-1136 -1178 0
-1136 -1179 0
-1136 -1180 0
-1136 -1181 0
-1136 -1182 0
-1136 -1183 0
-1136 -1184 0
-1136 -1185 0
-1136 -1186 0
-1136 -1187 0
-1136 -1188 0
-1136 -1189 0
-1136 -1190 0
-1136 -1191 0
-1136 -1192 0
-1136 -1193 0
-1136 -1194 0
-1136 -1195 0
-1136 -1196 0
-1136 -1197 0
-1136 -1198 0
-1136 -1199 0
-1136 -1200 0
-1136 -1201 0
-1136 -1202 0
-1136 -1203 0
-1136 -1204 0
-1136 -1205 0
-1136 -1206 0
-1136 -1207 0
-1136 -1208 0
-1136 -1209 0
-1136 -1210 0
-1136 -1211 0
-1137 -1138 0
-1137 -1139 0
-1137 -1140 0
-1137 -1141 0
-1137 -1142 0
-1137 -1143 0
-1137 -1144 0
-1137 -1145 0
-1137 -1146 0
-1137 -1147 0
-1137 -1148 0
-1137 -1149 0
-1137 -1150 0
-1137 -1151 0
-1137 -1152 0
-1137 -1153 0
-1137 -1154 0
-1137 -1155 0
-1137 -1156 0
-1137 -1157 0
-1137 -1158 0
-1137 -1159 0
-1137 -1160 0
-1137 -1161 0
-1137 -1162 0
-1137 -1163 0
-1137 -1164 0
-1137 -1165 0
-1137 -1166 0
-1137 -1167 0
-1137 -1168 0
-1137 -1169 0
-1137 -1170 0
-1137 -1171 0
-1137 -1172 0
-1137 -1173 0
-1137 -1174 0
-1137 -1175 0
-1137 -1176 0
-1137 -1177 0
-1137 -1178 0
-1137 -1179 0
-1137 -1180 0
-1137 -1181 0
-1137 -1182 0
-1137 -1183 0
-1137 -1184 0
-1137 -1185 0
-1137 -1186 0
-1137 -1187 0
-1137 -1188 0
-1137 -1189 0
-1137 -1190 0
-1137 -1191 0
-1137 -1192 0
-1137 -1193 0
-1137 -1194 0
-1137 -1195 0
-1137 -1196 0
-1137 -1197 0
-1137 -1198 0
-1137 -1199 0
-1137 -1200 0
-1137 -1201 0
-1137 -1202 0
-1137 -1203 0
-1137 -1204 0
-1137 -1205 0
-1137 -1206 0
-1137 -1207 0
-1137 -1208 0
-1137 -1209 0
-1137 -1210 0
-1137 -1211 0
-1138 -1139 0
-1138 -1140 0
-1138 -1141 0
-1138 -1142 0
-1138 -1143 0
-1138 -1144 0
-1138 -1145 0
-1138 -1146 0
-1138 -1147 0
-1138 -1148 0
-1138 -1149 0
-1138 -1150 0
-1138 -1151 0
-1138 -1152 0
-1138 -1153 0
-1138 -1154 0
-1138 -1155 0
-1138 -1156 0
-1138 -1157 0
-1138 -1158 0
-1138 -1159 0
-1138 -1160 0
-1138 -1161 0
-1138 -1162 0
-1138 -1163 0
-1138 -1164 0
-1138 -1165 0
-1138 -1166 0
-1138 -1167 0
-1138 -1168 0
-1138 -1169 0
-1138 -1170 0
-1138 -1171 0
-1138 -1172 0
-1138 -1173 0
-1138 -1174 0
-1138 -1175 0
-1138 -1176 0
-1138 -1177 0
-1138 -1178 0
-1138 -1179 0
-1138 -1180 0
-1138 -1181 0
-1138 -1182 0
-1138 -1183 0
-1138 -1184 0
-1138 -1185 0
-1138 -1186 0
-1138 -1187 0
-1138 -1188 0
-1138 -1189 0
-1138 -1190 0
-1138 -1191 0
-1138 -1192 0
-1138 -1193 0
-1138 -1194 0
-1138 -1195 0
-1138 -1196 0
-1138 -1197 0
-1138 -1198 0
-1138 -1199 0
-1138 -1200 0
-1138 -1201 0
-1138 -1202 0
-1138 -1203 0
-1138 -1204 0
-1138 -1205 0
-1138 -1206 0
-1138 -1207 0
-1138 -1208 0
-1138 -1209 0
-1138 -1210 0
-1138 -1211 0
-1139 -1140 0
-1139 -1141 0
-1139 -1142 0
-1139 -1143 0
-1139 -1144 0
-1139 -1145 0
-1139 -1146 0
-1139 -1147 0
-1139 -1148 0
-1139 -1149 0
-1139 -1150 0
-1139 -1151 0
-1139 -1152 0
-1139 -1153 0
-1139 -1154 0
-1139 -1155 0
-1139 -1156 0
-1139 -1157 0
-1139 -1158 0
-1139 -1159 0
-1139 -1160 0
-1139 -1161 0
-1139 -1162 0
-1139 -1163 0
-1139 -1164 0
-1139 -1165 0
-1139 -1166 0
-1139 -1167 0
-1139 -1168 0
-1139 -1169 0
-1139 -1170 0
-1139 -1171 0
-1139 -1172 0
-1139 -1173 0
-1139 -1174 0
-1139 -1175 0
-1139 -1176 0
-1139 -1177 0
-1139 -1178 0
-1139 -1179 0
-1139 -1180 0
-1139 -1181 0
-1139 -1182 0
-1139 -1183 0
-1139 -1184 0
-1139 -1185 0
-1139 -1186 0
-1139 -1187 0
-1139 -1188 0
-1139 -1189 0
-1139 -1190 0
-1139 -1191 0
-1139 -1192 0
-1139 -1193 0
-1139 -1194 0
-1139 -1195 0
-1139 -1196 0
-1139 -1197 0
-1139 -1198 0
-1139 -1199 0
-1139 -1200 0
-1139 -1201 0
-1139 -1202 0
-1139 -1203 0
-1139 -1204 0
-1139 -1205 0
-1139 -1206 0
-1139 -1207 0
-1139 -1208 0
-1139 -1209 0
-1139 -1210 0
-1139 -1211 0
-1140 -1141 0
-1140 -1142 0
-1140 -1143 0
-1140 -1144 0
-1140 -1145 0
-1140 -1146 0
-1140 -1147 0
-1140 -1148 0
-1140 -1149 0
-1140 -1150 0
-1140 -1151 0
-1140 -1152 0
-1140 -1153 0
-1140 -1154 0
-1140 -1155 0
-1140 -1156 0
-1140 -1157 0
-1140 -1158 0
-1140 -1159 0
-1140 -1160 0
-1140 -1161 0
-1140 -1162 0
-1140 -1163 0
-1140 -1164 0
-1140 -1165 0
-1140 -1166 0
-1140 -1167 0
-1140 -1168 0
-1140 -1169 0
-1140 -1170 0
-1140 -1171 0
-1140 -1172 0
-1140 -1173 0
-1140 -1174 0
-1140 -1175 0
-1140 -1176 0
-1140 -1177 0
-1140 -1178 0
-1140 -1179 0
-1140 -1180 0
-1140 -1181 0
-1140 -1182 0
-1140 -1183 0
-1140 -1184 0
-1140 -1185 0
-1140 -1186 0
-1140 -1187 0
-1140 -1188 0
-1140 -1189 0
-1140 -1190 0
-1140 -1191 0
-1140 -1192 0
-1140 -1193 0
-1140 -1194 0
-1140 -1195 0
-1140 -1196 0
-1140 -1197 0
-1140 -1198 0
-1140 -1199 0
-1140 -1200 0
-1140 -1201 0
-1140 -1202 0
-1140 -1203 0
-1140 -1204 0
-1140 -1205 0
-1140 -1206 0
-1140 -1207 0
-1140 -1208 0
-1140 -1209 0
-1140 -1210 0
-1140 -1211 0
-1141 -1142 0
-1141 -1143 0
-1141 -1144 0
-1141 -1145 0
-1141 -1146 0
-1141 -1147 0
-1141 -1148 0
-1141 -1149 0
-1141 -1150 0
-1141 -1151 0
-1141 -1152 0
-1141 -1153 0
-1141 -1154 0
-1141 -1155 0
-1141 -1156 0
-1141 -1157 0
-1141 -1158 0
-1141 -1159 0
-1141 -1160 0
-1141 -1161 0
-1141 -1162 0
-1141 -1163 0
-1141 -1164 0
-1141 -1165 0
-1141 -1166 0
-1141 -1167 0
-1141 -1168 0
-1141 -1169 0
-1141 -1170 0
-1141 -1171 0
-1141 -1172 0
-1141 -1173 0
-1141 -1174 0
-1141 -1175 0
-1141 -1176 0
-1141 -1177 0
-1141 -1178 0
-1141 -1179 0
-1141 -1180 0
-1141 -1181 0
-1141 -1182 0
-1141 -1183 0
-1141 -1184 0
-1141 -1185 0
-1141 -1186 0
-1141 -1187 0
-1141 -1188 0
-1141 -1189 0
-1141 -1190 0
-1141 -1191 0
-1141 -1192 0
-1141 -1193 0
-1141 -1194 0
-1141 -1195 0
-1141 -1196 0
-1141 -1197 0
-1141 -1198 0
-1141 -1199 0
-1141 -1200 0
-1141 -1201 0
-1141 -1202 0
-1141 -1203 0
-1141 -1204 0
-1141 -1205 0
-1141 -1206 0
-1141 -1207 0
-1141 -1208 0
-1141 -1209 0
-1141 -1210 0
-1141 -1211 0
-1142 -1143 0
-1142 -1144 0
-1142 -1145 0
-1142 -1146 0
-1142 -1147 0
-1142 -1148 0
-1142 -1149 0
-1142 -1150 0
-1142 -1151 0
-1142 -1152 0
-1142 -1153 0
-1142 -1154 0
-1142 -1155 0
-1142 -1156 0
-1142 -1157 0
-1142 -1158 0
-1142 -1159 0
-1142 -1160 0
-1142 -1161 0
-1142 -1162 0
-1142 -1163 0
-1142 -1164 0
-1142 -1165 0
-1142 -1166 0
-1142 -1167 0
-1142 -1168 0
-1142 -1169 0
-1142 -1170 0
-1142 -1171 0
-1142 -1172 0
-1142 -1173 0
-1142 -1174 0
-1142 -1175 0
-1142 -1176 0
-1142 -1177 0
-1142 -1178 0
-1142 -1179 0
-1142 -1180 0
-1142 -1181 0
-1142 -1182 0
-1142 -1183 0
-1142 -1184 0
-1142 -1185 0
-1142 -1186 0
-1142 -1187 0
-1142 -1188 0
-1142 -1189 0
-1142 -1190 0
-1142 -1191 0
-1142 -1192 0
-1142 -1193 0
-1142 -1194 0
-1142 -1195 0
-1142 -1196 0
-1142 -1197 0
-1142 -1198 0
-1142 -1199 0
-1142 -1200 0
-1142 -1201 0
-1142 -1202 0
-1142 -1203 0
-1142 -1204 0
-1142 -1205 0
-1142 -1206 0
-1142 -1207 0
-1142 -1208 0
-1142 -1209 0
-1142 -1210 0
-1142 -1211 0
-1143 -1144 0
-1143 -1145 0
-1143 -1146 0
-1143 -1147 0
-1143 -1148 0
-1143 -1149 0
-1143 -1150 0
-1143 -1151 0
-1143 -1152 0
-1143 -1153 0
-1143 -1154 0
-1143 -1155 0
-1143 -1156 0
-1143 -1157 0
-1143 -1158 0
-1143 -1159 0
-1143 -1160 0
-1143 -1161 0
-1143 -1162 0
-1143 -1163 0
-1143 -1164 0
-1143 -1165 0
-1143 -1166 0
-1143 -1167 0
-1143 -1168 0
-1143 -1169 0
-1143 -1170 0
-1143 -1171 0
-1143 -1172 0
-1143 -1173 0
-1143 -1174 0
-1143 -1175 0
-1143 -1176 0
-1143 -1177 0
-1143 -1178 0
-1143 -1179 0
-1143 -1180 0
-1143 -1181 0
-1143 -1182 0
-1143 -1183 0
-1143 -1184 0
-1143 -1185 0
-1143 -1186 0
-1143 -1187 0
-1143 -1188 0
-1143 -1189 0
-1143 -1190 0
-1143 -1191 0
-1143 -1192 0
-1143 -1193 0
-1143 -1194 0
-1143 -1195 0
-1143 -1196 0
-1143 -1197 0
-1143 -1198 0
-1143 -1199 0
-1143 -1200 0
-1143 -1201 0
-1143 -1202 0
-1143 -1203 0
-1143 -1204 0
-1143 -1205 0
-1143 -1206 0
-1143 -1207 0
-1143 -1208 0
-1143 -1209 0
-1143 -1210 0
-1143 -1211 0
-1144 -1145 0
-1144 -1146 0
-1144 -1147 0
-1144 -1148 0
-1144 -1149 0
-1144 -1150 0
-1144 -1151 0
-1144 -1152 0
-1144 -1153 0
-1144 -1154 0
-1144 -1155 0
-1144 -1156 0
-1144 -1157 0
-1144 -1158 0
-1144 -1159 0
-1144 -1160 0
-1144 -1161 0
-1144 -1162 0
-1144 -1163 0
-1144 -1164 0
-1144 -1165 0
-1144 -1166 0
-1144 -1167 0
-1144 -1168 0
-1144 -1169 0
-1144 -1170 0
-1144 -1171 0
-1144 -1172 0
-1144 -1173 0
-1144 -1174 0
-1144 -1175 0
-1144 -1176 0
-1144 -1177 0
-1144 -1178 0
-1144 -1179 0
-1144 -1180 0
-1144 -1181 0
-1144 -1182 0
-1144 -1183 0
-1144 -1184 0
-1144 -1185 0
-1144 -1186 0
-1144 -1187 0
-1144 -1188 0
-1144 -1189 0
-1144 -1190 0
-1144 -1191 0
-1144 -1192 0
-1144 -1193 0
-1144 -1194 0
-1144 -1195 0
-1144 -1196 0
-1144 -1197 0
-1144 -1198 0
-1144 -1199 0
-1144 -1200 0
-1144 -1201 0
-1144 -1202 0
-1144 -1203 0
-1144 -1204 0
-1144 -1205 0
-1144 -1206 0
-1144 -1207 0
-1144 -1208 0
-1144 -1209 0
-1144 -1210 0
-1144 -1211 0
-1145 -1146 0
-1145 -1147 0
-1145 -1148 0
-1145 -1149 0
-1145 -1150 0
-1145 -1151 0
-1145 -1152 0
-1145 -1153 0
-1145 -1154 0
-1145 -1155 0
-1145 -1156 0
-1145 -1157 0
-1145 -1158 0
-1145 -1159 0
-1145 -1160 0
-1145 -1161 0
-1145 -1162 0
-1145 -1163 0
-1145 -1164 0
-1145 -1165 0
-1145 -1166 0
-1145 -1167 0
-1145 -1168 0
-1145 -1169 0
-1145 -1170 0
-1145 -1171 0
-1145 -1172 0
-1145 -1173 0
-1145 -1174 0
-1145 -1175 0
-1145 -1176 0
-1145 -1177 0
-1145 -1178 0
-1145 -1179 0
-1145 -1180 0
-1145 -1181 0
-1145 -1182 0
-1145 -1183 0
-1145 -1184 0
-1145 -1185 0
-1145 -1186 0
-1145 -1187 0
-1145 -1188 0
-1145 -1189 0
-1145 -1190 0
-1145 -1191 0
-1145 -1192 0
-1145 -1193 0
-1145 -1194 0
-1145 -1195 0
-1145 -1196 0
-1145 -1197 0
-1145 -1198 0
-1145 -1199 0
-1145 -1200 0
-1145 -1201 0
-1145 -1202 0
-1145 -1203 0
-1145 -1204 0
-1145 -1205 0
-1145 -1206 0
-1145 -1207 0
-1145 -1208 0
-1145 -1209 0
-1145 -1210 0
-1145 -1211 0
-1146 -1147 0
-1146 -1148 0
-1146 -1149 0
-1146 -1150 0
-1146 -1151 0
-1146 -1152 0
-1146 -1153 0
-1146 -1154 0
-1146 -1155 0
-1146 -1156 0
-1146 -1157 0
-1146 -1158 0
-1146 -1159 0
-1146 -1160 0
-1146 -1161 0
-1146 -1162 0
-1146 -1163 0
-1146 -1164 0
-1146 -1165 0
-1146 -1166 0
-1146 -1167 0
-1146 -1168 0
-1146 -1169 0
-1146 -1170 0
-1146 -1171 0
-1146 -1172 0
-1146 -1173 0
-1146 -1174 0
-1146 -1175 0
-1146 -1176 0
-1146 -1177 0
-1146 -1178 0
-1146 -1179 0
-1146 -1180 0
-1146 -1181 0
-1146 -1182 0
-1146 -1183 0
-1146 -1184 0
-1146 -1185 0
-1146 -1186 0
-1146 -1187 0
-1146 -1188 0
-1146 -1189 0
-1146 -1190 0
-1146 -1191 0
-1146 -1192 0
-1146 -1193 0
-1146 -1194 0
-1146 -1195 0
-1146 -1196 0
-1146 -1197 0
-1146 -1198 0
-1146 -1199 0
-1146 -1200 0
-1146 -1201 0
-1146 -1202 0
-1146 -1203 0
-1146 -1204 0
-1146 -1205 0
-1146 -1206 0
-1146 -1207 0
-1146 -1208 0
-1146 -1209 0
-1146 -1210 0
-1146 -1211 0
-1147 -1148 0
-1147 -1149 0
-1147 -1150 0
-1147 -1151 0
-1147 -1152 0
-1147 -1153 0
-1147 -1154 0
-1147 -1155 0
-1147 -1156 0
-1147 -1157 0
-1147 -1158 0
-1147 -1159 0
-1147 -1160 0
-1147 -1161 0
-1147 -1162 0
-1147 -1163 0
-1147 -1164 0
-1147 -1165 0
-1147 -1166 0
-1147 -1167 0
-1147 -1168 0
-1147 -1169 0
-1147 -1170 0
-1147 -1171 0
-1147 -1172 0
-1147 -1173 0
-1147 -1174 0
-1147 -1175 0
-1147 -1176 0
-1147 -1177 0
-1147 -1178 0
-1147 -1179 0
-1147 -1180 0
-1147 -1181 0
-1147 -1182 0
-1147 -1183 0
-1147 -1184 0
-1147 -1185 0
-1147 -1186 0
-1147 -1187 0
-1147 -1188 0
-1147 -1189 0
-1147 -1190 0
-1147 -1191 0
-1147 -1192 0
-1147 -1193 0
-1147 -1194 0
-1147 -1195 0
-1147 -1196 0
-1147 -1197 0
-1147 -1198 0
-1147 -1199 0
-1147 -1200 0
-1147 -1201 0
-1147 -1202 0
-1147 -1203 0
-1147 -1204 0
-1147 -1205 0
-1147 -1206 0
-1147 -1207 0
-1147 -1208 0
-1147 -1209 0
-1147 -1210 0
-1147 -1211 0
-1148 -1149 0
-1148 -1150 0
-1148 -1151 0
-1148 -1152 0
-1148 -1153 0
-1148 -1154 0
-1148 -1155 0
-1148 -1156 0
-1148 -1157 0
-1148 -1158 0
-1148 -1159 0
-1148 -1160 0
-1148 -1161 0
-1148 -1162 0
-1148 -1163 0
-1148 -1164 0
-1148 -1165 0
-1148 -1166 0
-1148 -1167 0
-1148 -1168 0
-1148 -1169 0
-1148 -1170 0
-1148 -1171 0
-1148 -1172 0
-1148 -1173 0
-1148 -1174 0
-1148 -1175 0
-1148 -1176 0
-1148 -1177 0
-1148 -1178 0
-1148 -1179 0
-1148 -1180 0
-1148 -1181 0
-1148 -1182 0
-1148 -1183 0
-1148 -1184 0
-1148 -1185 0
-1148 -1186 0
-1148 -1187 0
-1148 -1188 0
-1148 -1189 0
-1148 -1190 0
-1148 -1191 0
-1148 -1192 0
-1148 -1193 0
-1148 -1194 0
-1148 -1195 0
-1148 -1196 0
-1148 -1197 0
-1148 -1198 0
-1148 -1199 0
-1148 -1200 0
-1148 -1201 0
-1148 -1202 0
-1148 -1203 0
-1148 -1204 0
-1148 -1205 0
-1148 -1206 0
-1148 -1207 0
-1148 -1208 0
-1148 -1209 0
-1148 -1210 0
-1148 -1211 0
-1149 -1150 0
-1149 -1151 0
-1149 -1152 0
-1149 -1153 0
-1149 -1154 0
-1149 -1155 0
-1149 -1156 0
-1149 -1157 0
-1149 -1158 0
-1149 -1159 0
-1149 -1160 0
-1149 -1161 0
-1149 -1162 0
-1149 -1163 0
-1149 -1164 0
-1149 -1165 0
-1149 -1166 0
-1149 -1167 0
-1149 -1168 0
-1149 -1169 0
-1149 -1170 0
-1149 -1171 0
-1149 -1172 0
-1149 -1173 0
-1149 -1174 0
-1149 -1175 0
-1149 -1176 0
-1149 -1177 0
-1149 -1178 0
-1149 -1179 0
-1149 -1180 0
-1149 -1181 0
-1149 -1182 0
-1149 -1183 0
-1149 -1184 0
-1149 -1185 0
-1149 -1186 0
-1149 -1187 0
-1149 -1188 0
-1149 -1189 0
-1149 -1190 0
-1149 -1191 0
-1149 -1192 0
-1149 -1193 0
-1149 -1194 0
-1149 -1195 0
-1149 -1196 0
-1149 -1197 0
-1149 -1198 0
-1149 -1199 0
-1149 -1200 0
-1149 -1201 0
-1149 -1202 0
-1149 -1203 0
-1149 -1204 0
-1149 -1205 0
-1149 -1206 0
-1149 -1207 0
-1149 -1208 0
-1149 -1209 0
-1149 -1210 0
-1149 -1211 0
-1150 -1151 0
-1150 -1152 0
-1150 -1153 0
-1150 -1154 0
-1150 -1155 0
-1150 -1156 0
-1150 -1157 0
-1150 -1158 0
-1150 -1159 0
-1150 -1160 0
-1150 -1161 0
-1150 -1162 0
-1150 -1163 0
-1150 -1164 0
-1150 -1165 0
-1150 -1166 0
-1150 -1167 0
-1150 -1168 0
-1150 -1169 0
-1150 -1170 0
-1150 -1171 0
-1150 -1172 0
-1150 -1173 0
-1150 -1174 0
-1150 -1175 0
-1150 -1176 0
-1150 -1177 0
-1150 -1178 0
-1150 -1179 0
-1150 -1180 0
-1150 -1181 0
-1150 -1182 0
-1150 -1183 0
-1150 -1184 0
-1150 -1185 0
-1150 -1186 0
-1150 -1187 0
-1150 -1188 0
-1150 -1189 0
-1150 -1190 0
-1150 -1191 0
-1150 -1192 0
-1150 -1193 0
-1150 -1194 0
-1150 -1195 0
-1150 -1196 0
-1150 -1197 0
-1150 -1198 0
-1150 -1199 0
-1150 -1200 0
-1150 -1201 0
-1150 -1202 0
-1150 -1203 0
-1150 -1204 0
-1150 -1205 0
-1150 -1206 0
-1150 -1207 0
-1150 -1208 0
-1150 -1209 0
-1150 -1210 0
-1150 -1211 0
-1151 -1152 0
-1151 -1153 0
-1151 -1154 0
-1151 -1155 0
-1151 -1156 0
-1151 -1157 0
-1151 -1158 0
-1151 -1159 0
-1151 -1160 0
-1151 -1161 0
-1151 -1162 0
-1151 -1163 0
-1151 -1164 0
-1151 -1165 0
-1151 -1166 0
-1151 -1167 0
-1151 -1168 0
-1151 -1169 0
-1151 -1170 0
-1151 -1171 0
-1151 -1172 0
-1151 -1173 0
-1151 -1174 0
-1151 -1175 0
-1151 -1176 0
-1151 -1177 0
-1151 -1178 0
-1151 -1179 0
-1151 -1180 0
-1151 -1181 0
-1151 -1182 0
-1151 -1183 0
-1151 -1184 0
-1151 -1185 0
-1151 -1186 0
-1151 -1187 0
-1151 -1188 0
-1151 -1189 0
-1151 -1190 0
-1151 -1191 0
-1151 -1192 0
-1151 -1193 0
-1151 -1194 0
-1151 -1195 0
-1151 -1196 0
-1151 -1197 0
-1151 -1198 0
-1151 -1199 0
-1151 -1200 0
-1151 -1201 0
-1151 -1202 0
-1151 -1203 0
-1151 -1204 0
-1151 -1205 0
-1151 -1206 0
-1151 -1207 0
-1151 -1208 0
-1151 -1209 0
-1151 -1210 0
-1151 -1211 0
-1152 -1153 0
-1152 -1154 0
-1152 -1155 0
-1152 -1156 0
-1152 -1157 0
-1152 -1158 0
-1152 -1159 0
-1152 -1160 0
-1152 -1161 0
-1152 -1162 0
-1152 -1163 0
-1152 -1164 0
-1152 -1165 0
-1152 -1166 0
-1152 -1167 0
-1152 -1168 0
-1152 -1169 0
-1152 -1170 0
-1152 -1171 0
-1152 -1172 0
-1152 -1173 0
-1152 -1174 0
-1152 -1175 0
-1152 -1176 0
-1152 -1177 0
-1152 -1178 0
-1152 -1179 0
-1152 -1180 0
-1152 -1181 0
-1152 -1182 0
-1152 -1183 0
-1152 -1184 0
-1152 -1185 0
-1152 -1186 0
-1152 -1187 0
-1152 -1188 0
-1152 -1189 0
-1152 -1190 0
-1152 -1191 0
-1152 -1192 0
-1152 -1193 0
-1152 -1194 0
-1152 -1195 0
-1152 -1196 0
-1152 -1197 0
-1152 -1198 0
-1152 -1199 0
-1152 -1200 0
-1152 -1201 0
-1152 -1202 0
-1152 -1203 0
-1152 -1204 0
-1152 -1205 0
-1152 -1206 0
-1152 -1207 0
-1152 -1208 0
-1152 -1209 0
-1152 -1210 0
-1152 -1211 0
-1153 -1154 0
-1153 -1155 0
-1153 -1156 0
-1153 -1157 0
-1153 -1158 0
-1153 -1159 0
-1153 -1160 0
-1153 -1161 0
-1153 -1162 0
-1153 -1163 0
-1153 -1164 0
-1153 -1165 0
-1153 -1166 0
-1153 -1167 0
-1153 -1168 0
-1153 -1169 0
-1153 -1170 0
-1153 -1171 0
-1153 -1172 0
-1153 -1173 0
-1153 -1174 0
-1153 -1175 0
-1153 -1176 0
-1153 -1177 0
-1153 -1178 0
-1153 -1179 0
-1153 -1180 0
-1153 -1181 0
-1153 -1182 0
-1153 -1183 0
-1153 -1184 0
-1153 -1185 0
-1153 -1186 0
-1153 -1187 0
-1153 -1188 0
-1153 -1189 0
-1153 -1190 0
-1153 -1191 0
-1153 -1192 0
-1153 -1193 0
-1153 -1194 0
-1153 -1195 0
-1153 -1196 0
-1153 -1197 0
-1153 -1198 0
-1153 -1199 0
-1153 -1200 0
-1153 -1201 0
-1153 -1202 0
-1153 -1203 0
-1153 -1204 0
-1153 -1205 0
-1153 -1206 0
-1153 -1207 0
-1153 -1208 0
-1153 -1209 0
-1153 -1210 0
-1153 -1211 0
-1154 -1155 0
-1154 -1156 0
-1154 -1157 0
-1154 -1158 0
-1154 -1159 0
-1154 -1160 0
-1154 -1161 0
-1154 -1162 0
-1154 -1163 0
-1154 -1164 0
-1154 -1165 0
-1154 -1166 0
-1154 -1167 0
-1154 -1168 0
-1154 -1169 0
-1154 -1170 0
-1154 -1171 0
-1154 -1172 0
-1154 -1173 0
-1154 -1174 0
-1154 -1175 0
-1154 -1176 0
-1154 -1177 0
-1154 -1178 0
-1154 -1179 0
-1154 -1180 0
-1154 -1181 0
-1154 -1182 0
-1154 -1183 0
-1154 -1184 0
-1154 -1185 0
-1154 -1186 0
-1154 -1187 0
-1154 -1188 0
-1154 -1189 0
-1154 -1190 0
-1154 -1191 0
-1154 -1192 0
-1154 -1193 0
-1154 -1194 0
-1154 -1195 0
-1154 -1196 0
-1154 -1197 0
-1154 -1198 0
-1154 -1199 0
-1154 -1200 0
-1154 -1201 0
-1154 -1202 0
-1154 -1203 0
-1154 -1204 0
-1154 -1205 0
-1154 -1206 0
-1154 -1207 0
-1154 -1208 0
-1154 -1209 0
-1154 -1210 0
-1154 -1211 0
-1155 -1156 0
-1155 -1157 0
-1155 -1158 0
-1155 -1159 0
-1155 -1160 0
-1155 -1161 0
-1155 -1162 0
-1155 -1163 0
-1155 -1164 0
-1155 -1165 0
-1155 -1166 0
-1155 -1167 0
-1155 -1168 0
-1155 -1169 0
-1155 -1170 0
-1155 -1171 0
-1155 -1172 0
-1155 -1173 0
-1155 -1174 0
-1155 -1175 0
-1155 -1176 0
-1155 -1177 0
-1155 -1178 0
-1155 -1179 0
-1155 -1180 0
-1155 -1181 0
-1155 -1182 0
-1155 -1183 0
-1155 -1184 0
-1155 -1185 0
-1155 -1186 0
-1155 -1187 0
-1155 -1188 0
-1155 -1189 0
-1155 -1190 0
-1155 -1191 0
-1155 -1192 0
-1155 -1193 0
-1155 -1194 0
-1155 -1195 0
-1155 -1196 0
-1155 -1197 0
-1155 -1198 0
-1155 -1199 0
-1155 -1200 0
-1155 -1201 0
-1155 -1202 0
-1155 -1203 0
-1155 -1204 0
-1155 -1205 0
-1155 -1206 0
-1155 -1207 0
-1155 -1208 0
-1155 -1209 0
-1155 -1210 0
-1155 -1211 0
-1156 -1157 0
-1156 -1158 0
-1156 -1159 0
-1156 -1160 0
-1156 -1161 0
-1156 -1162 0
-1156 -1163 0
-1156 -1164 0
-1156 -1165 0
-1156 -1166 0
-1156 -1167 0
-1156 -1168 0
-1156 -1169 0
-1156 -1170 0
-1156 -1171 0
-1156 -1172 0
-1156 -1173 0
-1156 -1174 0
-1156 -1175 0
-1156 -1176 0
-1156 -1177 0
-1156 -1178 0
-1156 -1179 0
-1156 -1180 0
-1156 -1181 0
-1156 -1182 0
-1156 -1183 0
-1156 -1184 0
-1156 -1185 0
-1156 -1186 0
-1156 -1187 0
-1156 -1188 0
-1156 -1189 0
-1156 -1190 0
-1156 -1191 0
-1156 -1192 0
-1156 -1193 0
-1156 -1194 0
-1156 -1195 0
-1156 -1196 0
-1156 -1197 0
-1156 -1198 0
-1156 -1199 0
-1156 -1200 0
-1156 -1201 0
-1156 -1202 0
-1156 -1203 0
-1156 -1204 0
-1156 -1205 0
-1156 -1206 0
-1156 -1207 0
-1156 -1208 0
-1156 -1209 0
-1156 -1210 0
-1156 -1211 0
-1157 -1158 0
-1157 -1159 0
-1157 -1160 0
-1157 -1161 0
-1157 -1162 0
-1157 -1163 0
-1157 -1164 0
-1157 -1165 0
-1157 -1166 0
-1157 -1167 0
-1157 -1168 0
-1157 -1169 0
-1157 -1170 0
-1157 -1171 0
-1157 -1172 0
-1157 -1173 0
-1157 -1174 0
-1157 -1175 0
-1157 -1176 0
-1157 -1177 0
-1157 -1178 0
-1157 -1179 0
-1157 -1180 0
-1157 -1181 0
-1157 -1182 0
-1157 -1183 0
-1157 -1184 0
-1157 -1185 0
-1157 -1186 0
-1157 -1187 0
-1157 -1188 0
-1157 -1189 0
-1157 -1190 0
-1157 -1191 0
-1157 -1192 0
-1157 -1193 0
-1157 -1194 0
-1157 -1195 0
-1157 -1196 0
-1157 -1197 0
-1157 -1198 0
-1157 -1199 0
-1157 -1200 0
-1157 -1201 0
-1157 -1202 0
-1157 -1203 0
-1157 -1204 0
-1157 -1205 0
-1157 -1206 0
-1157 -1207 0
-1157 -1208 0
-1157 -1209 0
-1157 -1210 0
-1157 -1211 0
-1158 -1159 0
-1158 -1160 0
-1158 -1161 0
-1158 -1162 0
-1158 -1163 0
-1158 -1164 0
-1158 -1165 0
-1158 -1166 0
-1158 -1167 0
-1158 -1168 0
-1158 -1169 0
-1158 -1170 0
-1158 -1171 0
-1158 -1172 0
-1158 -1173 0
-1158 -1174 0
-1158 -1175 0
-1158 -1176 0
-1158 -1177 0
-1158 -1178 0
-1158 -1179 0
-1158 -1180 0
-1158 -1181 0
-1158 -1182 0
-1158 -1183 0
-1158 -1184 0
-1158 -1185 0
-1158 -1186 0
-1158 -1187 0
-1158 -1188 0
-1158 -1189 0
-1158 -1190 0
-1158 -1191 0
-1158 -1192 0
-1158 -1193 0
-1158 -1194 0
-1158 -1195 0
-1158 -1196 0
-1158 -1197 0
-1158 -1198 0
-1158 -1199 0
-1158 -1200 0
-1158 -1201 0
-1158 -1202 0
-1158 -1203 0
-1158 -1204 0
-1158 -1205 0
-1158 -1206 0
-1158 -1207 0
-1158 -1208 0
-1158 -1209 0
-1158 -1210 0
-1158 -1211 0
-1159 -1160 0
-1159 -1161 0
-1159 -1162 0
-1159 -1163 0
-1159 -1164 0
-1159 -1165 0
-1159 -1166 0
-1159 -1167 0
-1159 -1168 0
-1159 -1169 0
-1159 -1170 0
-1159 -1171 0
-1159 -1172 0
-1159 -1173 0
-1159 -1174 0
-1159 -1175 0
-1159 -1176 0
-1159 -1177 0
-1159 -1178 0
-1159 -1179 0
-1159 -1180 0
-1159 -1181 0
-1159 -1182 0
-1159 -1183 0
-1159 -1184 0
-1159 -1185 0
-1159 -1186 0
-1159 -1187 0
-1159 -1188 0
-1159 -1189 0
-1159 -1190 0
-1159 -1191 0
-1159 -1192 0
-1159 -1193 0
-1159 -1194 0
-1159 -1195 0
-1159 -1196 0
-1159 -1197 0
-1159 -1198 0
-1159 -1199 0
-1159 -1200 0
-1159 -1201 0
-1159 -1202 0
-1159 -1203 0
-1159 -1204 0
-1159 -1205 0
-1159 -1206 0
-1159 -1207 0
-1159 -1208 0
-1159 -1209 0
-1159 -1210 0
-1159 -1211 0
-1160 -1161 0
-1160 -1162 0
-1160 -1163 0
-1160 -1164 0
-1160 -1165 0
-1160 -1166 0
-1160 -1167 0
-1160 -1168 0
-1160 -1169 0
-1160 -1170 0
-1160 -1171 0
-1160 -1172 0
-1160 -1173 0
-1160 -1174 0
-1160 -1175 0
-1160 -1176 0
-1160 -1177 0
-1160 -1178 0
-1160 -1179 0
-1160 -1180 0
-1160 -1181 0
-1160 -1182 0
-1160 -1183 0
-1160 -1184 0
-1160 -1185 0
-1160 -1186 0
-1160 -1187 0
-1160 -1188 0
-1160 -1189 0
-1160 -1190 0
-1160 -1191 0
-1160 -1192 0
-1160 -1193 0
-1160 -1194 0
-1160 -1195 0
-1160 -1196 0
-1160 -1197 0
-1160 -1198 0
-1160 -1199 0
-1160 -1200 0
-1160 -1201 0
-1160 -1202 0
-1160 -1203 0
-1160 -1204 0
-1160 -1205 0
-1160 -1206 0
-1160 -1207 0
-1160 -1208 0
-1160 -1209 0
-1160 -1210 0
-1160 -1211 0
-1161 -1162 0
-1161 -1163 0
-1161 -1164 0
-1161 -1165 0
-1161 -1166 0
-1161 -1167 0
-1161 -1168 0
-1161 -1169 0
-1161 -1170 0
-1161 -1171 0
-1161 -1172 0
-1161 -1173 0
-1161 -1174 0
-1161 -1175 0
-1161 -1176 0
-1161 -1177 0
-1161 -1178 0
-1161 -1179 0
-1161 -1180 0
-1161 -1181 0
-1161 -1182 0
-1161 -1183 0
-1161 -1184 0
-1161 -1185 0
-1161 -1186 0
-1161 -1187 0
-1161 -1188 0
-1161 -1189 0
-1161 -1190 0
-1161 -1191 0
-1161 -1192 0
-1161 -1193 0
-1161 -1194 0
-1161 -1195 0
-1161 -1196 0
-1161 -1197 0
-1161 -1198 0
-1161 -1199 0
-1161 -1200 0
-1161 -1201 0
-1161 -1202 0
-1161 -1203 0
-1161 -1204 0
-1161 -1205 0
-1161 -1206 0
-1161 -1207 0
-1161 -1208 0
-1161 -1209 0
-1161 -1210 0
-1161 -1211 0
-1162 -1163 0
-1162 -1164 0
-1162 -1165 0
-1162 -1166 0
-1162 -1167 0
-1162 -1168 0
-1162 -1169 0
-1162 -1170 0
-1162 -1171 0
-1162 -1172 0
-1162 -1173 0
-1162 -1174 0
-1162 -1175 0
-1162 -1176 0
-1162 -1177 0
-1162 -1178 0
-1162 -1179 0
-1162 -1180 0
-1162 -1181 0
-1162 -1182 0
-1162 -1183 0
-1162 -1184 0
-1162 -1185 0
-1162 -1186 0
-1162 -1187 0
-1162 -1188 0
-1162 -1189 0
-1162 -1190 0
-1162 -1191 0
-1162 -1192 0
-1162 -1193 0
-1162 -1194 0
-1162 -1195 0
-1162 -1196 0
-1162 -1197 0
-1162 -1198 0
-1162 -1199 0
-1162 -1200 0
-1162 -1201 0
-1162 -1202 0
-1162 -1203 0
-1162 -1204 0
-1162 -1205 0
-1162 -1206 0
-1162 -1207 0
-1162 -1208 0
-1162 -1209 0
-1162 -1210 0
-1162 -1211 0
-1163 -1164 0
-1163 -1165 0
-1163 -1166 0
-1163 -1167 0
-1163 -1168 0
-1163 -1169 0
-1163 -1170 0
-1163 -1171 0
-1163 -1172 0
-1163 -1173 0
-1163 -1174 0
-1163 -1175 0
-1163 -1176 0
-1163 -1177 0
-1163 -1178 0
-1163 -1179 0
-1163 -1180 0
-1163 -1181 0
-1163 -1182 0
-1163 -1183 0
-1163 -1184 0
-1163 -1185 0
-1163 -1186 0
-1163 -1187 0
-1163 -1188 0
-1163 -1189 0
-1163 -1190 0
-1163 -1191 0
-1163 -1192 0
-1163 -1193 0
-1163 -1194 0
-1163 -1195 0
-1163 -1196 0
-1163 -1197 0
-1163 -1198 0
-1163 -1199 0
-1163 -1200 0
-1163 -1201 0
-1163 -1202 0
-1163 -1203 0
-1163 -1204 0
-1163 -1205 0
-1163 -1206 0
-1163 -1207 0
-1163 -1208 0
-1163 -1209 0
-1163 -1210 0
-1163 -1211 0
-1164 -1165 0
-1164 -1166 0
-1164 -1167 0
-1164 -1168 0
-1164 -1169 0
-1164 -1170 0
-1164 -1171 0
-1164 -1172 0
-1164 -1173 0
-1164 -1174 0
-1164 -1175 0
-1164 -1176 0
-1164 -1177 0
-1164 -1178 0
-1164 -1179 0
-1164 -1180 0
-1164 -1181 0
-1164 -1182 0
-1164 -1183 0
-1164 -1184 0
-1164 -1185 0
-1164 -1186 0
-1164 -1187 0
-1164 -1188 0
-1164 -1189 0
-1164 -1190 0
-1164 -1191 0
-1164 -1192 0
-1164 -1193 0
-1164 -1194 0
-1164 -1195 0
-1164 -1196 0
-1164 -1197 0
-1164 -1198 0
-1164 -1199 0
-1164 -1200 0
-1164 -1201 0
-1164 -1202 0
-1164 -1203 0
-1164 -1204 0
-1164 -1205 0
-1164 -1206 0
-1164 -1207 0
-1164 -1208 0
-1164 -1209 0
-1164 -1210 0
-1164 -1211 0
-1165 -1166 0
-1165 -1167 0
-1165 -1168 0
-1165 -1169 0
-1165 -1170 0
-1165 -1171 0
-1165 -1172 0
-1165 -1173 0
-1165 -1174 0
-1165 -1175 0
-1165 -1176 0
-1165 -1177 0
-1165 -1178 0
-1165 -1179 0
-1165 -1180 0
-1165 -1181 0
-1165 -1182 0
-1165 -1183 0
-1165 -1184 0
-1165 -1185 0
-1165 -1186 0
-1165 -1187 0
-1165 -1188 0
-1165 -1189 0
-1165 -1190 0
-1165 -1191 0
-1165 -1192 0
-1165 -1193 0
-1165 -1194 0
-1165 -1195 0
-1165 -1196 0
-1165 -1197 0
-1165 -1198 0
-1165 -1199 0
-1165 -1200 0
-1165 -1201 0
-1165 -1202 0
-1165 -1203 0
-1165 -1204 0
-1165 -1205 0
-1165 -1206 0
-1165 -1207 0
-1165 -1208 0
-1165 -1209 0
-1165 -1210 0
-1165 -1211 0
-1166 -1167 0
-1166 -1168 0
-1166 -1169 0
-1166 -1170 0
-1166 -1171 0
-1166 -1172 0
-1166 -1173 0
-1166 -1174 0
-1166 -1175 0
-1166 -1176 0
-1166 -1177 0
-1166 -1178 0
-1166 -1179 0
-1166 -1180 0
-1166 -1181 0
-1166 -1182 0
-1166 -1183 0
-1166 -1184 0
-1166 -1185 0
-1166 -1186 0
-1166 -1187 0
-1166 -1188 0
-1166 -1189 0
-1166 -1190 0
-1166 -1191 0
-1166 -1192 0
-1166 -1193 0
-1166 -1194 0
-1166 -1195 0
-1166 -1196 0
-1166 -1197 0
-1166 -1198 0
-1166 -1199 0
-1166 -1200 0
-1166 -1201 0
-1166 -1202 0
-1166 -1203 0
-1166 -1204 0
-1166 -1205 0
-1166 -1206 0
-1166 -1207 0
-1166 -1208 0
-1166 -1209 0
-1166 -1210 0
-1166 -1211 0
-1167 -1168 0
-1167 -1169 0
-1167 -1170 0
-1167 -1171 0
-1167 -1172 0
-1167 -1173 0
-1167 -1174 0
-1167 -1175 0
-1167 -1176 0
-1167 -1177 0
-1167 -1178 0
-1167 -1179 0
-1167 -1180 0
-1167 -1181 0
-1167 -1182 0
-1167 -1183 0
-1167 -1184 0
-1167 -1185 0
-1167 -1186 0
-1167 -1187 0
-1167 -1188 0
-1167 -1189 0
-1167 -1190 0
-1167 -1191 0
-1167 -1192 0
-1167 -1193 0
-1167 -1194 0
-1167 -1195 0
-1167 -1196 0
-1167 -1197 0
-1167 -1198 0
-1167 -1199 0
-1167 -1200 0
-1167 -1201 0
-1167 -1202 0
-1167 -1203 0
-1167 -1204 0
-1167 -1205 0
-1167 -1206 0
-1167 -1207 0
-1167 -1208 0
-1167 -1209 0
-1167 -1210 0
-1167 -1211 0
-1168 -1169 0
-1168 -1170 0
-1168 -1171 0
-1168 -1172 0
-1168 -1173 0
-1168 -1174 0
-1168 -1175 0
-1168 -1176 0
-1168 -1177 0
-1168 -1178 0
-1168 -1179 0
-1168 -1180 0
-1168 -1181 0
-1168 -1182 0
-1168 -1183 0
-1168 -1184 0
-1168 -1185 0
-1168 -1186 0
-1168 -1187 0
-1168 -1188 0
-1168 -1189 0
-1168 -1190 0
-1168 -1191 0
-1168 -1192 0
-1168 -1193 0
-1168 -1194 0
-1168 -1195 0
-1168 -1196 0
-1168 -1197 0
-1168 -1198 0
-1168 -1199 0
-1168 -1200 0
-1168 -1201 0
-1168 -1202 0
-1168 -1203 0
-1168 -1204 0
-1168 -1205 0
-1168 -1206 0
-1168 -1207 0
-1168 -1208 0
-1168 -1209 0
-1168 -1210 0
-1168 -1211 0
-1169 -1170 0
-1169 -1171 0
-1169 -1172 0
-1169 -1173 0
-1169 -1174 0
-1169 -1175 0
-1169 -1176 0
-1169 -1177 0
-1169 -1178 0
-1169 -1179 0
-1169 -1180 0
-1169 -1181 0
-1169 -1182 0
-1169 -1183 0
-1169 -1184 0
-1169 -1185 0
-1169 -1186 0
-1169 -1187 0
-1169 -1188 0
-1169 -1189 0
-1169 -1190 0
-1169 -1191 0
-1169 -1192 0
-1169 -1193 0
-1169 -1194 0
-1169 -1195 0
-1169 -1196 0
-1169 -1197 0
-1169 -1198 0
-1169 -1199 0
-1169 -1200 0
-1169 -1201 0
-1169 -1202 0
-1169 -1203 0
-1169 -1204 0
-1169 -1205 0
-1169 -1206 0
-1169 -1207 0
-1169 -1208 0
-1169 -1209 0
-1169 -1210 0
-1169 -1211 0
-1170 -1171 0
-1170 -1172 0
-1170 -1173 0
-1170 -1174 0
-1170 -1175 0
-1170 -1176 0
-1170 -1177 0
-1170 -1178 0
-1170 -1179 0
-1170 -1180 0
-1170 -1181 0
-1170 -1182 0
-1170 -1183 0
-1170 -1184 0
-1170 -1185 0
-1170 -1186 0
-1170 -1187 0
-1170 -1188 0
-1170 -1189 0
-1170 -1190 0
-1170 -1191 0
-1170 -1192 0
-1170 -1193 0
-1170 -1194 0
-1170 -1195 0
-1170 -1196 0
-1170 -1197 0
-1170 -1198 0
-1170 -1199 0
-1170 -1200 0
-1170 -1201 0
-1170 -1202 0
-1170 -1203 0
-1170 -1204 0
-1170 -1205 0
-1170 -1206 0
-1170 -1207 0
-1170 -1208 0
-1170 -1209 0
-1170 -1210 0
-1170 -1211 0
-1171 -1172 0
-1171 -1173 0
-1171 -1174 0
-1171 -1175 0
-1171 -1176 0
-1171 -1177 0
-1171 -1178 0
-1171 -1179 0
-1171 -1180 0
-1171 -1181 0
-1171 -1182 0
-1171 -1183 0
-1171 -1184 0
-1171 -1185 0
-1171 -1186 0
-1171 -1187 0
-1171 -1188 0
-1171 -1189 0
-1171 -1190 0
-1171 -1191 0
-1171 -1192 0
-1171 -1193 0
-1171 -1194 0
-1171 -1195 0
-1171 -1196 0
-1171 -1197 0
-1171 -1198 0
-1171 -1199 0
-1171 -1200 0
-1171 -1201 0
-1171 -1202 0
-1171 -1203 0
-1171 -1204 0
-1171 -1205 0
-1171 -1206 0
-1171 -1207 0
-1171 -1208 0
-1171 -1209 0
-1171 -1210 0
-1171 -1211 0
-1172 -1173 0
-1172 -1174 0
-1172 -1175 0
-1172 -1176 0
-1172 -1177 0
-1172 -1178 0
-1172 -1179 0
-1172 -1180 0
-1172 -1181 0
-1172 -1182 0
-1172 -1183 0
-1172 -1184 0
-1172 -1185 0
-1172 -1186 0
-1172 -1187 0
-1172 -1188 0
-1172 -1189 0
-1172 -1190 0
-1172 -1191 0
-1172 -1192 0
-1172 -1193 0
-1172 -1194 0
-1172 -1195 0
-1172 -1196 0
-1172 -1197 0
-1172 -1198 0
-1172 -1199 0
-1172 -1200 0
-1172 -1201 0
-1172 -1202 0
-1172 -1203 0
-1172 -1204 0
-1172 -1205 0
-1172 -1206 0
-1172 -1207 0
-1172 -1208 0
-1172 -1209 0
-1172 -1210 0
-1172 -1211 0
-1173 -1174 0
-1173 -1175 0
-1173 -1176 0
-1173 -1177 0
-1173 -1178 0
-1173 -1179 0
-1173 -1180 0
-1173 -1181 0
-1173 -1182 0
-1173 -1183 0
-1173 -1184 0
-1173 -1185 0
-1173 -1186 0
-1173 -1187 0
-1173 -1188 0
-1173 -1189 0
-1173 -1190 0
-1173 -1191 0
-1173 -1192 0
-1173 -1193 0
-1173 -1194 0
-1173 -1195 0
-1173 -1196 0
-1173 -1197 0
-1173 -1198 0
-1173 -1199 0
-1173 -1200 0
-1173 -1201 0
-1173 -1202 0
-1173 -1203 0
-1173 -1204 0
-1173 -1205 0
-1173 -1206 0
-1173 -1207 0
-1173 -1208 0
-1173 -1209 0
-1173 -1210 0
-1173 -1211 0
-1174 -1175 0
-1174 -1176 0
-1174 -1177 0
-1174 -1178 0
-1174 -1179 0
-1174 -1180 0
-1174 -1181 0
-1174 -1182 0
-1174 -1183 0
-1174 -1184 0
-1174 -1185 0
-1174 -1186 0
-1174 -1187 0
-1174 -1188 0
-1174 -1189 0
-1174 -1190 0
-1174 -1191 0
-1174 -1192 0
-1174 -1193 0
-1174 -1194 0
-1174 -1195 0
-1174 -1196 0
-1174 -1197 0
-1174 -1198 0
-1174 -1199 0
-1174 -1200 0
-1174 -1201 0
-1174 -1202 0
-1174 -1203 0
-1174 -1204 0
-1174 -1205 0
-1174 -1206 0
-1174 -1207 0
-1174 -1208 0
-1174 -1209 0
-1174 -1210 0
-1174 -1211 0
-1175 -1176 0
-1175 -1177 0
-1175 -1178 0
-1175 -1179 0
-1175 -1180 0
-1175 -1181 0
-1175 -1182 0
-1175 -1183 0
-1175 -1184 0
-1175 -1185 0
-1175 -1186 0
-1175 -1187 0
-1175 -1188 0
-1175 -1189 0
-1175 -1190 0
-1175 -1191 0
-1175 -1192 0
-1175 -1193 0
-1175 -1194 0
-1175 -1195 0
-1175 -1196 0
-1175 -1197 0
-1175 -1198 0
-1175 -1199 0
-1175 -1200 0
-1175 -1201 0
-1175 -1202 0
-1175 -1203 0
-1175 -1204 0
-1175 -1205 0
-1175 -1206 0
-1175 -1207 0
-1175 -1208 0
-1175 -1209 0
-1175 -1210 0
-1175 -1211 0
-1176 -1177 0
-1176 -1178 0
-1176 -1179 0
-1176 -1180 0
-1176 -1181 0
-1176 -1182 0
-1176 -1183 0
-1176 -1184 0
-1176 -1185 0
-1176 -1186 0
-1176 -1187 0
-1176 -1188 0
-1176 -1189 0
-1176 -1190 0
-1176 -1191 0
-1176 -1192 0
-1176 -1193 0
-1176 -1194 0
-1176 -1195 0
-1176 -1196 0
-1176 -1197 0
-1176 -1198 0
-1176 -1199 0
-1176 -1200 0
-1176 -1201 0
-1176 -1202 0
-1176 -1203 0
-1176 -1204 0
-1176 -1205 0
-1176 -1206 0
-1176 -1207 0
-1176 -1208 0
-1176 -1209 0
-1176 -1210 0
-1176 -1211 0
-1177 -1178 0
-1177 -1179 0
-1177 -1180 0
-1177 -1181 0
-1177 -1182 0
-1177 -1183 0
-1177 -1184 0
-1177 -1185 0
-1177 -1186 0
-1177 -1187 0
-1177 -1188 0
-1177 -1189 0
-1177 -1190 0
-1177 -1191 0
-1177 -1192 0
-1177 -1193 0
-1177 -1194 0
-1177 -1195 0
-1177 -1196 0
-1177 -1197 0
-1177 -1198 0
-1177 -1199 0
-1177 -1200 0
-1177 -1201 0
-1177 -1202 0
-1177 -1203 0
-1177 -1204 0
-1177 -1205 0
-1177 -1206 0
-1177 -1207 0
-1177 -1208 0
-1177 -1209 0
-1177 -1210 0
-1177 -1211 0
-1178 -1179 0
-1178 -1180 0
-1178 -1181 0
-1178 -1182 0
-1178 -1183 0
-1178 -1184 0
-1178 -1185 0
-1178 -1186 0
-1178 -1187 0
-1178 -1188 0
-1178 -1189 0
-1178 -1190 0
-1178 -1191 0
-1178 -1192 0
-1178 -1193 0
-1178 -1194 0
-1178 -1195 0
-1178 -1196 0
-1178 -1197 0
-1178 -1198 0
-1178 -1199 0
-1178 -1200 0
-1178 -1201 0
-1178 -1202 0
-1178 -1203 0
-1178 -1204 0
-1178 -1205 0
-1178 -1206 0
-1178 -1207 0
-1178 -1208 0
-1178 -1209 0
-1178 -1210 0
-1178 -1211 0
-1179 -1180 0
-1179 -1181 0
-1179 -1182 0
-1179 -1183 0
-1179 -1184 0
-1179 -1185 0
-1179 -1186 0
-1179 -1187 0
-1179 -1188 0
-1179 -1189 0
-1179 -1190 0
-1179 -1191 0
-1179 -1192 0
-1179 -1193 0
-1179 -1194 0
-1179 -1195 0
-1179 -1196 0
-1179 -1197 0
-1179 -1198 0
-1179 -1199 0
-1179 -1200 0
-1179 -1201 0
-1179 -1202 0
-1179 -1203 0
-1179 -1204 0
-1179 -1205 0
-1179 -1206 0
-1179 -1207 0
-1179 -1208 0
-1179 -1209 0
-1179 -1210 0
-1179 -1211 0
-1180 -1181 0
-1180 -1182 0
-1180 -1183 0
-1180 -1184 0
-1180 -1185 0
-1180 -1186 0
-1180 -1187 0
-1180 -1188 0
-1180 -1189 0
-1180 -1190 0
-1180 -1191 0
-1180 -1192 0
-1180 -1193 0
-1180 -1194 0
-1180 -1195 0
-1180 -1196 0
-1180 -1197 0
-1180 -1198 0
-1180 -1199 0
-1180 -1200 0
-1180 -1201 0
-1180 -1202 0
-1180 -1203 0
-1180 -1204 0
-1180 -1205 0
-1180 -1206 0
-1180 -1207 0
-1180 -1208 0
-1180 -1209 0
-1180 -1210 0
-1180 -1211 0
-1181 -1182 0
-1181 -1183 0
-1181 -1184 0
-1181 -1185 0
-1181 -1186 0
-1181 -1187 0
-1181 -1188 0
-1181 -1189 0
-1181 -1190 0
-1181 -1191 0
-1181 -1192 0
-1181 -1193 0
-1181 -1194 0
-1181 -1195 0
-1181 -1196 0
-1181 -1197 0
-1181 -1198 0
-1181 -1199 0
-1181 -1200 0
-1181 -1201 0
-1181 -1202 0
-1181 -1203 0
-1181 -1204 0
-1181 -1205 0
-1181 -1206 0
-1181 -1207 0
-1181 -1208 0
-1181 -1209 0
-1181 -1210 0
-1181 -1211 0
-1182 -1183 0
-1182 -1184 0
-1182 -1185 0
-1182 -1186 0
-1182 -1187 0
-1182 -1188 0
-1182 -1189 0
-1182 -1190 0
-1182 -1191 0
-1182 -1192 0
-1182 -1193 0
-1182 -1194 0
-1182 -1195 0
-1182 -1196 0
-1182 -1197 0
-1182 -1198 0
-1182 -1199 0
-1182 -1200 0
-1182 -1201 0
-1182 -1202 0
-1182 -1203 0
-1182 -1204 0
-1182 -1205 0
-1182 -1206 0
-1182 -1207 0
-1182 -1208 0
-1182 -1209 0
-1182 -1210 0
-1182 -1211 0
-1183 -1184 0
-1183 -1185 0
-1183 -1186 0
-1183 -1187 0
-1183 -1188 0
-1183 -1189 0
-1183 -1190 0
-1183 -1191 0
-1183 -1192 0
-1183 -1193 0
-1183 -1194 0
-1183 -1195 0
-1183 -1196 0
-1183 -1197 0
-1183 -1198 0
-1183 -1199 0
-1183 -1200 0
-1183 -1201 0
-1183 -1202 0
-1183 -1203 0
-1183 -1204 0
-1183 -1205 0
-1183 -1206 0
-1183 -1207 0
-1183 -1208 0
-1183 -1209 0
-1183 -1210 0
-1183 -1211 0
-1184 -1185 0
-1184 -1186 0
-1184 -1187 0
-1184 -1188 0
-1184 -1189 0
-1184 -1190 0
-1184 -1191 0
-1184 -1192 0
-1184 -1193 0
-1184 -1194 0
-1184 -1195 0
-1184 -1196 0
-1184 -1197 0
-1184 -1198 0
-1184 -1199 0
-1184 -1200 0
-1184 -1201 0
-1184 -1202 0
-1184 -1203 0
-1184 -1204 0
-1184 -1205 0
-1184 -1206 0
-1184 -1207 0
-1184 -1208 0
-1184 -1209 0
-1184 -1210 0
-1184 -1211 0
-1185 -1186 0
-1185 -1187 0
-1185 -1188 0
-1185 -1189 0
-1185 -1190 0
-1185 -1191 0
-1185 -1192 0
-1185 -1193 0
-1185 -1194 0
-1185 -1195 0
-1185 -1196 0
-1185 -1197 0
-1185 -1198 0
-1185 -1199 0
-1185 -1200 0
-1185 -1201 0
-1185 -1202 0
-1185 -1203 0
-1185 -1204 0
-1185 -1205 0
-1185 -1206 0
-1185 -1207 0
-1185 -1208 0
-1185 -1209 0
-1185 -1210 0
-1185 -1211 0
-1186 -1187 0
-1186 -1188 0
-1186 -1189 0
-1186 -1190 0
-1186 -1191 0
-1186 -1192 0
-1186 -1193 0
-1186 -1194 0
-1186 -1195 0
-1186 -1196 0
-1186 -1197 0
-1186 -1198 0
-1186 -1199 0
-1186 -1200 0
-1186 -1201 0
-1186 -1202 0
-1186 -1203 0
-1186 -1204 0
-1186 -1205 0
-1186 -1206 0
-1186 -1207 0
-1186 -1208 0
-1186 -1209 0
-1186 -1210 0
-1186 -1211 0
-1187 -1188 0
-1187 -1189 0
-1187 -1190 0
-1187 -1191 0
-1187 -1192 0
-1187 -1193 0
-1187 -1194 0
-1187 -1195 0
-1187 -1196 0
-1187 -1197 0
-1187 -1198 0
-1187 -1199 0
-1187 -1200 0
-1187 -1201 0
-1187 -1202 0
-1187 -1203 0
-1187 -1204 0
-1187 -1205 0
-1187 -1206 0
-1187 -1207 0
-1187 -1208 0
-1187 -1209 0
-1187 -1210 0
-1187 -1211 0
-1188 -1189 0
-1188 -1190 0
-1188 -1191 0
-1188 -1192 0
-1188 -1193 0
-1188 -1194 0
-1188 -1195 0
-1188 -1196 0
-1188 -1197 0
-1188 -1198 0
-1188 -1199 0
-1188 -1200 0
-1188 -1201 0
-1188 -1202 0
-1188 -1203 0
-1188 -1204 0
-1188 -1205 0
-1188 -1206 0
-1188 -1207 0
-1188 -1208 0
-1188 -1209 0
-1188 -1210 0
-1188 -1211 0
-1189 -1190 0
-1189 -1191 0
-1189 -1192 0
-1189 -1193 0
-1189 -1194 0
-1189 -1195 0
-1189 -1196 0
-1189 -1197 0
-1189 -1198 0
-1189 -1199 0
-1189 -1200 0
-1189 -1201 0
-1189 -1202 0
-1189 -1203 0
-1189 -1204 0
-1189 -1205 0
-1189 -1206 0
-1189 -1207 0
-1189 -1208 0
-1189 -1209 0
-1189 -1210 0
-1189 -1211 0
-1190 -1191 0
-1190 -1192 0
-1190 -1193 0
-1190 -1194 0
-1190 -1195 0
-1190 -1196 0
-1190 -1197 0
-1190 -1198 0
-1190 -1199 0
-1190 -1200 0
-1190 -1201 0
-1190 -1202 0
-1190 -1203 0
-1190 -1204 0
-1190 -1205 0
-1190 -1206 0
-1190 -1207 0
-1190 -1208 0
-1190 -1209 0
-1190 -1210 0
-1190 -1211 0
-1191 -1192 0
-1191 -1193 0
-1191 -1194 0
-1191 -1195 0
-1191 -1196 0
-1191 -1197 0
-1191 -1198 0
-1191 -1199 0
-1191 -1200 0
-1191 -1201 0
-1191 -1202 0
-1191 -1203 0
-1191 -1204 0
-1191 -1205 0
-1191 -1206 0
-1191 -1207 0
-1191 -1208 0
-1191 -1209 0
-1191 -1210 0
-1191 -1211 0
-1192 -1193 0
-1192 -1194 0
-1192 -1195 0
-1192 -1196 0
-1192 -1197 0
-1192 -1198 0
-1192 -1199 0
-1192 -1200 0
-1192 -1201 0
-1192 -1202 0
-1192 -1203 0
-1192 -1204 0
-1192 -1205 0
-1192 -1206 0
-1192 -1207 0
-1192 -1208 0
-1192 -1209 0
-1192 -1210 0
-1192 -1211 0
-1193 -1194 0
-1193 -1195 0
-1193 -1196 0
-1193 -1197 0
-1193 -1198 0
-1193 -1199 0
-1193 -1200 0
-1193 -1201 0
-1193 -1202 0
-1193 -1203 0
-1193 -1204 0
-1193 -1205 0
-1193 -1206 0
-1193 -1207 0
-1193 -1208 0
-1193 -1209 0
-1193 -1210 0
-1193 -1211 0
-1194 -1195 0
-1194 -1196 0
-1194 -1197 0
-1194 -1198 0
-1194 -1199 0
-1194 -1200 0
-1194 -1201 0
-1194 -1202 0
-1194 -1203 0
-1194 -1204 0
-1194 -1205 0
-1194 -1206 0
-1194 -1207 0
-1194 -1208 0
-1194 -1209 0
-1194 -1210 0
-1194 -1211 0
-1195 -1196 0
-1195 -1197 0
-1195 -1198 0
-1195 -1199 0
-1195 -1200 0
-1195 -1201 0
-1195 -1202 0
-1195 -1203 0
-1195 -1204 0
-1195 -1205 0
-1195 -1206 0
-1195 -1207 0
-1195 -1208 0
-1195 -1209 0
-1195 -1210 0
-1195 -1211 0
-1196 -1197 0
-1196 -1198 0
-1196 -1199 0
-1196 -1200 0
-1196 -1201 0
-1196 -1202 0
-1196 -1203 0
-1196 -1204 0
-1196 -1205 0
-1196 -1206 0
-1196 -1207 0
-1196 -1208 0
-1196 -1209 0
-1196 -1210 0
-1196 -1211 0
-1197 -1198 0
-1197 -1199 0
-1197 -1200 0
-1197 -1201 0
-1197 -1202 0
-1197 -1203 0
-1197 -1204 0
-1197 -1205 0
-1197 -1206 0
-1197 -1207 0
-1197 -1208 0
-1197 -1209 0
-1197 -1210 0
-1197 -1211 0
-1198 -1199 0
-1198 -1200 0
-1198 -1201 0
-1198 -1202 0
-1198 -1203 0
-1198 -1204 0
-1198 -1205 0
-1198 -1206 0
-1198 -1207 0
-1198 -1208 0
-1198 -1209 0
-1198 -1210 0
-1198 -1211 0
-1199 -1200 0
-1199 -1201 0
-1199 -1202 0
-1199 -1203 0
-1199 -1204 0
-1199 -1205 0
-1199 -1206 0
-1199 -1207 0
-1199 -1208 0
-1199 -1209 0
-1199 -1210 0
-1199 -1211 0
-1200 -1201 0
-1200 -1202 0
-1200 -1203 0
-1200 -1204 0
-1200 -1205 0
-1200 -1206 0
-1200 -1207 0
-1200 -1208 0
-1200 -1209 0
-1200 -1210 0
-1200 -1211 0
-1201 -1202 0
-1201 -1203 0
-1201 -1204 0
-1201 -1205 0
-1201 -1206 0
-1201 -1207 0
-1201 -1208 0
-1201 -1209 0
-1201 -1210 0
-1201 -1211 0
-1202 -1203 0
-1202 -1204 0
-1202 -1205 0
-1202 -1206 0
-1202 -1207 0
-1202 -1208 0
-1202 -1209 0
-1202 -1210 0
-1202 -1211 0
-1203 -1204 0
-1203 -1205 0
-1203 -1206 0
-1203 -1207 0
-1203 -1208 0
-1203 -1209 0
-1203 -1210 0
-1203 -1211 0
-1204 -1205 0
-1204 -1206 0
-1204 -1207 0
-1204 -1208 0
-1204 -1209 0
-1204 -1210 0
-1204 -1211 0
-1205 -1206 0
-1205 -1207 0
-1205 -1208 0
-1205 -1209 0
-1205 -1210 0
-1205 -1211 0
-1206 -1207 0
-1206 -1208 0
-1206 -1209 0
-1206 -1210 0
-1206 -1211 0
-1207 -1208 0
-1207 -1209 0
-1207 -1210 0
-1207 -1211 0
-1208 -1209 0
-1208 -1210 0
-1208 -1211 0
-1209 -1210 0
-1209 -1211 0
-1210 -1211 0
-1212 272 0
-1212 -64 -200 -197 0
-1212 -64 -201 -198 0
-1212 -64 -202 -199 0
-1212 70 0
-1212 -70 -200 1549 582 0
-1212 -70 -201 1549 588 0
-1212 -70 -202 1549 594 0
-1212 -200 -606 0
-1212 -200 -630 0
-1212 -200 -654 0
-1212 -200 -612 0
-1212 -200 -636 0
-1212 -200 -660 0
-1212 -200 -618 0
-1212 -200 -642 0
-1212 -200 -666 0
-1212 -201 -612 0
-1212 -201 -636 0
-1212 -201 -660 0
-1212 -201 -618 0
-1212 -201 -642 0
-1212 -201 -666 0
-1212 -202 -618 0
-1212 -202 -642 0
-1212 -202 -666 0
-1212 -203 0
-1212 85 0
-1212 -200 213 0
-1212 -201 214 0
-1212 -202 215 0
-1212 -277 0
-1213 272 0
-1213 -65 -200 -197 0
-1213 -65 -201 -198 0
-1213 -65 -202 -199 0
-1213 71 0
-1213 -71 -200 1550 583 0
-1213 -71 -201 1550 589 0
-1213 -71 -202 1550 595 0
-1213 -200 -607 0
-1213 -200 -631 0
-1213 -200 -655 0
-1213 -200 -613 0
-1213 -200 -637 0
-1213 -200 -661 0
-1213 -200 -619 0
-1213 -200 -643 0
-1213 -200 -667 0
-1213 -201 -613 0
-1213 -201 -637 0
-1213 -201 -661 0
-1213 -201 -619 0
-1213 -201 -643 0
-1213 -201 -667 0
-1213 -202 -619 0
-1213 -202 -643 0
-1213 -202 -667 0
-1213 -203 0
-1213 86 0
-1213 -200 213 0
-1213 -201 214 0
-1213 -202 215 0
-1213 -277 0
-1214 272 0
-1214 -66 -200 -197 0
-1214 -66 -201 -198 0
-1214 -66 -202 -199 0
-1214 72 0
-1214 -72 -200 1551 584 0
-1214 -72 -201 1551 590 0
-1214 -72 -202 1551 596 0
-1214 -200 -608 0
-1214 -200 -632 0
-1214 -200 -656 0
-1214 -200 -614 0
-1214 -200 -638 0
-1214 -200 -662 0
-1214 -200 -620 0
-1214 -200 -644 0
-1214 -200 -668 0
-1214 -201 -614 0
-1214 -201 -638 0
-1214 -201 -662 0
-1214 -201 -620 0
-1214 -201 -644 0
-1214 -201 -668 0
-1214 -202 -620 0
-1214 -202 -644 0
-1214 -202 -668 0
-1214 -203 0
-1214 87 0
-1214 -200 213 0
-1214 -201 214 0
-1214 -202 215 0
-1214 -277 0
-1215 272 0
-1215 -67 -200 -197 0
-1215 -67 -201 -198 0
-1215 -67 -202 -199 0
-1215 73 0
-1215 -73 -200 1552 585 0
-1215 -73 -201 1552 591 0
-1215 -73 -202 1552 597 0
-1215 -200 -609 0
-1215 -200 -633 0
-1215 -200 -657 0
-1215 -200 -615 0
-1215 -200 -639 0
-1215 -200 -663 0
-1215 -200 -621 0
-1215 -200 -645 0
-1215 -200 -669 0
-1215 -201 -615 0
-1215 -201 -639 0
-1215 -201 -663 0
-1215 -201 -621 0
-1215 -201 -645 0
-1215 -201 -669 0
-1215 -202 -621 0
-1215 -202 -645 0
-1215 -202 -669 0
-1215 -203 0
-1215 88 0
-1215 -200 213 0
-1215 -201 214 0
-1215 -202 215 0
-1215 -277 0
-1216 272 0
-1216 -68 -200 -197 0
-1216 -68 -201 -198 0
-1216 -68 -202 -199 0
-1216 74 0
-1216 -74 -200 1553 586 0
-1216 -74 -201 1553 592 0
-1216 -74 -202 1553 598 0
-1216 -200 -610 0
-1216 -200 -634 0
-1216 -200 -658 0
-1216 -200 -616 0
-1216 -200 -640 0
-1216 -200 -664 0
-1216 -200 -622 0
-1216 -200 -646 0
-1216 -200 -670 0
-1216 -201 -616 0
-1216 -201 -640 0
-1216 -201 -664 0
-1216 -201 -622 0
-1216 -201 -646 0
-1216 -201 -670 0
-1216 -202 -622 0
-1216 -202 -646 0
-1216 -202 -670 0
-1216 -203 0
-1216 89 0
-1216 -200 213 0
-1216 -201 214 0
-1216 -202 215 0
-1216 -277 0
-1217 272 0
-1217 -69 -200 -197 0
-1217 -69 -201 -198 0
-1217 -69 -202 -199 0
-1217 75 0
-1217 -75 -200 1554 587 0
-1217 -75 -201 1554 593 0
-1217 -75 -202 1554 599 0
-1217 -200 -611 0
-1217 -200 -635 0
-1217 -200 -659 0
-1217 -200 -617 0
-1217 -200 -641 0
-1217 -200 -665 0
-1217 -200 -623 0
-1217 -200 -647 0
-1217 -200 -671 0
-1217 -201 -617 0
-1217 -201 -641 0
-1217 -201 -665 0
-1217 -201 -623 0
-1217 -201 -647 0
-1217 -201 -671 0
-1217 -202 -623 0
-1217 -202 -647 0
-1217 -202 -671 0
-1217 -203 0
-1217 90 0
-1217 -200 213 0
-1217 -201 214 0
-1217 -202 215 0
-1217 -277 0
-1218 272 0
-1218 -64 -204 -197 0
-1218 -64 -205 -198 0
-1218 -64 -206 -199 0
-1218 76 0
-1218 -76 -204 1555 582 0
-1218 -76 -205 1555 588 0
-1218 -76 -206 1555 594 0
-1218 -204 -606 0
-1218 -204 -630 0
-1218 -204 -654 0
-1218 -204 -612 0
-1218 -204 -636 0
-1218 -204 -660 0
-1218 -204 -618 0
-1218 -204 -642 0
-1218 -204 -666 0
-1218 -205 -612 0
-1218 -205 -636 0
-1218 -205 -660 0
-1218 -205 -618 0
-1218 -205 -642 0
-1218 -205 -666 0
-1218 -206 -618 0
-1218 -206 -642 0
-1218 -206 -666 0
-1218 -207 0
-1218 85 0
-1218 -204 213 0
-1218 -205 214 0
-1218 -206 215 0
-1218 -278 0
-1219 272 0
-1219 -65 -204 -197 0
-1219 -65 -205 -198 0
-1219 -65 -206 -199 0
-1219 76 77 0
-1219 -76 -204 1556 583 0
-1219 -76 -205 1556 589 0
-1219 -76 -206 1556 595 0
-1219 -77 -204 1556 583 0
-1219 -77 -205 1556 589 0
-1219 -77 -206 1556 595 0
-1219 -204 -607 0
-1219 -204 -631 0
-1219 -204 -655 0
-1219 -204 -613 0
-1219 -204 -637 0
-1219 -204 -661 0
-1219 -204 -619 0
-1219 -204 -643 0
-1219 -204 -667 0
-1219 -205 -613 0
-1219 -205 -637 0
-1219 -205 -661 0
-1219 -205 -619 0
-1219 -205 -643 0
-1219 -205 -667 0
-1219 -206 -619 0
-1219 -206 -643 0
-1219 -206 -667 0
-1219 -207 0
-1219 86 0
-1219 -204 213 0
-1219 -205 214 0
-1219 -206 215 0
-1219 -278 0
-1220 272 0
-1220 -66 -204 -197 0
-1220 -66 -205 -198 0
-1220 -66 -206 -199 0
-1220 77 78 0
-1220 -77 -204 1557 584 0
-1220 -77 -205 1557 590 0
-1220 -77 -206 1557 596 0
-1220 -78 -204 1557 584 0
-1220 -78 -205 1557 590 0
-1220 -78 -206 1557 596 0
-1220 -204 -608 0
-1220 -204 -632 0
-1220 -204 -656 0
-1220 -204 -614 0
-1220 -204 -638 0
-1220 -204 -662 0
-1220 -204 -620 0
-1220 -204 -644 0
-1220 -204 -668 0
-1220 -205 -614 0
-1220 -205 -638 0
-1220 -205 -662 0
-1220 -205 -620 0
-1220 -205 -644 0
-1220 -205 -668 0
-1220 -206 -620 0
-1220 -206 -644 0
-1220 -206 -668 0
-1220 -207 0
-1220 87 0
-1220 -204 213 0
-1220 -205 214 0
-1220 -206 215 0
-1220 -278 0
-1221 272 0
-1221 -67 -204 -197 0
-1221 -67 -205 -198 0
-1221 -67 -206 -199 0
-1221 78 79 0
-1221 -78 -204 1558 585 0
-1221 -78 -205 1558 591 0
-1221 -78 -206 1558 597 0
-1221 -79 -204 1558 585 0
-1221 -79 -205 1558 591 0
-1221 -79 -206 1558 597 0
-1221 -204 -609 0
-1221 -204 -633 0
-1221 -204 -657 0
-1221 -204 -615 0
-1221 -204 -639 0
-1221 -204 -663 0
-1221 -204 -621 0
-1221 -204 -645 0
-1221 -204 -669 0
-1221 -205 -615 0
-1221 -205 -639 0
-1221 -205 -663 0
-1221 -205 -621 0
-1221 -205 -645 0
-1221 -205 -669 0
-1221 -206 -621 0
-1221 -206 -645 0
-1221 -206 -669 0
-1221 -207 0
-1221 88 0
-1221 -204 213 0
-1221 -205 214 0
-1221 -206 215 0
-1221 -278 0
-1222 272 0
-1222 -68 -204 -197 0
-1222 -68 -205 -198 0
-1222 -68 -206 -199 0
-1222 79 80 0
-1222 -79 -204 1559 586 0
-1222 -79 -205 1559 592 0
-1222 -79 -206 1559 598 0
-1222 -80 -204 1559 586 0
-1222 -80 -205 1559 592 0
-1222 -80 -206 1559 598 0
-1222 -204 -610 0
-1222 -204 -634 0
-1222 -204 -658 0
-1222 -204 -616 0
-1222 -204 -640 0
-1222 -204 -664 0
-1222 -204 -622 0
-1222 -204 -646 0
-1222 -204 -670 0
-1222 -205 -616 0
-1222 -205 -640 0
-1222 -205 -664 0
-1222 -205 -622 0
-1222 -205 -646 0
-1222 -205 -670 0
-1222 -206 -622 0
-1222 -206 -646 0
-1222 -206 -670 0
-1222 -207 0
-1222 89 0
-1222 -204 213 0
-1222 -205 214 0
-1222 -206 215 0
-1222 -278 0
-1223 272 0
-1223 -69 -204 -197 0
-1223 -69 -205 -198 0
-1223 -69 -206 -199 0
-1223 80 0
-1223 -80 -204 1560 587 0
-1223 -80 -205 1560 593 0
-1223 -80 -206 1560 599 0
-1223 -204 -611 0
-1223 -204 -635 0
-1223 -204 -659 0
-1223 -204 -617 0
-1223 -204 -641 0
-1223 -204 -665 0
-1223 -204 -623 0
-1223 -204 -647 0
-1223 -204 -671 0
-1223 -205 -617 0
-1223 -205 -641 0
-1223 -205 -665 0
-1223 -205 -623 0
-1223 -205 -647 0
-1223 -205 -671 0
-1223 -206 -623 0
-1223 -206 -647 0
-1223 -206 -671 0
-1223 -207 0
-1223 90 0
-1223 -204 213 0
-1223 -205 214 0
-1223 -206 215 0
-1223 -278 0
-1224 272 0
-1224 -64 -208 -197 0
-1224 -64 -209 -198 0
-1224 -64 -210 -199 0
-1224 81 0
-1224 -81 -208 1561 582 0
-1224 -81 -209 1561 588 0
-1224 -81 -210 1561 594 0
-1224 -208 -606 0
-1224 -208 -630 0
-1224 -208 -654 0
-1224 -208 -612 0
-1224 -208 -636 0
-1224 -208 -660 0
-1224 -208 -618 0
-1224 -208 -642 0
-1224 -208 -666 0
-1224 -209 -612 0
-1224 -209 -636 0
-1224 -209 -660 0
-1224 -209 -618 0
-1224 -209 -642 0
-1224 -209 -666 0
-1224 -210 -618 0
-1224 -210 -642 0
-1224 -210 -666 0
-1224 -211 0
-1224 85 0
-1224 -208 213 0
-1224 -209 214 0
-1224 -210 215 0
-1224 -279 0
-1225 272 0
-1225 -65 -208 -197 0
-1225 -65 -209 -198 0
-1225 -65 -210 -199 0
-1225 81 82 0
-1225 -81 -208 1562 583 0
-1225 -81 -209 1562 589 0
-1225 -81 -210 1562 595 0
-1225 -82 -208 1562 583 0
-1225 -82 -209 1562 589 0
-1225 -82 -210 1562 595 0
-1225 -208 -607 0
-1225 -208 -631 0
-1225 -208 -655 0
-1225 -208 -613 0
-1225 -208 -637 0
-1225 -208 -661 0
-1225 -208 -619 0
-1225 -208 -643 0
-1225 -208 -667 0
-1225 -209 -613 0
-1225 -209 -637 0
-1225 -209 -661 0
-1225 -209 -619 0
-1225 -209 -643 0
-1225 -209 -667 0
-1225 -210 -619 0
-1225 -210 -643 0
-1225 -210 -667 0
-1225 -211 0
-1225 86 0
-1225 -208 213 0
-1225 -209 214 0
-1225 -210 215 0
-1225 -279 0
-1226 272 0
-1226 -66 -208 -197 0
-1226 -66 -209 -198 0
-1226 -66 -210 -199 0
-1226 81 82 83 0
-1226 -81 -208 1563 584 0
-1226 -81 -209 1563 590 0
-1226 -81 -210 1563 596 0
-1226 -82 -208 1563 584 0
-1226 -82 -209 1563 590 0
-1226 -82 -210 1563 596 0
-1226 -83 -208 1563 584 0
-1226 -83 -209 1563 590 0
-1226 -83 -210 1563 596 0
-1226 -208 -608 0
-1226 -208 -632 0
-1226 -208 -656 0
-1226 -208 -614 0
-1226 -208 -638 0
-1226 -208 -662 0
-1226 -208 -620 0
-1226 -208 -644 0
-1226 -208 -668 0
-1226 -209 -614 0
-1226 -209 -638 0
-1226 -209 -662 0
-1226 -209 -620 0
-1226 -209 -644 0
-1226 -209 -668 0
-1226 -210 -620 0
-1226 -210 -644 0
-1226 -210 -668 0
-1226 -211 0
-1226 87 0
-1226 -208 213 0
-1226 -209 214 0
-1226 -210 215 0
-1226 -279 0
-1227 272 0
-1227 -67 -208 -197 0
-1227 -67 -209 -198 0
-1227 -67 -210 -199 0
-1227 82 83 84 0
-1227 -82 -208 1564 585 0
-1227 -82 -209 1564 591 0
-1227 -82 -210 1564 597 0
-1227 -83 -208 1564 585 0
-1227 -83 -209 1564 591 0
-1227 -83 -210 1564 597 0
-1227 -84 -208 1564 585 0
-1227 -84 -209 1564 591 0
-1227 -84 -210 1564 597 0
-1227 -208 -609 0
-1227 -208 -633 0
-1227 -208 -657 0
-1227 -208 -615 0
-1227 -208 -639 0
-1227 -208 -663 0
-1227 -208 -621 0
-1227 -208 -645 0
-1227 -208 -669 0
-1227 -209 -615 0
-1227 -209 -639 0
-1227 -209 -663 0
-1227 -209 -621 0
-1227 -209 -645 0
-1227 -209 -669 0
-1227 -210 -621 0
-1227 -210 -645 0
-1227 -210 -669 0
-1227 -211 0
-1227 88 0
-1227 -208 213 0
-1227 -209 214 0
-1227 -210 215 0
-1227 -279 0
-1228 272 0
-1228 -68 -208 -197 0
-1228 -68 -209 -198 0
-1228 -68 -210 -199 0
-1228 83 84 0
-1228 -83 -208 1565 586 0
-1228 -83 -209 1565 592 0
-1228 -83 -210 1565 598 0
-1228 -84 -208 1565 586 0
-1228 -84 -209 1565 592 0
-1228 -84 -210 1565 598 0
-1228 -208 -610 0
-1228 -208 -634 0
-1228 -208 -658 0
-1228 -208 -616 0
-1228 -208 -640 0
-1228 -208 -664 0
-1228 -208 -622 0
-1228 -208 -646 0
-1228 -208 -670 0
-1228 -209 -616 0
-1228 -209 -640 0
-1228 -209 -664 0
-1228 -209 -622 0
-1228 -209 -646 0
-1228 -209 -670 0
-1228 -210 -622 0
-1228 -210 -646 0
-1228 -210 -670 0
-1228 -211 0
-1228 89 0
-1228 -208 213 0
-1228 -209 214 0
-1228 -210 215 0
-1228 -279 0
-1229 272 0
-1229 -69 -208 -197 0
-1229 -69 -209 -198 0
-1229 -69 -210 -199 0
-1229 84 0
-1229 -84 -208 1566 587 0
-1229 -84 -209 1566 593 0
-1229 -84 -210 1566 599 0
-1229 -208 -611 0
-1229 -208 -635 0
-1229 -208 -659 0
-1229 -208 -617 0
-1229 -208 -641 0
-1229 -208 -665 0
-1229 -208 -623 0
-1229 -208 -647 0
-1229 -208 -671 0
-1229 -209 -617 0
-1229 -209 -641 0
-1229 -209 -665 0
-1229 -209 -623 0
-1229 -209 -647 0
-1229 -209 -671 0
-1229 -210 -623 0
-1229 -210 -647 0
-1229 -210 -671 0
-1229 -211 0
-1229 90 0
-1229 -208 213 0
-1229 -209 214 0
-1229 -210 215 0
-1229 -279 0
-1230 272 0
-1230 -64 -196 0
-1230 -600 0
-1230 -624 0
-1230 -648 0
-1230 -606 0
-1230 -630 0
-1230 -654 0
-1230 -612 0
-1230 -636 0
-1230 -660 0
-1230 -618 0
-1230 -642 0
-1230 -666 0
-1230 85 0
-1230 212 0
-1231 272 0
-1231 -65 -196 0
-1231 -601 0
-1231 -625 0
-1231 -649 0
-1231 -607 0
-1231 -631 0
-1231 -655 0
-1231 -613 0
-1231 -637 0
-1231 -661 0
-1231 -619 0
-1231 -643 0
-1231 -667 0
-1231 86 0
-1231 212 0
-1232 272 0
-1232 -66 -196 0
-1232 -602 0
-1232 -626 0
-1232 -650 0
-1232 -608 0
-1232 -632 0
-1232 -656 0
-1232 -614 0
-1232 -638 0
-1232 -662 0
-1232 -620 0
-1232 -644 0
-1232 -668 0
-1232 87 0
-1232 212 0
-1233 272 0
-1233 -67 -196 0
-1233 -603 0
-1233 -627 0
-1233 -651 0
-1233 -609 0
-1233 -633 0
-1233 -657 0
-1233 -615 0
-1233 -639 0
-1233 -663 0
-1233 -621 0
-1233 -645 0
-1233 -669 0
-1233 88 0
-1233 212 0
-1234 272 0
-1234 -68 -196 0
-1234 -604 0
-1234 -628 0
-1234 -652 0
-1234 -610 0
-1234 -634 0
-1234 -658 0
-1234 -616 0
-1234 -640 0
-1234 -664 0
-1234 -622 0
-1234 -646 0
-1234 -670 0
-1234 89 0
-1234 212 0
-1235 272 0
-1235 -69 -196 0
-1235 -605 0
-1235 -629 0
-1235 -653 0
-1235 -611 0
-1235 -635 0
-1235 -659 0
-1235 -617 0
-1235 -641 0
-1235 -665 0
-1235 -623 0
-1235 -647 0
-1235 -671 0
-1235 90 0
-1235 212 0
-1236 273 0
-1236 -70 -196 -201 0
-1236 -70 -197 -202 0
-1236 -70 -198 -203 0
-1236 64 0
-1236 -64 -196 1543 606 0
-1236 -64 -197 1543 612 0
-1236 -64 -198 1543 618 0
-1236 -196 -582 0
-1236 -196 -630 0
-1236 -196 -654 0
-1236 -196 -588 0
-1236 -196 -636 0
-1236 -196 -660 0
-1236 -196 -594 0
-1236 -196 -642 0
-1236 -196 -666 0
-1236 -197 -588 0
-1236 -197 -636 0
-1236 -197 -660 0
-1236 -197 -594 0
-1236 -197 -642 0
-1236 -197 -666 0
-1236 -198 -594 0
-1236 -198 -642 0
-1236 -198 -666 0
-1236 -199 0
-1236 91 0
-1236 -196 217 0
-1236 -197 218 0
-1236 -198 219 0
-1236 -276 0
-1237 273 0
-1237 -71 -196 -201 0
-1237 -71 -197 -202 0
-1237 -71 -198 -203 0
-1237 65 0
-1237 -65 -196 1544 607 0
-1237 -65 -197 1544 613 0
-1237 -65 -198 1544 619 0
-1237 -196 -583 0
-1237 -196 -631 0
-1237 -196 -655 0
-1237 -196 -589 0
-1237 -196 -637 0
-1237 -196 -661 0
-1237 -196 -595 0
-1237 -196 -643 0
-1237 -196 -667 0
-1237 -197 -589 0
-1237 -197 -637 0
-1237 -197 -661 0
-1237 -197 -595 0
-1237 -197 -643 0
-1237 -197 -667 0
-1237 -198 -595 0
-1237 -198 -643 0
-1237 -198 -667 0
-1237 -199 0
-1237 92 0
-1237 -196 217 0
-1237 -197 218 0
-1237 -198 219 0
-1237 -276 0
-1238 273 0
-1238 -72 -196 -201 0
-1238 -72 -197 -202 0
-1238 -72 -198 -203 0
-1238 66 0
-1238 -66 -196 1545 608 0
-1238 -66 -197 1545 614 0
-1238 -66 -198 1545 620 0
-1238 -196 -584 0
-1238 -196 -632 0
-1238 -196 -656 0
-1238 -196 -590 0
-1238 -196 -638 0
-1238 -196 -662 0
-1238 -196 -596 0
-1238 -196 -644 0
-1238 -196 -668 0
-1238 -197 -590 0
-1238 -197 -638 0
-1238 -197 -662 0
-1238 -197 -596 0
-1238 -197 -644 0
-1238 -197 -668 0
-1238 -198 -596 0
-1238 -198 -644 0
-1238 -198 -668 0
-1238 -199 0
-1238 93 0
-1238 -196 217 0
-1238 -197 218 0
-1238 -198 219 0
-1238 -276 0
-1239 273 0
-1239 -73 -196 -201 0
-1239 -73 -197 -202 0
-1239 -73 -198 -203 0
-1239 67 0
-1239 -67 -196 1546 609 0
-1239 -67 -197 1546 615 0
-1239 -67 -198 1546 621 0
-1239 -196 -585 0
-1239 -196 -633 0
-1239 -196 -657 0
-1239 -196 -591 0
-1239 -196 -639 0
-1239 -196 -663 0
-1239 -196 -597 0
-1239 -196 -645 0
-1239 -196 -669 0
-1239 -197 -591 0
-1239 -197 -639 0
-1239 -197 -663 0
-1239 -197 -597 0
-1239 -197 -645 0
-1239 -197 -669 0
-1239 -198 -597 0
-1239 -198 -645 0
-1239 -198 -669 0
-1239 -199 0
-1239 94 0
-1239 -196 217 0
-1239 -197 218 0
-1239 -198 219 0
-1239 -276 0
-1240 273 0
-1240 -74 -196 -201 0
-1240 -74 -197 -202 0
-1240 -74 -198 -203 0
-1240 68 0
-1240 -68 -196 1547 610 0
-1240 -68 -197 1547 616 0
-1240 -68 -198 1547 622 0
-1240 -196 -586 0
-1240 -196 -634 0
-1240 -196 -658 0
-1240 -196 -592 0
-1240 -196 -640 0
-1240 -196 -664 0
-1240 -196 -598 0
-1240 -196 -646 0
-1240 -196 -670 0
-1240 -197 -592 0
-1240 -197 -640 0
-1240 -197 -664 0
-1240 -197 -598 0
-1240 -197 -646 0
-1240 -197 -670 0
-1240 -198 -598 0
-1240 -198 -646 0
-1240 -198 -670 0
-1240 -199 0
-1240 95 0
-1240 -196 217 0
-1240 -197 218 0
-1240 -198 219 0
-1240 -276 0
-1241 273 0
-1241 -75 -196 -201 0
-1241 -75 -197 -202 0
-1241 -75 -198 -203 0
-1241 69 0
-1241 -69 -196 1548 611 0
-1241 -69 -197 1548 617 0
-1241 -69 -198 1548 623 0
-1241 -196 -587 0
-1241 -196 -635 0
-1241 -196 -659 0
-1241 -196 -593 0
-1241 -196 -641 0
-1241 -196 -665 0
-1241 -196 -599 0
-1241 -196 -647 0
-1241 -196 -671 0
-1241 -197 -593 0
-1241 -197 -641 0
-1241 -197 -665 0
-1241 -197 -599 0
-1241 -197 -647 0
-1241 -197 -671 0
-1241 -198 -599 0
-1241 -198 -647 0
-1241 -198 -671 0
-1241 -199 0
-1241 96 0
-1241 -196 217 0
-1241 -197 218 0
-1241 -198 219 0
-1241 -276 0
-1242 273 0
-1242 -70 -204 -201 0
-1242 -70 -205 -202 0
-1242 -70 -206 -203 0
-1242 76 0
-1242 -76 -204 1555 606 0
-1242 -76 -205 1555 612 0
-1242 -76 -206 1555 618 0
-1242 -204 -582 0
-1242 -204 -630 0
-1242 -204 -654 0
-1242 -204 -588 0
-1242 -204 -636 0
-1242 -204 -660 0
-1242 -204 -594 0
-1242 -204 -642 0
-1242 -204 -666 0
-1242 -205 -588 0
-1242 -205 -636 0
-1242 -205 -660 0
-1242 -205 -594 0
-1242 -205 -642 0
-1242 -205 -666 0
-1242 -206 -594 0
-1242 -206 -642 0
-1242 -206 -666 0
-1242 -207 0
-1242 91 0
-1242 -204 217 0
-1242 -205 218 0
-1242 -206 219 0
-1242 -278 0
-1243 273 0
-1243 -71 -204 -201 0
-1243 -71 -205 -202 0
-1243 -71 -206 -203 0
-1243 76 77 0
-1243 -76 -204 1556 607 0
-1243 -76 -205 1556 613 0
-1243 -76 -206 1556 619 0
-1243 -77 -204 1556 607 0
-1243 -77 -205 1556 613 0
-1243 -77 -206 1556 619 0
-1243 -204 -583 0
-1243 -204 -631 0
-1243 -204 -655 0
-1243 -204 -589 0
-1243 -204 -637 0
-1243 -204 -661 0
-1243 -204 -595 0
-1243 -204 -643 0
-1243 -204 -667 0
-1243 -205 -589 0
-1243 -205 -637 0
-1243 -205 -661 0
-1243 -205 -595 0
-1243 -205 -643 0
-1243 -205 -667 0
-1243 -206 -595 0
-1243 -206 -643 0
-1243 -206 -667 0
-1243 -207 0
-1243 92 0
-1243 -204 217 0
-1243 -205 218 0
-1243 -206 219 0
-1243 -278 0
-1244 273 0
-1244 -72 -204 -201 0
-1244 -72 -205 -202 0
-1244 -72 -206 -203 0
-1244 77 78 0
-1244 -77 -204 1557 608 0
-1244 -77 -205 1557 614 0
-1244 -77 -206 1557 620 0
-1244 -78 -204 1557 608 0
-1244 -78 -205 1557 614 0
-1244 -78 -206 1557 620 0
-1244 -204 -584 0
-1244 -204 -632 0
-1244 -204 -656 0
-1244 -204 -590 0
-1244 -204 -638 0
-1244 -204 -662 0
-1244 -204 -596 0
-1244 -204 -644 0
-1244 -204 -668 0
-1244 -205 -590 0
-1244 -205 -638 0
-1244 -205 -662 0
-1244 -205 -596 0
-1244 -205 -644 0
-1244 -205 -668 0
-1244 -206 -596 0
-1244 -206 -644 0
-1244 -206 -668 0
-1244 -207 0
-1244 93 0
-1244 -204 217 0
-1244 -205 218 0
-1244 -206 219 0
-1244 -278 0
-1245 273 0
-1245 -73 -204 -201 0
-1245 -73 -205 -202 0
-1245 -73 -206 -203 0
-1245 78 79 0
-1245 -78 -204 1558 609 0
-1245 -78 -205 1558 615 0
-1245 -78 -206 1558 621 0
-1245 -79 -204 1558 609 0
-1245 -79 -205 1558 615 0
-1245 -79 -206 1558 621 0
-1245 -204 -585 0
-1245 -204 -633 0
-1245 -204 -657 0
-1245 -204 -591 0
-1245 -204 -639 0
-1245 -204 -663 0
-1245 -204 -597 0
-1245 -204 -645 0
-1245 -204 -669 0
-1245 -205 -591 0
-1245 -205 -639 0
-1245 -205 -663 0
-1245 -205 -597 0
-1245 -205 -645 0
-1245 -205 -669 0
-1245 -206 -597 0
-1245 -206 -645 0
-1245 -206 -669 0
-1245 -207 0
-1245 94 0
-1245 -204 217 0
-1245 -205 218 0
-1245 -206 219 0
-1245 -278 0
-1246 273 0
-1246 -74 -204 -201 0
-1246 -74 -205 -202 0
-1246 -74 -206 -203 0
-1246 79 80 0
-1246 -79 -204 1559 610 0
-1246 -79 -205 1559 616 0
-1246 -79 -206 1559 622 0
-1246 -80 -204 1559 610 0
-1246 -80 -205 1559 616 0
-1246 -80 -206 1559 622 0
-1246 -204 -586 0
-1246 -204 -634 0
-1246 -204 -658 0
-1246 -204 -592 0
-1246 -204 -640 0
-1246 -204 -664 0
-1246 -204 -598 0
-1246 -204 -646 0
-1246 -204 -670 0
-1246 -205 -592 0
-1246 -205 -640 0
-1246 -205 -664 0
-1246 -205 -598 0
-1246 -205 -646 0
-1246 -205 -670 0
-1246 -206 -598 0
-1246 -206 -646 0
-1246 -206 -670 0
-1246 -207 0
-1246 95 0
-1246 -204 217 0
-1246 -205 218 0
-1246 -206 219 0
-1246 -278 0
-1247 273 0
-1247 -75 -204 -201 0
-1247 -75 -205 -202 0
-1247 -75 -206 -203 0
-1247 80 0
-1247 -80 -204 1560 611 0
-1247 -80 -205 1560 617 0
-1247 -80 -206 1560 623 0
-1247 -204 -587 0
-1247 -204 -635 0
-1247 -204 -659 0
-1247 -204 -593 0
-1247 -204 -641 0
-1247 -204 -665 0
-1247 -204 -599 0
-1247 -204 -647 0
-1247 -204 -671 0
-1247 -205 -593 0
-1247 -205 -641 0
-1247 -205 -665 0
-1247 -205 -599 0
-1247 -205 -647 0
-1247 -205 -671 0
-1247 -206 -599 0
-1247 -206 -647 0
-1247 -206 -671 0
-1247 -207 0
-1247 96 0
-1247 -204 217 0
-1247 -205 218 0
-1247 -206 219 0
-1247 -278 0
-1248 273 0
-1248 -70 -208 -201 0
-1248 -70 -209 -202 0
-1248 -70 -210 -203 0
-1248 81 0
-1248 -81 -208 1561 606 0
-1248 -81 -209 1561 612 0
-1248 -81 -210 1561 618 0
-1248 -208 -582 0
-1248 -208 -630 0
-1248 -208 -654 0
-1248 -208 -588 0
-1248 -208 -636 0
-1248 -208 -660 0
-1248 -208 -594 0
-1248 -208 -642 0
-1248 -208 -666 0
-1248 -209 -588 0
-1248 -209 -636 0
-1248 -209 -660 0
-1248 -209 -594 0
-1248 -209 -642 0
-1248 -209 -666 0
-1248 -210 -594 0
-1248 -210 -642 0
-1248 -210 -666 0
-1248 -211 0
-1248 91 0
-1248 -208 217 0
-1248 -209 218 0
-1248 -210 219 0
-1248 -279 0
-1249 273 0
-1249 -71 -208 -201 0
-1249 -71 -209 -202 0
-1249 -71 -210 -203 0
-1249 81 82 0
-1249 -81 -208 1562 607 0
-1249 -81 -209 1562 613 0
-1249 -81 -210 1562 619 0
-1249 -82 -208 1562 607 0
-1249 -82 -209 1562 613 0
-1249 -82 -210 1562 619 0
-1249 -208 -583 0
-1249 -208 -631 0
-1249 -208 -655 0
-1249 -208 -589 0
-1249 -208 -637 0
-1249 -208 -661 0
-1249 -208 -595 0
-1249 -208 -643 0
-1249 -208 -667 0
-1249 -209 -589 0
-1249 -209 -637 0
-1249 -209 -661 0
-1249 -209 -595 0
-1249 -209 -643 0
-1249 -209 -667 0
-1249 -210 -595 0
-1249 -210 -643 0
-1249 -210 -667 0
-1249 -211 0
-1249 92 0
-1249 -208 217 0
-1249 -209 218 0
-1249 -210 219 0
-1249 -279 0
-1250 273 0
-1250 -72 -208 -201 0
-1250 -72 -209 -202 0
-1250 -72 -210 -203 0
-1250 81 82 83 0
-1250 -81 -208 1563 608 0
-1250 -81 -209 1563 614 0
-1250 -81 -210 1563 620 0
-1250 -82 -208 1563 608 0
-1250 -82 -209 1563 614 0
-1250 -82 -210 1563 620 0
-1250 -83 -208 1563 608 0
-1250 -83 -209 1563 614 0
-1250 -83 -210 1563 620 0
-1250 -208 -584 0
-1250 -208 -632 0
-1250 -208 -656 0
-1250 -208 -590 0
-1250 -208 -638 0
-1250 -208 -662 0
-1250 -208 -596 0
-1250 -208 -644 0
-1250 -208 -668 0
-1250 -209 -590 0
-1250 -209 -638 0
-1250 -209 -662 0
-1250 -209 -596 0
-1250 -209 -644 0
-1250 -209 -668 0
-1250 -210 -596 0
-1250 -210 -644 0
-1250 -210 -668 0
-1250 -211 0
-1250 93 0
-1250 -208 217 0
-1250 -209 218 0
-1250 -210 219 0
-1250 -279 0
-1251 273 0
-1251 -73 -208 -201 0
-1251 -73 -209 -202 0
-1251 -73 -210 -203 0
-1251 82 83 84 0
-1251 -82 -208 1564 609 0
-1251 -82 -209 1564 615 0
-1251 -82 -210 1564 621 0
-1251 -83 -208 1564 609 0
-1251 -83 -209 1564 615 0
-1251 -83 -210 1564 621 0
-1251 -84 -208 1564 609 0
-1251 -84 -209 1564 615 0
-1251 -84 -210 1564 621 0
-1251 -208 -585 0
-1251 -208 -633 0
-1251 -208 -657 0
-1251 -208 -591 0
-1251 -208 -639 0
-1251 -208 -663 0
-1251 -208 -597 0
-1251 -208 -645 0
-1251 -208 -669 0
-1251 -209 -591 0
-1251 -209 -639 0
-1251 -209 -663 0
-1251 -209 -597 0
-1251 -209 -645 0
-1251 -209 -669 0
-1251 -210 -597 0
-1251 -210 -645 0
-1251 -210 -669 0
-1251 -211 0
-1251 94 0
-1251 -208 217 0
-1251 -209 218 0
-1251 -210 219 0
-1251 -279 0
-1252 273 0
-1252 -74 -208 -201 0
-1252 -74 -209 -202 0
-1252 -74 -210 -203 0
-1252 83 84 0
-1252 -83 -208 1565 610 0
-1252 -83 -209 1565 616 0
-1252 -83 -210 1565 622 0
-1252 -84 -208 1565 610 0
-1252 -84 -209 1565 616 0
-1252 -84 -210 1565 622 0
-1252 -208 -586 0
-1252 -208 -634 0
-1252 -208 -658 0
-1252 -208 -592 0
-1252 -208 -640 0
-1252 -208 -664 0
-1252 -208 -598 0
-1252 -208 -646 0
-1252 -208 -670 0
-1252 -209 -592 0
-1252 -209 -640 0
-1252 -209 -664 0
-1252 -209 -598 0
-1252 -209 -646 0
-1252 -209 -670 0
-1252 -210 -598 0
-1252 -210 -646 0
-1252 -210 -670 0
-1252 -211 0
-1252 95 0
-1252 -208 217 0
-1252 -209 218 0
-1252 -210 219 0
-1252 -279 0
-1253 273 0
-1253 -75 -208 -201 0
-1253 -75 -209 -202 0
-1253 -75 -210 -203 0
-1253 84 0
-1253 -84 -208 1566 611 0
-1253 -84 -209 1566 617 0
-1253 -84 -210 1566 623 0
-1253 -208 -587 0
-1253 -208 -635 0
-1253 -208 -659 0
-1253 -208 -593 0
-1253 -208 -641 0
-1253 -208 -665 0
-1253 -208 -599 0
-1253 -208 -647 0
-1253 -208 -671 0
-1253 -209 -593 0
-1253 -209 -641 0
-1253 -209 -665 0
-1253 -209 -599 0
-1253 -209 -647 0
-1253 -209 -671 0
-1253 -210 -599 0
-1253 -210 -647 0
-1253 -210 -671 0
-1253 -211 0
-1253 96 0
-1253 -208 217 0
-1253 -209 218 0
-1253 -210 219 0
-1253 -279 0
-1254 273 0
-1254 -70 -200 0
-1254 -576 0
-1254 -624 0
-1254 -648 0
-1254 -582 0
-1254 -630 0
-1254 -654 0
-1254 -588 0
-1254 -636 0
-1254 -660 0
-1254 -594 0
-1254 -642 0
-1254 -666 0
-1254 91 0
-1254 216 0
-1255 273 0
-1255 -71 -200 0
-1255 -577 0
-1255 -625 0
-1255 -649 0
-1255 -583 0
-1255 -631 0
-1255 -655 0
-1255 -589 0
-1255 -637 0
-1255 -661 0
-1255 -595 0
-1255 -643 0
-1255 -667 0
-1255 92 0
-1255 216 0
-1256 273 0
-1256 -72 -200 0
-1256 -578 0
-1256 -626 0
-1256 -650 0
-1256 -584 0
-1256 -632 0
-1256 -656 0
-1256 -590 0
-1256 -638 0
-1256 -662 0
-1256 -596 0
-1256 -644 0
-1256 -668 0
-1256 93 0
-1256 216 0
-1257 273 0
-1257 -73 -200 0
-1257 -579 0
-1257 -627 0
-1257 -651 0
-1257 -585 0
-1257 -633 0
-1257 -657 0
-1257 -591 0
-1257 -639 0
-1257 -663 0
-1257 -597 0
-1257 -645 0
-1257 -669 0
-1257 94 0
-1257 216 0
-1258 273 0
-1258 -74 -200 0
-1258 -580 0
-1258 -628 0
-1258 -652 0
-1258 -586 0
-1258 -634 0
-1258 -658 0
-1258 -592 0
-1258 -640 0
-1258 -664 0
-1258 -598 0
-1258 -646 0
-1258 -670 0
-1258 95 0
-1258 216 0
-1259 273 0
-1259 -75 -200 0
-1259 -581 0
-1259 -629 0
-1259 -653 0
-1259 -587 0
-1259 -635 0
-1259 -659 0
-1259 -593 0
-1259 -641 0
-1259 -665 0
-1259 -599 0
-1259 -647 0
-1259 -671 0
-1259 96 0
-1259 216 0
-1260 274 0
-1260 -76 -196 -205 0
-1260 -76 -197 -206 0
-1260 -76 -198 -207 0
-1260 64 65 0
-1260 -64 -196 1543 630 0
-1260 -64 -197 1543 636 0
-1260 -64 -198 1543 642 0
-1260 -65 -196 1544 631 0
-1260 -65 -197 1544 637 0
-1260 -65 -198 1544 643 0
-1260 -196 -582 0
-1260 -196 -606 0
-1260 -196 -654 0
-1260 -196 -588 0
-1260 -196 -612 0
-1260 -196 -660 0
-1260 -196 -594 0
-1260 -196 -618 0
-1260 -196 -666 0
-1260 -196 -583 0
-1260 -196 -607 0
-1260 -196 -655 0
-1260 -196 -589 0
-1260 -196 -613 0
-1260 -196 -661 0
-1260 -196 -595 0
-1260 -196 -619 0
-1260 -196 -667 0
-1260 -197 -588 0
-1260 -197 -612 0
-1260 -197 -660 0
-1260 -197 -594 0
-1260 -197 -618 0
-1260 -197 -666 0
-1260 -197 -589 0
-1260 -197 -613 0
-1260 -197 -661 0
-1260 -197 -595 0
-1260 -197 -619 0
-1260 -197 -667 0
-1260 -198 -594 0
-1260 -198 -618 0
-1260 -198 -666 0
-1260 -198 -595 0
-1260 -198 -619 0
-1260 -198 -667 0
-1260 -199 0
-1260 97 0
-1260 -196 221 0
-1260 -197 222 0
-1260 -198 223 0
-1260 -276 0
-1261 274 0
-1261 -77 -196 -205 0
-1261 -77 -197 -206 0
-1261 -77 -198 -207 0
-1261 65 66 0
-1261 -65 -196 1544 631 0
-1261 -65 -197 1544 637 0
-1261 -65 -198 1544 643 0
-1261 -66 -196 1545 632 0
-1261 -66 -197 1545 638 0
-1261 -66 -198 1545 644 0
-1261 -196 -583 0
-1261 -196 -607 0
-1261 -196 -655 0
-1261 -196 -589 0
-1261 -196 -613 0
-1261 -196 -661 0
-1261 -196 -595 0
-1261 -196 -619 0
-1261 -196 -667 0
-1261 -196 -584 0
-1261 -196 -608 0
-1261 -196 -656 0
-1261 -196 -590 0
-1261 -196 -614 0
-1261 -196 -662 0
-1261 -196 -596 0
-1261 -196 -620 0
-1261 -196 -668 0
-1261 -197 -589 0
-1261 -197 -613 0
-1261 -197 -661 0
-1261 -197 -595 0
-1261 -197 -619 0
-1261 -197 -667 0
-1261 -197 -590 0
-1261 -197 -614 0
-1261 -197 -662 0
-1261 -197 -596 0
-1261 -197 -620 0
-1261 -197 -668 0
-1261 -198 -595 0
-1261 -198 -619 0
-1261 -198 -667 0
-1261 -198 -596 0
-1261 -198 -620 0
-1261 -198 -668 0
-1261 -199 0
-1261 98 0
-1261 -196 221 0
-1261 -197 222 0
-1261 -198 223 0
-1261 -276 0
-1262 274 0
-1262 -78 -196 -205 0
-1262 -78 -197 -206 0
-1262 -78 -198 -207 0
-1262 66 67 0
-1262 -66 -196 1545 632 0
-1262 -66 -197 1545 638 0
-1262 -66 -198 1545 644 0
-1262 -67 -196 1546 633 0
-1262 -67 -197 1546 639 0
-1262 -67 -198 1546 645 0
-1262 -196 -584 0
-1262 -196 -608 0
-1262 -196 -656 0
-1262 -196 -590 0
-1262 -196 -614 0
-1262 -196 -662 0
-1262 -196 -596 0
-1262 -196 -620 0
-1262 -196 -668 0
-1262 -196 -585 0
-1262 -196 -609 0
-1262 -196 -657 0
-1262 -196 -591 0
-1262 -196 -615 0
-1262 -196 -663 0
-1262 -196 -597 0
-1262 -196 -621 0
-1262 -196 -669 0
-1262 -197 -590 0
-1262 -197 -614 0
-1262 -197 -662 0
-1262 -197 -596 0
-1262 -197 -620 0
-1262 -197 -668 0
-1262 -197 -591 0
-1262 -197 -615 0
-1262 -197 -663 0
-1262 -197 -597 0
-1262 -197 -621 0
-1262 -197 -669 0
-1262 -198 -596 0
-1262 -198 -620 0
-1262 -198 -668 0
-1262 -198 -597 0
-1262 -198 -621 0
-1262 -198 -669 0
-1262 -199 0
-1262 99 0
-1262 -196 221 0
-1262 -197 222 0
-1262 -198 223 0
-1262 -276 0
-1263 274 0
-1263 -79 -196 -205 0
-1263 -79 -197 -206 0
-1263 -79 -198 -207 0
-1263 67 68 0
-1263 -67 -196 1546 633 0
-1263 -67 -197 1546 639 0
-1263 -67 -198 1546 645 0
-1263 -68 -196 1547 634 0
-1263 -68 -197 1547 640 0
-1263 -68 -198 1547 646 0
-1263 -196 -585 0
-1263 -196 -609 0
-1263 -196 -657 0
-1263 -196 -591 0
-1263 -196 -615 0
-1263 -196 -663 0
-1263 -196 -597 0
-1263 -196 -621 0
-1263 -196 -669 0
-1263 -196 -586 0
-1263 -196 -610 0
-1263 -196 -658 0
-1263 -196 -592 0
-1263 -196 -616 0
-1263 -196 -664 0
-1263 -196 -598 0
-1263 -196 -622 0
-1263 -196 -670 0
-1263 -197 -591 0
-1263 -197 -615 0
-1263 -197 -663 0
-1263 -197 -597 0
-1263 -197 -621 0
-1263 -197 -669 0
-1263 -197 -592 0
-1263 -197 -616 0
-1263 -197 -664 0
-1263 -197 -598 0
-1263 -197 -622 0
-1263 -197 -670 0
-1263 -198 -597 0
-1263 -198 -621 0
-1263 -198 -669 0
-1263 -198 -598 0
-1263 -198 -622 0
-1263 -198 -670 0
-1263 -199 0
-1263 100 0
-1263 -196 221 0
-1263 -197 222 0
-1263 -198 223 0
-1263 -276 0
-1264 274 0
-1264 -80 -196 -205 0
-1264 -80 -197 -206 0
-1264 -80 -198 -207 0
-1264 68 69 0
-1264 -68 -196 1547 634 0
-1264 -68 -197 1547 640 0
-1264 -68 -198 1547 646 0
-1264 -69 -196 1548 635 0
-1264 -69 -197 1548 641 0
-1264 -69 -198 1548 647 0
-1264 -196 -586 0
-1264 -196 -610 0
-1264 -196 -658 0
-1264 -196 -592 0
-1264 -196 -616 0
-1264 -196 -664 0
-1264 -196 -598 0
-1264 -196 -622 0
-1264 -196 -670 0
-1264 -196 -587 0
-1264 -196 -611 0
-1264 -196 -659 0
-1264 -196 -593 0
-1264 -196 -617 0
-1264 -196 -665 0
-1264 -196 -599 0
-1264 -196 -623 0
-1264 -196 -671 0
-1264 -197 -592 0
-1264 -197 -616 0
-1264 -197 -664 0
-1264 -197 -598 0
-1264 -197 -622 0
-1264 -197 -670 0
-1264 -197 -593 0
-1264 -197 -617 0
-1264 -197 -665 0
-1264 -197 -599 0
-1264 -197 -623 0
-1264 -197 -671 0
-1264 -198 -598 0
-1264 -198 -622 0
-1264 -198 -670 0
-1264 -198 -599 0
-1264 -198 -623 0
-1264 -198 -671 0
-1264 -199 0
-1264 101 0
-1264 -196 221 0
-1264 -197 222 0
-1264 -198 223 0
-1264 -276 0
-1265 274 0
-1265 -76 -200 -205 0
-1265 -76 -201 -206 0
-1265 -76 -202 -207 0
-1265 70 71 0
-1265 -70 -200 1549 630 0
-1265 -70 -201 1549 636 0
-1265 -70 -202 1549 642 0
-1265 -71 -200 1550 631 0
-1265 -71 -201 1550 637 0
-1265 -71 -202 1550 643 0
-1265 -200 -582 0
-1265 -200 -606 0
-1265 -200 -654 0
-1265 -200 -588 0
-1265 -200 -612 0
-1265 -200 -660 0
-1265 -200 -594 0
-1265 -200 -618 0
-1265 -200 -666 0
-1265 -200 -583 0
-1265 -200 -607 0
-1265 -200 -655 0
-1265 -200 -589 0
-1265 -200 -613 0
-1265 -200 -661 0
-1265 -200 -595 0
-1265 -200 -619 0
-1265 -200 -667 0
-1265 -201 -588 0
-1265 -201 -612 0
-1265 -201 -660 0
-1265 -201 -594 0
-1265 -201 -618 0
-1265 -201 -666 0
-1265 -201 -589 0
-1265 -201 -613 0
-1265 -201 -661 0
-1265 -201 -595 0
-1265 -201 -619 0
-1265 -201 -667 0
-1265 -202 -594 0
-1265 -202 -618 0
-1265 -202 -666 0
-1265 -202 -595 0
-1265 -202 -619 0
-1265 -202 -667 0
-1265 -203 0
-1265 97 0
-1265 -200 221 0
-1265 -201 222 0
-1265 -202 223 0
-1265 -277 0
-1266 274 0
-1266 -77 -200 -205 0
-1266 -77 -201 -206 0
-1266 -77 -202 -207 0
-1266 71 72 0
-1266 -71 -200 1550 631 0
-1266 -71 -201 1550 637 0
-1266 -71 -202 1550 643 0
-1266 -72 -200 1551 632 0
-1266 -72 -201 1551 638 0
-1266 -72 -202 1551 644 0
-1266 -200 -583 0
-1266 -200 -607 0
-1266 -200 -655 0
-1266 -200 -589 0
-1266 -200 -613 0
-1266 -200 -661 0
-1266 -200 -595 0
-1266 -200 -619 0
-1266 -200 -667 0
-1266 -200 -584 0
-1266 -200 -608 0
-1266 -200 -656 0
-1266 -200 -590 0
-1266 -200 -614 0
-1266 -200 -662 0
-1266 -200 -596 0
-1266 -200 -620 0
-1266 -200 -668 0
-1266 -201 -589 0
-1266 -201 -613 0
-1266 -201 -661 0
-1266 -201 -595 0
-1266 -201 -619 0
-1266 -201 -667 0
-1266 -201 -590 0
-1266 -201 -614 0
-1266 -201 -662 0
-1266 -201 -596 0
-1266 -201 -620 0
-1266 -201 -668 0
-1266 -202 -595 0
-1266 -202 -619 0
-1266 -202 -667 0
-1266 -202 -596 0
-1266 -202 -620 0
-1266 -202 -668 0
-1266 -203 0
-1266 98 0
-1266 -200 221 0
-1266 -201 222 0
-1266 -202 223 0
-1266 -277 0
-1267 274 0
-1267 -78 -200 -205 0
-1267 -78 -201 -206 0
-1267 -78 -202 -207 0
-1267 72 73 0
-1267 -72 -200 1551 632 0
-1267 -72 -201 1551 638 0
-1267 -72 -202 1551 644 0
-1267 -73 -200 1552 633 0
-1267 -73 -201 1552 639 0
-1267 -73 -202 1552 645 0
-1267 -200 -584 0
-1267 -200 -608 0
-1267 -200 -656 0
-1267 -200 -590 0
-1267 -200 -614 0
-1267 -200 -662 0
-1267 -200 -596 0
-1267 -200 -620 0
-1267 -200 -668 0
-1267 -200 -585 0
-1267 -200 -609 0
-1267 -200 -657 0
-1267 -200 -591 0
-1267 -200 -615 0
-1267 -200 -663 0
-1267 -200 -597 0
-1267 -200 -621 0
-1267 -200 -669 0
-1267 -201 -590 0
-1267 -201 -614 0
-1267 -201 -662 0
-1267 -201 -596 0
-1267 -201 -620 0
-1267 -201 -668 0
-1267 -201 -591 0
-1267 -201 -615 0
-1267 -201 -663 0
-1267 -201 -597 0
-1267 -201 -621 0
-1267 -201 -669 0
-1267 -202 -596 0
-1267 -202 -620 0
-1267 -202 -668 0
-1267 -202 -597 0
-1267 -202 -621 0
-1267 -202 -669 0
-1267 -203 0
-1267 99 0
-1267 -200 221 0
-1267 -201 222 0
-1267 -202 223 0
-1267 -277 0
-1268 274 0
-1268 -79 -200 -205 0
-1268 -79 -201 -206 0
-1268 -79 -202 -207 0
-1268 73 74 0
-1268 -73 -200 1552 633 0
-1268 -73 -201 1552 639 0
-1268 -73 -202 1552 645 0
-1268 -74 -200 1553 634 0
-1268 -74 -201 1553 640 0
-1268 -74 -202 1553 646 0
-1268 -200 -585 0
-1268 -200 -609 0
-1268 -200 -657 0
-1268 -200 -591 0
-1268 -200 -615 0
-1268 -200 -663 0
-1268 -200 -597 0
-1268 -200 -621 0
-1268 -200 -669 0
-1268 -200 -586 0
-1268 -200 -610 0
-1268 -200 -658 0
-1268 -200 -592 0
-1268 -200 -616 0
-1268 -200 -664 0
-1268 -200 -598 0
-1268 -200 -622 0
-1268 -200 -670 0
-1268 -201 -591 0
-1268 -201 -615 0
-1268 -201 -663 0
-1268 -201 -597 0
-1268 -201 -621 0
-1268 -201 -669 0
-1268 -201 -592 0
-1268 -201 -616 0
-1268 -201 -664 0
-1268 -201 -598 0
-1268 -201 -622 0
-1268 -201 -670 0
-1268 -202 -597 0
-1268 -202 -621 0
-1268 -202 -669 0
-1268 -202 -598 0
-1268 -202 -622 0
-1268 -202 -670 0
-1268 -203 0
-1268 100 0
-1268 -200 221 0
-1268 -201 222 0
-1268 -202 223 0
-1268 -277 0
-1269 274 0
-1269 -80 -200 -205 0
-1269 -80 -201 -206 0
-1269 -80 -202 -207 0
-1269 74 75 0
-1269 -74 -200 1553 634 0
-1269 -74 -201 1553 640 0
-1269 -74 -202 1553 646 0
-1269 -75 -200 1554 635 0
-1269 -75 -201 1554 641 0
-1269 -75 -202 1554 647 0
-1269 -200 -586 0
-1269 -200 -610 0
-1269 -200 -658 0
-1269 -200 -592 0
-1269 -200 -616 0
-1269 -200 -664 0
-1269 -200 -598 0
-1269 -200 -622 0
-1269 -200 -670 0
-1269 -200 -587 0
-1269 -200 -611 0
-1269 -200 -659 0
-1269 -200 -593 0
-1269 -200 -617 0
-1269 -200 -665 0
-1269 -200 -599 0
-1269 -200 -623 0
-1269 -200 -671 0
-1269 -201 -592 0
-1269 -201 -616 0
-1269 -201 -664 0
-1269 -201 -598 0
-1269 -201 -622 0
-1269 -201 -670 0
-1269 -201 -593 0
-1269 -201 -617 0
-1269 -201 -665 0
-1269 -201 -599 0
-1269 -201 -623 0
-1269 -201 -671 0
-1269 -202 -598 0
-1269 -202 -622 0
-1269 -202 -670 0
-1269 -202 -599 0
-1269 -202 -623 0
-1269 -202 -671 0
-1269 -203 0
-1269 101 0
-1269 -200 221 0
-1269 -201 222 0
-1269 -202 223 0
-1269 -277 0
-1270 274 0
-1270 -76 -208 -205 0
-1270 -76 -209 -206 0
-1270 -76 -210 -207 0
-1270 81 82 0
-1270 -81 -208 1561 630 0
-1270 -81 -209 1561 636 0
-1270 -81 -210 1561 642 0
-1270 -81 -208 1562 631 0
-1270 -81 -209 1562 637 0
-1270 -81 -210 1562 643 0
-1270 -82 -208 1562 631 0
-1270 -82 -209 1562 637 0
-1270 -82 -210 1562 643 0
-1270 -208 -582 0
-1270 -208 -606 0
-1270 -208 -654 0
-1270 -208 -588 0
-1270 -208 -612 0
-1270 -208 -660 0
-1270 -208 -594 0
-1270 -208 -618 0
-1270 -208 -666 0
-1270 -208 -583 0
-1270 -208 -607 0
-1270 -208 -655 0
-1270 -208 -589 0
-1270 -208 -613 0
-1270 -208 -661 0
-1270 -208 -595 0
-1270 -208 -619 0
-1270 -208 -667 0
-1270 -209 -588 0
-1270 -209 -612 0
-1270 -209 -660 0
-1270 -209 -594 0
-1270 -209 -618 0
-1270 -209 -666 0
-1270 -209 -589 0
-1270 -209 -613 0
-1270 -209 -661 0
-1270 -209 -595 0
-1270 -209 -619 0
-1270 -209 -667 0
-1270 -210 -594 0
-1270 -210 -618 0
-1270 -210 -666 0
-1270 -210 -595 0
-1270 -210 -619 0
-1270 -210 -667 0
-1270 -211 0
-1270 97 0
-1270 -208 221 0
-1270 -209 222 0
-1270 -210 223 0
-1270 -279 0
-1271 274 0
-1271 -77 -208 -205 0
-1271 -77 -209 -206 0
-1271 -77 -210 -207 0
-1271 81 82 83 0
-1271 -81 -208 1562 631 0
-1271 -81 -209 1562 637 0
-1271 -81 -210 1562 643 0
-1271 -81 -208 1563 632 0
-1271 -81 -209 1563 638 0
-1271 -81 -210 1563 644 0
-1271 -82 -208 1562 631 0
-1271 -82 -209 1562 637 0
-1271 -82 -210 1562 643 0
-1271 -82 -208 1563 632 0
-1271 -82 -209 1563 638 0
-1271 -82 -210 1563 644 0
-1271 -83 -208 1563 632 0
-1271 -83 -209 1563 638 0
-1271 -83 -210 1563 644 0
-1271 -208 -583 0
-1271 -208 -607 0
-1271 -208 -655 0
-1271 -208 -589 0
-1271 -208 -613 0
-1271 -208 -661 0
-1271 -208 -595 0
-1271 -208 -619 0
-1271 -208 -667 0
-1271 -208 -584 0
-1271 -208 -608 0
-1271 -208 -656 0
-1271 -208 -590 0
-1271 -208 -614 0
-1271 -208 -662 0
-1271 -208 -596 0
-1271 -208 -620 0
-1271 -208 -668 0
-1271 -209 -589 0
-1271 -209 -613 0
-1271 -209 -661 0
-1271 -209 -595 0
-1271 -209 -619 0
-1271 -209 -667 0
-1271 -209 -590 0
-1271 -209 -614 0
-1271 -209 -662 0
-1271 -209 -596 0
-1271 -209 -620 0
-1271 -209 -668 0
-1271 -210 -595 0
-1271 -210 -619 0
-1271 -210 -667 0
-1271 -210 -596 0
-1271 -210 -620 0
-1271 -210 -668 0
-1271 -211 0
-1271 98 0
-1271 -208 221 0
-1271 -209 222 0
-1271 -210 223 0
-1271 -279 0
-1272 274 0
-1272 -78 -208 -205 0
-1272 -78 -209 -206 0
-1272 -78 -210 -207 0
-1272 81 82 83 84 0
-1272 -81 -208 1563 632 0
-1272 -81 -209 1563 638 0
-1272 -81 -210 1563 644 0
-1272 -82 -208 1563 632 0
-1272 -82 -209 1563 638 0
-1272 -82 -210 1563 644 0
-1272 -82 -208 1564 633 0
-1272 -82 -209 1564 639 0
-1272 -82 -210 1564 645 0
-1272 -83 -208 1563 632 0
-1272 -83 -209 1563 638 0
-1272 -83 -210 1563 644 0
-1272 -83 -208 1564 633 0
-1272 -83 -209 1564 639 0
-1272 -83 -210 1564 645 0
-1272 -84 -208 1564 633 0
-1272 -84 -209 1564 639 0
-1272 -84 -210 1564 645 0
-1272 -208 -584 0
-1272 -208 -608 0
-1272 -208 -656 0
-1272 -208 -590 0
-1272 -208 -614 0
-1272 -208 -662 0
-1272 -208 -596 0
-1272 -208 -620 0
-1272 -208 -668 0
-1272 -208 -585 0
-1272 -208 -609 0
-1272 -208 -657 0
-1272 -208 -591 0
-1272 -208 -615 0
-1272 -208 -663 0
-1272 -208 -597 0
-1272 -208 -621 0
-1272 -208 -669 0
-1272 -209 -590 0
-1272 -209 -614 0
-1272 -209 -662 0
-1272 -209 -596 0
-1272 -209 -620 0
-1272 -209 -668 0
-1272 -209 -591 0
-1272 -209 -615 0
-1272 -209 -663 0
-1272 -209 -597 0
-1272 -209 -621 0
-1272 -209 -669 0
-1272 -210 -596 0
-1272 -210 -620 0
-1272 -210 -668 0
-1272 -210 -597 0
-1272 -210 -621 0
-1272 -210 -669 0
-1272 -211 0
-1272 99 0
-1272 -208 221 0
-1272 -209 222 0
-1272 -210 223 0
-1272 -279 0
-1273 274 0
-1273 -79 -208 -205 0
-1273 -79 -209 -206 0
-1273 -79 -210 -207 0
-1273 82 83 84 0
-1273 -82 -208 1564 633 0
-1273 -82 -209 1564 639 0
-1273 -82 -210 1564 645 0
-1273 -83 -208 1564 633 0
-1273 -83 -209 1564 639 0
-1273 -83 -210 1564 645 0
-1273 -83 -208 1565 634 0
-1273 -83 -209 1565 640 0
-1273 -83 -210 1565 646 0
-1273 -84 -208 1564 633 0
-1273 -84 -209 1564 639 0
-1273 -84 -210 1564 645 0
-1273 -84 -208 1565 634 0
-1273 -84 -209 1565 640 0
-1273 -84 -210 1565 646 0
-1273 -208 -585 0
-1273 -208 -609 0
-1273 -208 -657 0
-1273 -208 -591 0
-1273 -208 -615 0
-1273 -208 -663 0
-1273 -208 -597 0
-1273 -208 -621 0
-1273 -208 -669 0
-1273 -208 -586 0
-1273 -208 -610 0
-1273 -208 -658 0
-1273 -208 -592 0
-1273 -208 -616 0
-1273 -208 -664 0
-1273 -208 -598 0
-1273 -208 -622 0
-1273 -208 -670 0
-1273 -209 -591 0
-1273 -209 -615 0
-1273 -209 -663 0
-1273 -209 -597 0
-1273 -209 -621 0
-1273 -209 -669 0
-1273 -209 -592 0
-1273 -209 -616 0
-1273 -209 -664 0
-1273 -209 -598 0
-1273 -209 -622 0
-1273 -209 -670 0
-1273 -210 -597 0
-1273 -210 -621 0
-1273 -210 -669 0
-1273 -210 -598 0
-1273 -210 -622 0
-1273 -210 -670 0
-1273 -211 0
-1273 100 0
-1273 -208 221 0
-1273 -209 222 0
-1273 -210 223 0
-1273 -279 0
-1274 274 0
-1274 -80 -208 -205 0
-1274 -80 -209 -206 0
-1274 -80 -210 -207 0
-1274 83 84 0
-1274 -83 -208 1565 634 0
-1274 -83 -209 1565 640 0
-1274 -83 -210 1565 646 0
-1274 -84 -208 1565 634 0
-1274 -84 -209 1565 640 0
-1274 -84 -210 1565 646 0
-1274 -84 -208 1566 635 0
-1274 -84 -209 1566 641 0
-1274 -84 -210 1566 647 0
-1274 -208 -586 0
-1274 -208 -610 0
-1274 -208 -658 0
-1274 -208 -592 0
-1274 -208 -616 0
-1274 -208 -664 0
-1274 -208 -598 0
-1274 -208 -622 0
-1274 -208 -670 0
-1274 -208 -587 0
-1274 -208 -611 0
-1274 -208 -659 0
-1274 -208 -593 0
-1274 -208 -617 0
-1274 -208 -665 0
-1274 -208 -599 0
-1274 -208 -623 0
-1274 -208 -671 0
-1274 -209 -592 0
-1274 -209 -616 0
-1274 -209 -664 0
-1274 -209 -598 0
-1274 -209 -622 0
-1274 -209 -670 0
-1274 -209 -593 0
-1274 -209 -617 0
-1274 -209 -665 0
-1274 -209 -599 0
-1274 -209 -623 0
-1274 -209 -671 0
-1274 -210 -598 0
-1274 -210 -622 0
-1274 -210 -670 0
-1274 -210 -599 0
-1274 -210 -623 0
-1274 -210 -671 0
-1274 -211 0
-1274 101 0
-1274 -208 221 0
-1274 -209 222 0
-1274 -210 223 0
-1274 -279 0
-1275 274 0
-1275 -76 -204 0
-1275 -576 0
-1275 -600 0
-1275 -648 0
-1275 -582 0
-1275 -606 0
-1275 -654 0
-1275 -588 0
-1275 -612 0
-1275 -660 0
-1275 -594 0
-1275 -618 0
-1275 -666 0
-1275 -577 0
-1275 -601 0
-1275 -649 0
-1275 -583 0
-1275 -607 0
-1275 -655 0
-1275 -589 0
-1275 -613 0
-1275 -661 0
-1275 -595 0
-1275 -619 0
-1275 -667 0
-1275 97 0
-1275 220 0
-1276 274 0
-1276 -77 -204 0
-1276 -577 0
-1276 -601 0
-1276 -649 0
-1276 -583 0
-1276 -607 0
-1276 -655 0
-1276 -589 0
-1276 -613 0
-1276 -661 0
-1276 -595 0
-1276 -619 0
-1276 -667 0
-1276 -578 0
-1276 -602 0
-1276 -650 0
-1276 -584 0
-1276 -608 0
-1276 -656 0
-1276 -590 0
-1276 -614 0
-1276 -662 0
-1276 -596 0
-1276 -620 0
-1276 -668 0
-1276 98 0
-1276 220 0
-1277 274 0
-1277 -78 -204 0
-1277 -578 0
-1277 -602 0
-1277 -650 0
-1277 -584 0
-1277 -608 0
-1277 -656 0
-1277 -590 0
-1277 -614 0
-1277 -662 0
-1277 -596 0
-1277 -620 0
-1277 -668 0
-1277 -579 0
-1277 -603 0
-1277 -651 0
-1277 -585 0
-1277 -609 0
-1277 -657 0
-1277 -591 0
-1277 -615 0
-1277 -663 0
-1277 -597 0
-1277 -621 0
-1277 -669 0
-1277 99 0
-1277 220 0
-1278 274 0
-1278 -79 -204 0
-1278 -579 0
-1278 -603 0
-1278 -651 0
-1278 -585 0
-1278 -609 0
-1278 -657 0
-1278 -591 0
-1278 -615 0
-1278 -663 0
-1278 -597 0
-1278 -621 0
-1278 -669 0
-1278 -580 0
-1278 -604 0
-1278 -652 0
-1278 -586 0
-1278 -610 0
-1278 -658 0
-1278 -592 0
-1278 -616 0
-1278 -664 0
-1278 -598 0
-1278 -622 0
-1278 -670 0
-1278 100 0
-1278 220 0
-1279 274 0
-1279 -80 -204 0
-1279 -580 0
-1279 -604 0
-1279 -652 0
-1279 -586 0
-1279 -610 0
-1279 -658 0
-1279 -592 0
-1279 -616 0
-1279 -664 0
-1279 -598 0
-1279 -622 0
-1279 -670 0
-1279 -581 0
-1279 -605 0
-1279 -653 0
-1279 -587 0
-1279 -611 0
-1279 -659 0
-1279 -593 0
-1279 -617 0
-1279 -665 0
-1279 -599 0
-1279 -623 0
-1279 -671 0
-1279 101 0
-1279 220 0
-1280 275 0
-1280 -81 -196 -209 0
-1280 -81 -197 -210 0
-1280 -81 -198 -211 0
-1280 64 65 66 0
-1280 -64 -196 1543 654 0
-1280 -64 -197 1543 660 0
-1280 -64 -198 1543 666 0
-1280 -65 -196 1544 655 0
-1280 -65 -197 1544 661 0
-1280 -65 -198 1544 667 0
-1280 -66 -196 1545 656 0
-1280 -66 -197 1545 662 0
-1280 -66 -198 1545 668 0
-1280 -196 -582 0
-1280 -196 -606 0
-1280 -196 -630 0
-1280 -196 -588 0
-1280 -196 -612 0
-1280 -196 -636 0
-1280 -196 -594 0
-1280 -196 -618 0
-1280 -196 -642 0
-1280 -196 -583 0
-1280 -196 -607 0
-1280 -196 -631 0
-1280 -196 -589 0
-1280 -196 -613 0
-1280 -196 -637 0
-1280 -196 -595 0
-1280 -196 -619 0
-1280 -196 -643 0
-1280 -196 -584 0
-1280 -196 -608 0
-1280 -196 -632 0
-1280 -196 -590 0
-1280 -196 -614 0
-1280 -196 -638 0
-1280 -196 -596 0
-1280 -196 -620 0
-1280 -196 -644 0
-1280 -197 -588 0
-1280 -197 -612 0
-1280 -197 -636 0
-1280 -197 -594 0
-1280 -197 -618 0
-1280 -197 -642 0
-1280 -197 -589 0
-1280 -197 -613 0
-1280 -197 -637 0
-1280 -197 -595 0
-1280 -197 -619 0
-1280 -197 -643 0
-1280 -197 -590 0
-1280 -197 -614 0
-1280 -197 -638 0
-1280 -197 -596 0
-1280 -197 -620 0
-1280 -197 -644 0
-1280 -198 -594 0
-1280 -198 -618 0
-1280 -198 -642 0
-1280 -198 -595 0
-1280 -198 -619 0
-1280 -198 -643 0
-1280 -198 -596 0
-1280 -198 -620 0
-1280 -198 -644 0
-1280 -199 0
-1280 102 0
-1280 -196 225 0
-1280 -197 226 0
-1280 -198 227 0
-1280 -276 0
-1281 275 0
-1281 -82 -196 -209 0
-1281 -82 -197 -210 0
-1281 -82 -198 -211 0
-1281 65 66 67 0
-1281 -65 -196 1544 655 0
-1281 -65 -197 1544 661 0
-1281 -65 -198 1544 667 0
-1281 -66 -196 1545 656 0
-1281 -66 -197 1545 662 0
-1281 -66 -198 1545 668 0
-1281 -67 -196 1546 657 0
-1281 -67 -197 1546 663 0
-1281 -67 -198 1546 669 0
-1281 -196 -583 0
-1281 -196 -607 0
-1281 -196 -631 0
-1281 -196 -589 0
-1281 -196 -613 0
-1281 -196 -637 0
-1281 -196 -595 0
-1281 -196 -619 0
-1281 -196 -643 0
-1281 -196 -584 0
-1281 -196 -608 0
-1281 -196 -632 0
-1281 -196 -590 0
-1281 -196 -614 0
-1281 -196 -638 0
-1281 -196 -596 0
-1281 -196 -620 0
-1281 -196 -644 0
-1281 -196 -585 0
-1281 -196 -609 0
-1281 -196 -633 0
-1281 -196 -591 0
-1281 -196 -615 0
-1281 -196 -639 0
-1281 -196 -597 0
-1281 -196 -621 0
-1281 -196 -645 0
-1281 -197 -589 0
-1281 -197 -613 0
-1281 -197 -637 0
-1281 -197 -595 0
-1281 -197 -619 0
-1281 -197 -643 0
-1281 -197 -590 0
-1281 -197 -614 0
-1281 -197 -638 0
-1281 -197 -596 0
-1281 -197 -620 0
-1281 -197 -644 0
-1281 -197 -591 0
-1281 -197 -615 0
-1281 -197 -639 0
-1281 -197 -597 0
-1281 -197 -621 0
-1281 -197 -645 0
-1281 -198 -595 0
-1281 -198 -619 0
-1281 -198 -643 0
-1281 -198 -596 0
-1281 -198 -620 0
-1281 -198 -644 0
-1281 -198 -597 0
-1281 -198 -621 0
-1281 -198 -645 0
-1281 -199 0
-1281 103 0
-1281 -196 225 0
-1281 -197 226 0
-1281 -198 227 0
-1281 -276 0
-1282 275 0
-1282 -83 -196 -209 0
-1282 -83 -197 -210 0
-1282 -83 -198 -211 0
-1282 66 67 68 0
-1282 -66 -196 1545 656 0
-1282 -66 -197 1545 662 0
-1282 -66 -198 1545 668 0
-1282 -67 -196 1546 657 0
-1282 -67 -197 1546 663 0
-1282 -67 -198 1546 669 0
-1282 -68 -196 1547 658 0
-1282 -68 -197 1547 664 0
-1282 -68 -198 1547 670 0
-1282 -196 -584 0
-1282 -196 -608 0
-1282 -196 -632 0
-1282 -196 -590 0
-1282 -196 -614 0
-1282 -196 -638 0
-1282 -196 -596 0
-1282 -196 -620 0
-1282 -196 -644 0
-1282 -196 -585 0
-1282 -196 -609 0
-1282 -196 -633 0
-1282 -196 -591 0
-1282 -196 -615 0
-1282 -196 -639 0
-1282 -196 -597 0
-1282 -196 -621 0
-1282 -196 -645 0
-1282 -196 -586 0
-1282 -196 -610 0
-1282 -196 -634 0
-1282 -196 -592 0
-1282 -196 -616 0
-1282 -196 -640 0
-1282 -196 -598 0
-1282 -196 -622 0
-1282 -196 -646 0
-1282 -197 -590 0
-1282 -197 -614 0
-1282 -197 -638 0
-1282 -197 -596 0
-1282 -197 -620 0
-1282 -197 -644 0
-1282 -197 -591 0
-1282 -197 -615 0
-1282 -197 -639 0
-1282 -197 -597 0
-1282 -197 -621 0
-1282 -197 -645 0
-1282 -197 -592 0
-1282 -197 -616 0
-1282 -197 -640 0
-1282 -197 -598 0
-1282 -197 -622 0
-1282 -197 -646 0
-1282 -198 -596 0
-1282 -198 -620 0
-1282 -198 -644 0
-1282 -198 -597 0
-1282 -198 -621 0
-1282 -198 -645 0
-1282 -198 -598 0
-1282 -198 -622 0
-1282 -198 -646 0
-1282 -199 0
-1282 104 0
-1282 -196 225 0
-1282 -197 226 0
-1282 -198 227 0
-1282 -276 0
-1283 275 0
-1283 -84 -196 -209 0
-1283 -84 -197 -210 0
-1283 -84 -198 -211 0
-1283 67 68 69 0
-1283 -67 -196 1546 657 0
-1283 -67 -197 1546 663 0
-1283 -67 -198 1546 669 0
-1283 -68 -196 1547 658 0
-1283 -68 -197 1547 664 0
-1283 -68 -198 1547 670 0
-1283 -69 -196 1548 659 0
-1283 -69 -197 1548 665 0
-1283 -69 -198 1548 671 0
-1283 -196 -585 0
-1283 -196 -609 0
-1283 -196 -633 0
-1283 -196 -591 0
-1283 -196 -615 0
-1283 -196 -639 0
-1283 -196 -597 0
-1283 -196 -621 0
-1283 -196 -645 0
-1283 -196 -586 0
-1283 -196 -610 0
-1283 -196 -634 0
-1283 -196 -592 0
-1283 -196 -616 0
-1283 -196 -640 0
-1283 -196 -598 0
-1283 -196 -622 0
-1283 -196 -646 0
-1283 -196 -587 0
-1283 -196 -611 0
-1283 -196 -635 0
-1283 -196 -593 0
-1283 -196 -617 0
-1283 -196 -641 0
-1283 -196 -599 0
-1283 -196 -623 0
-1283 -196 -647 0
-1283 -197 -591 0
-1283 -197 -615 0
-1283 -197 -639 0
-1283 -197 -597 0
-1283 -197 -621 0
-1283 -197 -645 0
-1283 -197 -592 0
-1283 -197 -616 0
-1283 -197 -640 0
-1283 -197 -598 0
-1283 -197 -622 0
-1283 -197 -646 0
-1283 -197 -593 0
-1283 -197 -617 0
-1283 -197 -641 0
-1283 -197 -599 0
-1283 -197 -623 0
-1283 -197 -647 0
-1283 -198 -597 0
-1283 -198 -621 0
-1283 -198 -645 0
-1283 -198 -598 0
-1283 -198 -622 0
-1283 -198 -646 0
-1283 -198 -599 0
-1283 -198 -623 0
-1283 -198 -647 0
-1283 -199 0
-1283 105 0
-1283 -196 225 0
-1283 -197 226 0
-1283 -198 227 0
-1283 -276 0
-1284 275 0
-1284 -81 -200 -209 0
-1284 -81 -201 -210 0
-1284 -81 -202 -211 0
-1284 70 71 72 0
-1284 -70 -200 1549 654 0
-1284 -70 -201 1549 660 0
-1284 -70 -202 1549 666 0
-1284 -71 -200 1550 655 0
-1284 -71 -201 1550 661 0
-1284 -71 -202 1550 667 0
-1284 -72 -200 1551 656 0
-1284 -72 -201 1551 662 0
-1284 -72 -202 1551 668 0
-1284 -200 -582 0
-1284 -200 -606 0
-1284 -200 -630 0
-1284 -200 -588 0
-1284 -200 -612 0
-1284 -200 -636 0
-1284 -200 -594 0
-1284 -200 -618 0
-1284 -200 -642 0
-1284 -200 -583 0
-1284 -200 -607 0
-1284 -200 -631 0
-1284 -200 -589 0
-1284 -200 -613 0
-1284 -200 -637 0
-1284 -200 -595 0
-1284 -200 -619 0
-1284 -200 -643 0
-1284 -200 -584 0
-1284 -200 -608 0
-1284 -200 -632 0
-1284 -200 -590 0
-1284 -200 -614 0
-1284 -200 -638 0
-1284 -200 -596 0
-1284 -200 -620 0
-1284 -200 -644 0
-1284 -201 -588 0
-1284 -201 -612 0
-1284 -201 -636 0
-1284 -201 -594 0
-1284 -201 -618 0
-1284 -201 -642 0
-1284 -201 -589 0
-1284 -201 -613 0
-1284 -201 -637 0
-1284 -201 -595 0
-1284 -201 -619 0
-1284 -201 -643 0
-1284 -201 -590 0
-1284 -201 -614 0
-1284 -201 -638 0
-1284 -201 -596 0
-1284 -201 -620 0
-1284 -201 -644 0
-1284 -202 -594 0
-1284 -202 -618 0
-1284 -202 -642 0
-1284 -202 -595 0
-1284 -202 -619 0
-1284 -202 -643 0
-1284 -202 -596 0
-1284 -202 -620 0
-1284 -202 -644 0
-1284 -203 0
-1284 102 0
-1284 -200 225 0
-1284 -201 226 0
-1284 -202 227 0
-1284 -277 0
-1285 275 0
-1285 -82 -200 -209 0
-1285 -82 -201 -210 0
-1285 -82 -202 -211 0
-1285 71 72 73 0
-1285 -71 -200 1550 655 0
-1285 -71 -201 1550 661 0
-1285 -71 -202 1550 667 0
-1285 -72 -200 1551 656 0
-1285 -72 -201 1551 662 0
-1285 -72 -202 1551 668 0
-1285 -73 -200 1552 657 0
-1285 -73 -201 1552 663 0
-1285 -73 -202 1552 669 0
-1285 -200 -583 0
-1285 -200 -607 0
-1285 -200 -631 0
-1285 -200 -589 0
-1285 -200 -613 0
-1285 -200 -637 0
-1285 -200 -595 0
-1285 -200 -619 0
-1285 -200 -643 0
-1285 -200 -584 0
-1285 -200 -608 0
-1285 -200 -632 0
-1285 -200 -590 0
-1285 -200 -614 0
-1285 -200 -638 0
-1285 -200 -596 0
-1285 -200 -620 0
-1285 -200 -644 0
-1285 -200 -585 0
-1285 -200 -609 0
-1285 -200 -633 0
-1285 -200 -591 0
-1285 -200 -615 0
-1285 -200 -639 0
-1285 -200 -597 0
-1285 -200 -621 0
-1285 -200 -645 0
-1285 -201 -589 0
-1285 -201 -613 0
-1285 -201 -637 0
-1285 -201 -595 0
-1285 -201 -619 0
-1285 -201 -643 0
-1285 -201 -590 0
-1285 -201 -614 0
-1285 -201 -638 0
-1285 -201 -596 0
-1285 -201 -620 0
-1285 -201 -644 0
-1285 -201 -591 0
-1285 -201 -615 0
-1285 -201 -639 0
-1285 -201 -597 0
-1285 -201 -621 0
-1285 -201 -645 0
-1285 -202 -595 0
-1285 -202 -619 0
-1285 -202 -643 0
-1285 -202 -596 0
-1285 -202 -620 0
-1285 -202 -644 0
-1285 -202 -597 0
-1285 -202 -621 0
-1285 -202 -645 0
-1285 -203 0
-1285 103 0
-1285 -200 225 0
-1285 -201 226 0
-1285 -202 227 0
-1285 -277 0
-1286 275 0
-1286 -83 -200 -209 0
-1286 -83 -201 -210 0
-1286 -83 -202 -211 0
-1286 72 73 74 0
-1286 -72 -200 1551 656 0
-1286 -72 -201 1551 662 0
-1286 -72 -202 1551 668 0
-1286 -73 -200 1552 657 0
-1286 -73 -201 1552 663 0
-1286 -73 -202 1552 669 0
-1286 -74 -200 1553 658 0
-1286 -74 -201 1553 664 0
-1286 -74 -202 1553 670 0
-1286 -200 -584 0
-1286 -200 -608 0
-1286 -200 -632 0
-1286 -200 -590 0
-1286 -200 -614 0
-1286 -200 -638 0
-1286 -200 -596 0
-1286 -200 -620 0
-1286 -200 -644 0
-1286 -200 -585 0
-1286 -200 -609 0
-1286 -200 -633 0
-1286 -200 -591 0
-1286 -200 -615 0
-1286 -200 -639 0
-1286 -200 -597 0
-1286 -200 -621 0
-1286 -200 -645 0
-1286 -200 -586 0
-1286 -200 -610 0
-1286 -200 -634 0
-1286 -200 -592 0
-1286 -200 -616 0
-1286 -200 -640 0
-1286 -200 -598 0
-1286 -200 -622 0
-1286 -200 -646 0
-1286 -201 -590 0
-1286 -201 -614 0
-1286 -201 -638 0
-1286 -201 -596 0
-1286 -201 -620 0
-1286 -201 -644 0
-1286 -201 -591 0
-1286 -201 -615 0
-1286 -201 -639 0
-1286 -201 -597 0
-1286 -201 -621 0
-1286 -201 -645 0
-1286 -201 -592 0
-1286 -201 -616 0
-1286 -201 -640 0
-1286 -201 -598 0
-1286 -201 -622 0
-1286 -201 -646 0
-1286 -202 -596 0
-1286 -202 -620 0
-1286 -202 -644 0
-1286 -202 -597 0
-1286 -202 -621 0
-1286 -202 -645 0
-1286 -202 -598 0
-1286 -202 -622 0
-1286 -202 -646 0
-1286 -203 0
-1286 104 0
-1286 -200 225 0
-1286 -201 226 0
-1286 -202 227 0
-1286 -277 0
-1287 275 0
-1287 -84 -200 -209 0
-1287 -84 -201 -210 0
-1287 -84 -202 -211 0
-1287 73 74 75 0
-1287 -73 -200 1552 657 0
-1287 -73 -201 1552 663 0
-1287 -73 -202 1552 669 0
-1287 -74 -200 1553 658 0
-1287 -74 -201 1553 664 0
-1287 -74 -202 1553 670 0
-1287 -75 -200 1554 659 0
-1287 -75 -201 1554 665 0
-1287 -75 -202 1554 671 0
-1287 -200 -585 0
-1287 -200 -609 0
-1287 -200 -633 0
-1287 -200 -591 0
-1287 -200 -615 0
-1287 -200 -639 0
-1287 -200 -597 0
-1287 -200 -621 0
-1287 -200 -645 0
-1287 -200 -586 0
-1287 -200 -610 0
-1287 -200 -634 0
-1287 -200 -592 0
-1287 -200 -616 0
-1287 -200 -640 0
-1287 -200 -598 0
-1287 -200 -622 0
-1287 -200 -646 0
-1287 -200 -587 0
-1287 -200 -611 0
-1287 -200 -635 0
-1287 -200 -593 0
-1287 -200 -617 0
-1287 -200 -641 0
-1287 -200 -599 0
-1287 -200 -623 0
-1287 -200 -647 0
-1287 -201 -591 0
-1287 -201 -615 0
-1287 -201 -639 0
-1287 -201 -597 0
-1287 -201 -621 0
-1287 -201 -645 0
-1287 -201 -592 0
-1287 -201 -616 0
-1287 -201 -640 0
-1287 -201 -598 0
-1287 -201 -622 0
-1287 -201 -646 0
-1287 -201 -593 0
-1287 -201 -617 0
-1287 -201 -641 0
-1287 -201 -599 0
-1287 -201 -623 0
-1287 -201 -647 0
-1287 -202 -597 0
-1287 -202 -621 0
-1287 -202 -645 0
-1287 -202 -598 0
-1287 -202 -622 0
-1287 -202 -646 0
-1287 -202 -599 0
-1287 -202 -623 0
-1287 -202 -647 0
-1287 -203 0
-1287 105 0
-1287 -200 225 0
-1287 -201 226 0
-1287 -202 227 0
-1287 -277 0
-1288 275 0
-1288 -81 -204 -209 0
-1288 -81 -205 -210 0
-1288 -81 -206 -211 0
-1288 76 77 78 0
-1288 -76 -204 1555 654 0
-1288 -76 -205 1555 660 0
-1288 -76 -206 1555 666 0
-1288 -76 -204 1556 655 0
-1288 -76 -205 1556 661 0
-1288 -76 -206 1556 667 0
-1288 -77 -204 1556 655 0
-1288 -77 -205 1556 661 0
-1288 -77 -206 1556 667 0
-1288 -77 -204 1557 656 0
-1288 -77 -205 1557 662 0
-1288 -77 -206 1557 668 0
-1288 -78 -204 1557 656 0
-1288 -78 -205 1557 662 0
-1288 -78 -206 1557 668 0
-1288 -204 -582 0
-1288 -204 -606 0
-1288 -204 -630 0
-1288 -204 -588 0
-1288 -204 -612 0
-1288 -204 -636 0
-1288 -204 -594 0
-1288 -204 -618 0
-1288 -204 -642 0
-1288 -204 -583 0
-1288 -204 -607 0
-1288 -204 -631 0
-1288 -204 -589 0
-1288 -204 -613 0
-1288 -204 -637 0
-1288 -204 -595 0
-1288 -204 -619 0
-1288 -204 -643 0
-1288 -204 -584 0
-1288 -204 -608 0
-1288 -204 -632 0
-1288 -204 -590 0
-1288 -204 -614 0
-1288 -204 -638 0
-1288 -204 -596 0
-1288 -204 -620 0
-1288 -204 -644 0
-1288 -205 -588 0
-1288 -205 -612 0
-1288 -205 -636 0
-1288 -205 -594 0
-1288 -205 -618 0
-1288 -205 -642 0
-1288 -205 -589 0
-1288 -205 -613 0
-1288 -205 -637 0
-1288 -205 -595 0
-1288 -205 -619 0
-1288 -205 -643 0
-1288 -205 -590 0
-1288 -205 -614 0
-1288 -205 -638 0
-1288 -205 -596 0
-1288 -205 -620 0
-1288 -205 -644 0
-1288 -206 -594 0
-1288 -206 -618 0
-1288 -206 -642 0
-1288 -206 -595 0
-1288 -206 -619 0
-1288 -206 -643 0
-1288 -206 -596 0
-1288 -206 -620 0
-1288 -206 -644 0
-1288 -207 0
-1288 102 0
-1288 -204 225 0
-1288 -205 226 0
-1288 -206 227 0
-1288 -278 0
-1289 275 0
-1289 -82 -204 -209 0
-1289 -82 -205 -210 0
-1289 -82 -206 -211 0
-1289 76 77 78 79 0
-1289 -76 -204 1556 655 0
-1289 -76 -205 1556 661 0
-1289 -76 -206 1556 667 0
-1289 -77 -204 1556 655 0
-1289 -77 -205 1556 661 0
-1289 -77 -206 1556 667 0
-1289 -77 -204 1557 656 0
-1289 -77 -205 1557 662 0
-1289 -77 -206 1557 668 0
-1289 -78 -204 1557 656 0
-1289 -78 -205 1557 662 0
-1289 -78 -206 1557 668 0
-1289 -78 -204 1558 657 0
-1289 -78 -205 1558 663 0
-1289 -78 -206 1558 669 0
-1289 -79 -204 1558 657 0
-1289 -79 -205 1558 663 0
-1289 -79 -206 1558 669 0
-1289 -204 -583 0
-1289 -204 -607 0
-1289 -204 -631 0
-1289 -204 -589 0
-1289 -204 -613 0
-1289 -204 -637 0
-1289 -204 -595 0
-1289 -204 -619 0
-1289 -204 -643 0
-1289 -204 -584 0
-1289 -204 -608 0
-1289 -204 -632 0
-1289 -204 -590 0
-1289 -204 -614 0
-1289 -204 -638 0
-1289 -204 -596 0
-1289 -204 -620 0
-1289 -204 -644 0
-1289 -204 -585 0
-1289 -204 -609 0
-1289 -204 -633 0
-1289 -204 -591 0
-1289 -204 -615 0
-1289 -204 -639 0
-1289 -204 -597 0
-1289 -204 -621 0
-1289 -204 -645 0
-1289 -205 -589 0
-1289 -205 -613 0
-1289 -205 -637 0
-1289 -205 -595 0
-1289 -205 -619 0
-1289 -205 -643 0
-1289 -205 -590 0
-1289 -205 -614 0
-1289 -205 -638 0
-1289 -205 -596 0
-1289 -205 -620 0
-1289 -205 -644 0
-1289 -205 -591 0
-1289 -205 -615 0
-1289 -205 -639 0
-1289 -205 -597 0
-1289 -205 -621 0
-1289 -205 -645 0
-1289 -206 -595 0
-1289 -206 -619 0
-1289 -206 -643 0
-1289 -206 -596 0
-1289 -206 -620 0
-1289 -206 -644 0
-1289 -206 -597 0
-1289 -206 -621 0
-1289 -206 -645 0
-1289 -207 0
-1289 103 0
-1289 -204 225 0
-1289 -205 226 0
-1289 -206 227 0
-1289 -278 0
-1290 275 0
-1290 -83 -204 -209 0
-1290 -83 -205 -210 0
-1290 -83 -206 -211 0
-1290 77 78 79 80 0
-1290 -77 -204 1557 656 0
-1290 -77 -205 1557 662 0
-1290 -77 -206 1557 668 0
-1290 -78 -204 1557 656 0
-1290 -78 -205 1557 662 0
-1290 -78 -206 1557 668 0
-1290 -78 -204 1558 657 0
-1290 -78 -205 1558 663 0
-1290 -78 -206 1558 669 0
-1290 -79 -204 1558 657 0
-1290 -79 -205 1558 663 0
-1290 -79 -206 1558 669 0
-1290 -79 -204 1559 658 0
-1290 -79 -205 1559 664 0
-1290 -79 -206 1559 670 0
-1290 -80 -204 1559 658 0
-1290 -80 -205 1559 664 0
-1290 -80 -206 1559 670 0
-1290 -204 -584 0
-1290 -204 -608 0
-1290 -204 -632 0
-1290 -204 -590 0
-1290 -204 -614 0
-1290 -204 -638 0
-1290 -204 -596 0
-1290 -204 -620 0
-1290 -204 -644 0
-1290 -204 -585 0
-1290 -204 -609 0
-1290 -204 -633 0
-1290 -204 -591 0
-1290 -204 -615 0
-1290 -204 -639 0
-1290 -204 -597 0
-1290 -204 -621 0
-1290 -204 -645 0
-1290 -204 -586 0
-1290 -204 -610 0
-1290 -204 -634 0
-1290 -204 -592 0
-1290 -204 -616 0
-1290 -204 -640 0
-1290 -204 -598 0
-1290 -204 -622 0
-1290 -204 -646 0
-1290 -205 -590 0
-1290 -205 -614 0
-1290 -205 -638 0
-1290 -205 -596 0
-1290 -205 -620 0
-1290 -205 -644 0
-1290 -205 -591 0
-1290 -205 -615 0
-1290 -205 -639 0
-1290 -205 -597 0
-1290 -205 -621 0
-1290 -205 -645 0
-1290 -205 -592 0
-1290 -205 -616 0
-1290 -205 -640 0
-1290 -205 -598 0
-1290 -205 -622 0
-1290 -205 -646 0
-1290 -206 -596 0
-1290 -206 -620 0
-1290 -206 -644 0
-1290 -206 -597 0
-1290 -206 -621 0
-1290 -206 -645 0
-1290 -206 -598 0
-1290 -206 -622 0
-1290 -206 -646 0
-1290 -207 0
-1290 104 0
-1290 -204 225 0
-1290 -205 226 0
-1290 -206 227 0
-1290 -278 0
-1291 275 0
-1291 -84 -204 -209 0
-1291 -84 -205 -210 0
-1291 -84 -206 -211 0
-1291 78 79 80 0
-1291 -78 -204 1558 657 0
-1291 -78 -205 1558 663 0
-1291 -78 -206 1558 669 0
-1291 -79 -204 1558 657 0
-1291 -79 -205 1558 663 0
-1291 -79 -206 1558 669 0
-1291 -79 -204 1559 658 0
-1291 -79 -205 1559 664 0
-1291 -79 -206 1559 670 0
-1291 -80 -204 1559 658 0
-1291 -80 -205 1559 664 0
-1291 -80 -206 1559 670 0
-1291 -80 -204 1560 659 0
-1291 -80 -205 1560 665 0
-1291 -80 -206 1560 671 0
-1291 -204 -585 0
-1291 -204 -609 0
-1291 -204 -633 0
-1291 -204 -591 0
-1291 -204 -615 0
-1291 -204 -639 0
-1291 -204 -597 0
-1291 -204 -621 0
-1291 -204 -645 0
-1291 -204 -586 0
-1291 -204 -610 0
-1291 -204 -634 0
-1291 -204 -592 0
-1291 -204 -616 0
-1291 -204 -640 0
-1291 -204 -598 0
-1291 -204 -622 0
-1291 -204 -646 0
-1291 -204 -587 0
-1291 -204 -611 0
-1291 -204 -635 0
-1291 -204 -593 0
-1291 -204 -617 0
-1291 -204 -641 0
-1291 -204 -599 0
-1291 -204 -623 0
-1291 -204 -647 0
-1291 -205 -591 0
-1291 -205 -615 0
-1291 -205 -639 0
-1291 -205 -597 0
-1291 -205 -621 0
-1291 -205 -645 0
-1291 -205 -592 0
-1291 -205 -616 0
-1291 -205 -640 0
-1291 -205 -598 0
-1291 -205 -622 0
-1291 -205 -646 0
-1291 -205 -593 0
-1291 -205 -617 0
-1291 -205 -641 0
-1291 -205 -599 0
-1291 -205 -623 0
-1291 -205 -647 0
-1291 -206 -597 0
-1291 -206 -621 0
-1291 -206 -645 0
-1291 -206 -598 0
-1291 -206 -622 0
-1291 -206 -646 0
-1291 -206 -599 0
-1291 -206 -623 0
-1291 -206 -647 0
-1291 -207 0
-1291 105 0
-1291 -204 225 0
-1291 -205 226 0
-1291 -206 227 0
-1291 -278 0
-1292 275 0
-1292 -81 -208 0
-1292 -576 0
-1292 -600 0
-1292 -624 0
-1292 -582 0
-1292 -606 0
-1292 -630 0
-1292 -588 0
-1292 -612 0
-1292 -636 0
-1292 -594 0
-1292 -618 0
-1292 -642 0
-1292 -577 0
-1292 -601 0
-1292 -625 0
-1292 -583 0
-1292 -607 0
-1292 -631 0
-1292 -589 0
-1292 -613 0
-1292 -637 0
-1292 -595 0
-1292 -619 0
-1292 -643 0
-1292 -578 0
-1292 -602 0
-1292 -626 0
-1292 -584 0
-1292 -608 0
-1292 -632 0
-1292 -590 0
-1292 -614 0
-1292 -638 0
-1292 -596 0
-1292 -620 0
-1292 -644 0
-1292 102 0
-1292 224 0
-1293 275 0
-1293 -82 -208 0
-1293 -577 0
-1293 -601 0
-1293 -625 0
-1293 -583 0
-1293 -607 0
-1293 -631 0
-1293 -589 0
-1293 -613 0
-1293 -637 0
-1293 -595 0
-1293 -619 0
-1293 -643 0
-1293 -578 0
-1293 -602 0
-1293 -626 0
-1293 -584 0
-1293 -608 0
-1293 -632 0
-1293 -590 0
-1293 -614 0
-1293 -638 0
-1293 -596 0
-1293 -620 0
-1293 -644 0
-1293 -579 0
-1293 -603 0
-1293 -627 0
-1293 -585 0
-1293 -609 0
-1293 -633 0
-1293 -591 0
-1293 -615 0
-1293 -639 0
-1293 -597 0
-1293 -621 0
-1293 -645 0
-1293 103 0
-1293 224 0
-1294 275 0
-1294 -83 -208 0
-1294 -578 0
-1294 -602 0
-1294 -626 0
-1294 -584 0
-1294 -608 0
-1294 -632 0
-1294 -590 0
-1294 -614 0
-1294 -638 0
-1294 -596 0
-1294 -620 0
-1294 -644 0
-1294 -579 0
-1294 -603 0
-1294 -627 0
-1294 -585 0
-1294 -609 0
-1294 -633 0
-1294 -591 0
-1294 -615 0
-1294 -639 0
-1294 -597 0
-1294 -621 0
-1294 -645 0
-1294 -580 0
-1294 -604 0
-1294 -628 0
-1294 -586 0
-1294 -610 0
-1294 -634 0
-1294 -592 0
-1294 -616 0
-1294 -640 0
-1294 -598 0
-1294 -622 0
-1294 -646 0
-1294 104 0
-1294 224 0
-1295 275 0
-1295 -84 -208 0
-1295 -579 0
-1295 -603 0
-1295 -627 0
-1295 -585 0
-1295 -609 0
-1295 -633 0
-1295 -591 0
-1295 -615 0
-1295 -639 0
-1295 -597 0
-1295 -621 0
-1295 -645 0
-1295 -580 0
-1295 -604 0
-1295 -628 0
-1295 -586 0
-1295 -610 0
-1295 -634 0
-1295 -592 0
-1295 -616 0
-1295 -640 0
-1295 -598 0
-1295 -622 0
-1295 -646 0
-1295 -581 0
-1295 -605 0
-1295 -629 0
-1295 -587 0
-1295 -611 0
-1295 -635 0
-1295 -593 0
-1295 -617 0
-1295 -641 0
-1295 -599 0
-1295 -623 0
-1295 -647 0
-1295 105 0
-1295 224 0
64 -85 1212 1213 1214 1215 1216 1217 1218 1219 1220 1221 1222 1223 1224 1225 1226 1227 1228 1229 1230 1231 1232 1233 1234 1235 0
-64 85 1212 1213 1214 1215 1216 1217 1218 1219 1220 1221 1222 1223 1224 1225 1226 1227 1228 1229 1230 1231 1232 1233 1234 1235 0
65 -86 1212 1213 1214 1215 1216 1217 1218 1219 1220 1221 1222 1223 1224 1225 1226 1227 1228 1229 1230 1231 1232 1233 1234 1235 0
-65 86 1212 1213 1214 1215 1216 1217 1218 1219 1220 1221 1222 1223 1224 1225 1226 1227 1228 1229 1230 1231 1232 1233 1234 1235 0
66 -87 1212 1213 1214 1215 1216 1217 1218 1219 1220 1221 1222 1223 1224 1225 1226 1227 1228 1229 1230 1231 1232 1233 1234 1235 0
-66 87 1212 1213 1214 1215 1216 1217 1218 1219 1220 1221 1222 1223 1224 1225 1226 1227 1228 1229 1230 1231 1232 1233 1234 1235 0
67 -88 1212 1213 1214 1215 1216 1217 1218 1219 1220 1221 1222 1223 1224 1225 1226 1227 1228 1229 1230 1231 1232 1233 1234 1235 0
-67 88 1212 1213 1214 1215 1216 1217 1218 1219 1220 1221 1222 1223 1224 1225 1226 1227 1228 1229 1230 1231 1232 1233 1234 1235 0
68 -89 1212 1213 1214 1215 1216 1217 1218 1219 1220 1221 1222 1223 1224 1225 1226 1227 1228 1229 1230 1231 1232 1233 1234 1235 0
-68 89 1212 1213 1214 1215 1216 1217 1218 1219 1220 1221 1222 1223 1224 1225 1226 1227 1228 1229 1230 1231 1232 1233 1234 1235 0
69 -90 1212 1213 1214 1215 1216 1217 1218 1219 1220 1221 1222 1223 1224 1225 1226 1227 1228 1229 1230 1231 1232 1233 1234 1235 0
-69 90 1212 1213 1214 1215 1216 1217 1218 1219 1220 1221 1222 1223 1224 1225 1226 1227 1228 1229 1230 1231 1232 1233 1234 1235 0
196 -212 1212 1213 1214 1215 1216 1217 1218 1219 1220 1221 1222 1223 1224 1225 1226 1227 1228 1229 1230 1231 1232 1233 1234 1235 0
-196 212 1212 1213 1214 1215 1216 1217 1218 1219 1220 1221 1222 1223 1224 1225 1226 1227 1228 1229 1230 1231 1232 1233 1234 1235 0
197 -213 1212 1213 1214 1215 1216 1217 1218 1219 1220 1221 1222 1223 1224 1225 1226 1227 1228 1229 1230 1231 1232 1233 1234 1235 0
-197 213 1212 1213 1214 1215 1216 1217 1218 1219 1220 1221 1222 1223 1224 1225 1226 1227 1228 1229 1230 1231 1232 1233 1234 1235 0
198 -214 1212 1213 1214 1215 1216 1217 1218 1219 1220 1221 1222 1223 1224 1225 1226 1227 1228 1229 1230 1231 1232 1233 1234 1235 0
-198 214 1212 1213 1214 1215 1216 1217 1218 1219 1220 1221 1222 1223 1224 1225 1226 1227 1228 1229 1230 1231 1232 1233 1234 1235 0
199 -215 1212 1213 1214 1215 1216 1217 1218 1219 1220 1221 1222 1223 1224 1225 1226 1227 1228 1229 1230 1231 1232 1233 1234 1235 0
-199 215 1212 1213 1214 1215 1216 1217 1218 1219 1220 1221 1222 1223 1224 1225 1226 1227 1228 1229 1230 1231 1232 1233 1234 1235 0
70 -91 1236 1237 1238 1239 1240 1241 1242 1243 1244 1245 1246 1247 1248 1249 1250 1251 1252 1253 1254 1255 1256 1257 1258 1259 0
-70 91 1236 1237 1238 1239 1240 1241 1242 1243 1244 1245 1246 1247 1248 1249 1250 1251 1252 1253 1254 1255 1256 1257 1258 1259 0
71 -92 1236 1237 1238 1239 1240 1241 1242 1243 1244 1245 1246 1247 1248 1249 1250 1251 1252 1253 1254 1255 1256 1257 1258 1259 0
-71 92 1236 1237 1238 1239 1240 1241 1242 1243 1244 1245 1246 1247 1248 1249 1250 1251 1252 1253 1254 1255 1256 1257 1258 1259 0
72 -93 1236 1237 1238 1239 1240 1241 1242 1243 1244 1245 1246 1247 1248 1249 1250 1251 1252 1253 1254 1255 1256 1257 1258 1259 0
-72 93 1236 1237 1238 1239 1240 1241 1242 1243 1244 1245 1246 1247 1248 1249 1250 1251 1252 1253 1254 1255 1256 1257 1258 1259 0
73 -94 1236 1237 1238 1239 1240 1241 1242 1243 1244 1245 1246 1247 1248 1249 1250 1251 1252 1253 1254 1255 1256 1257 1258 1259 0
-73 94 1236 1237 1238 1239 1240 1241 1242 1243 1244 1245 1246 1247 1248 1249 1250 1251 1252 1253 1254 1255 1256 1257 1258 1259 0
74 -95 1236 1237 1238 1239 1240 1241 1242 1243 1244 1245 1246 1247 1248 1249 1250 1251 1252 1253 1254 1255 1256 1257 1258 1259 0
-74 95 1236 1237 1238 1239 1240 1241 1242 1243 1244 1245 1246 1247 1248 1249 1250 1251 1252 1253 1254 1255 1256 1257 1258 1259 0
75 -96 1236 1237 1238 1239 1240 1241 1242 1243 1244 1245 1246 1247 1248 1249 1250 1251 1252 1253 1254 1255 1256 1257 1258 1259 0
-75 96 1236 1237 1238 1239 1240 1241 1242 1243 1244 1245 1246 1247 1248 1249 1250 1251 1252 1253 1254 1255 1256 1257 1258 1259 0
200 -216 1236 1237 1238 1239 1240 1241 1242 1243 1244 1245 1246 1247 1248 1249 1250 1251 1252 1253 1254 1255 1256 1257 1258 1259 0
-200 216 1236 1237 1238 1239 1240 1241 1242 1243 1244 1245 1246 1247 1248 1249 1250 1251 1252 1253 1254 1255 1256 1257 1258 1259 0
201 -217 1236 1237 1238 1239 1240 1241 1242 1243 1244 1245 1246 1247 1248 1249 1250 1251 1252 1253 1254 1255 1256 1257 1258 1259 0
-201 217 1236 1237 1238 1239 1240 1241 1242 1243 1244 1245 1246 1247 1248 1249 1250 1251 1252 1253 1254 1255 1256 1257 1258 1259 0
202 -218 1236 1237 1238 1239 1240 1241 1242 1243 1244 1245 1246 1247 1248 1249 1250 1251 1252 1253 1254 1255 1256 1257 1258 1259 0
-202 218 1236 1237 1238 1239 1240 1241 1242 1243 1244 1245 1246 1247 1248 1249 1250 1251 1252 1253 1254 1255 1256 1257 1258 1259 0
203 -219 1236 1237 1238 1239 1240 1241 1242 1243 1244 1245 1246 1247 1248 1249 1250 1251 1252 1253 1254 1255 1256 1257 1258 1259 0
-203 219 1236 1237 1238 1239 1240 1241 1242 1243 1244 1245 1246 1247 1248 1249 1250 1251 1252 1253 1254 1255 1256 1257 1258 1259 0
76 -97 1260 1261 1262 1263 1264 1265 1266 1267 1268 1269 1270 1271 1272 1273 1274 1275 1276 1277 1278 1279 0
-76 97 1260 1261 1262 1263 1264 1265 1266 1267 1268 1269 1270 1271 1272 1273 1274 1275 1276 1277 1278 1279 0
77 -98 1260 1261 1262 1263 1264 1265 1266 1267 1268 1269 1270 1271 1272 1273 1274 1275 1276 1277 1278 1279 0
-77 98 1260 1261 1262 1263 1264 1265 1266 1267 1268 1269 1270 1271 1272 1273 1274 1275 1276 1277 1278 1279 0
78 -99 1260 1261 1262 1263 1264 1265 1266 1267 1268 1269 1270 1271 1272 1273 1274 1275 1276 1277 1278 1279 0
-78 99 1260 1261 1262 1263 1264 1265 1266 1267 1268 1269 1270 1271 1272 1273 1274 1275 1276 1277 1278 1279 0
79 -100 1260 1261 1262 1263 1264 1265 1266 1267 1268 1269 1270 1271 1272 1273 1274 1275 1276 1277 1278 1279 0
-79 100 1260 1261 1262 1263 1264 1265 1266 1267 1268 1269 1270 1271 1272 1273 1274 1275 1276 1277 1278 1279 0
80 -101 1260 1261 1262 1263 1264 1265 1266 1267 1268 1269 1270 1271 1272 1273 1274 1275 1276 1277 1278 1279 0
-80 101 1260 1261 1262 1263 1264 1265 1266 1267 1268 1269 1270 1271 1272 1273 1274 1275 1276 1277 1278 1279 0
204 -220 1260 1261 1262 1263 1264 1265 1266 1267 1268 1269 1270 1271 1272 1273 1274 1275 1276 1277 1278 1279 0
-204 220 1260 1261 1262 1263 1264 1265 1266 1267 1268 1269 1270 1271 1272 1273 1274 1275 1276 1277 1278 1279 0
205 -221 1260 1261 1262 1263 1264 1265 1266 1267 1268 1269 1270 1271 1272 1273 1274 1275 1276 1277 1278 1279 0
-205 221 1260 1261 1262 1263 1264 1265 1266 1267 1268 1269 1270 1271 1272 1273 1274 1275 1276 1277 1278 1279 0
206 -222 1260 1261 1262 1263 1264 1265 1266 1267 1268 1269 1270 1271 1272 1273 1274 1275 1276 1277 1278 1279 0
-206 222 1260 1261 1262 1263 1264 1265 1266 1267 1268 1269 1270 1271 1272 1273 1274 1275 1276 1277 1278 1279 0
207 -223 1260 1261 1262 1263 1264 1265 1266 1267 1268 1269 1270 1271 1272 1273 1274 1275 1276 1277 1278 1279 0
-207 223 1260 1261 1262 1263 1264 1265 1266 1267 1268 1269 1270 1271 1272 1273 1274 1275 1276 1277 1278 1279 0
81 -102 1280 1281 1282 1283 1284 1285 1286 1287 1288 1289 1290 1291 1292 1293 1294 1295 0
-81 102 1280 1281 1282 1283 1284 1285 1286 1287 1288 1289 1290 1291 1292 1293 1294 1295 0
82 -103 1280 1281 1282 1283 1284 1285 1286 1287 1288 1289 1290 1291 1292 1293 1294 1295 0
-82 103 1280 1281 1282 1283 1284 1285 1286 1287 1288 1289 1290 1291 1292 1293 1294 1295 0
83 -104 1280 1281 1282 1283 1284 1285 1286 1287 1288 1289 1290 1291 1292 1293 1294 1295 0
-83 104 1280 1281 1282 1283 1284 1285 1286 1287 1288 1289 1290 1291 1292 1293 1294 1295 0
84 -105 1280 1281 1282 1283 1284 1285 1286 1287 1288 1289 1290 1291 1292 1293 1294 1295 0
-84 105 1280 1281 1282 1283 1284 1285 1286 1287 1288 1289 1290 1291 1292 1293 1294 1295 0
208 -224 1280 1281 1282 1283 1284 1285 1286 1287 1288 1289 1290 1291 1292 1293 1294 1295 0
-208 224 1280 1281 1282 1283 1284 1285 1286 1287 1288 1289 1290 1291 1292 1293 1294 1295 0
209 -225 1280 1281 1282 1283 1284 1285 1286 1287 1288 1289 1290 1291 1292 1293 1294 1295 0
-209 225 1280 1281 1282 1283 1284 1285 1286 1287 1288 1289 1290 1291 1292 1293 1294 1295 0
210 -226 1280 1281 1282 1283 1284 1285 1286 1287 1288 1289 1290 1291 1292 1293 1294 1295 0
-210 226 1280 1281 1282 1283 1284 1285 1286 1287 1288 1289 1290 1291 1292 1293 1294 1295 0
211 -227 1280 1281 1282 1283 1284 1285 1286 1287 1288 1289 1290 1291 1292 1293 1294 1295 0
-211 227 1280 1281 1282 1283 1284 1285 1286 1287 1288 1289 1290 1291 1292 1293 1294 1295 0
1212 1213 1214 1215 1216 1217 1218 1219 1220 1221 1222 1223 1224 1225 1226 1227 1228 1229 1230 1231 1232 1233 1234 1235 1236 1237 1238 1239 1240 1241 1242 1243 1244 1245 1246 1247 1248 1249 1250 1251 1252 1253 1254 1255 1256 1257 1258 1259 1260 1261 1262 1263 1264 1265 1266 1267 1268 1269 1270 1271 1272 1273 1274 1275 1276 1277 1278 1279 1280 1281 1282 1283 1284 1285 1286 1287 1288 1289 1290 1291 1292 1293 1294 1295 0
-1212 -1213 0
-1212 -1214 0
-1212 -1215 0
-1212 -1216 0
-1212 -1217 0
-1212 -1218 0
-1212 -1219 0
-1212 -1220 0
-1212 -1221 0
-1212 -1222 0
-1212 -1223 0
-1212 -1224 0
-1212 -1225 0
-1212 -1226 0
-1212 -1227 0
-1212 -1228 0
-1212 -1229 0
-1212 -1230 0
-1212 -1231 0
-1212 -1232 0
-1212 -1233 0
-1212 -1234 0
-1212 -1235 0
-1212 -1236 0
-1212 -1237 0
-1212 -1238 0
-1212 -1239 0
-1212 -1240 0
-1212 -1241 0
-1212 -1242 0
-1212 -1243 0
-1212 -1244 0
-1212 -1245 0
-1212 -1246 0
-1212 -1247 0
-1212 -1248 0
-1212 -1249 0
-1212 -1250 0
-1212 -1251 0
-1212 -1252 0
-1212 -1253 0
-1212 -1254 0
-1212 -1255 0
-1212 -1256 0
-1212 -1257 0
-1212 -1258 0
-1212 -1259 0
-1212 -1260 0
-1212 -1261 0
-1212 -1262 0
-1212 -1263 0
-1212 -1264 0
-1212 -1265 0
-1212 -1266 0
-1212 -1267 0
-1212 -1268 0
-1212 -1269 0
-1212 -1270 0
-1212 -1271 0
-1212 -1272 0
-1212 -1273 0
-1212 -1274 0
-1212 -1275 0
-1212 -1276 0
-1212 -1277 0
-1212 -1278 0
-1212 -1279 0
-1212 -1280 0
-1212 -1281 0
-1212 -1282 0
-1212 -1283 0
-1212 -1284 0
-1212 -1285 0
-1212 -1286 0
-1212 -1287 0
-1212 -1288 0
-1212 -1289 0
-1212 -1290 0
-1212 -1291 0
-1212 -1292 0
-1212 -1293 0
-1212 -1294 0
-1212 -1295 0
-1213 -1214 0
-1213 -1215 0
-1213 -1216 0
-1213 -1217 0
-1213 -1218 0
-1213 -1219 0
-1213 -1220 0
-1213 -1221 0
-1213 -1222 0
-1213 -1223 0
-1213 -1224 0
-1213 -1225 0
-1213 -1226 0
-1213 -1227 0
-1213 -1228 0
-1213 -1229 0
-1213 -1230 0
-1213 -1231 0
-1213 -1232 0
-1213 -1233 0
-1213 -1234 0
-1213 -1235 0
-1213 -1236 0
-1213 -1237 0
-1213 -1238 0
-1213 -1239 0
-1213 -1240 0
-1213 -1241 0
-1213 -1242 0
-1213 -1243 0
-1213 -1244 0
-1213 -1245 0
-1213 -1246 0
-1213 -1247 0
-1213 -1248 0
-1213 -1249 0
-1213 -1250 0
-1213 -1251 0
-1213 -1252 0
-1213 -1253 0
-1213 -1254 0
-1213 -1255 0
-1213 -1256 0
-1213 -1257 0
-1213 -1258 0
-1213 -1259 0
-1213 -1260 0
-1213 -1261 0
-1213 -1262 0
-1213 -1263 0
-1213 -1264 0
-1213 -1265 0
-1213 -1266 0
-1213 -1267 0
-1213 -1268 0
-1213 -1269 0
-1213 -1270 0
-1213 -1271 0
-1213 -1272 0
-1213 -1273 0
-1213 -1274 0
-1213 -1275 0
-1213 -1276 0
-1213 -1277 0
-1213 -1278 0
-1213 -1279 0
-1213 -1280 0
-1213 -1281 0
-1213 -1282 0
-1213 -1283 0
-1213 -1284 0
-1213 -1285 0
-1213 -1286 0
-1213 -1287 0
-1213 -1288 0
-1213 -1289 0
-1213 -1290 0
-1213 -1291 0
-1213 -1292 0
-1213 -1293 0
-1213 -1294 0
-1213 -1295 0
-1214 -1215 0
-1214 -1216 0
-1214 -1217 0
-1214 -1218 0
-1214 -1219 0
-1214 -1220 0
-1214 -1221 0
-1214 -1222 0
-1214 -1223 0
-1214 -1224 0
-1214 -1225 0
-1214 -1226 0
-1214 -1227 0
-1214 -1228 0
-1214 -1229 0
-1214 -1230 0
-1214 -1231 0
-1214 -1232 0
-1214 -1233 0
-1214 -1234 0
-1214 -1235 0
-1214 -1236 0
-1214 -1237 0
-1214 -1238 0
-1214 -1239 0
-1214 -1240 0
-1214 -1241 0
-1214 -1242 0
-1214 -1243 0
-1214 -1244 0
-1214 -1245 0
-1214 -1246 0
-1214 -1247 0
-1214 -1248 0
-1214 -1249 0
-1214 -1250 0
-1214 -1251 0
-1214 -1252 0
-1214 -1253 0
-1214 -1254 0
-1214 -1255 0
-1214 -1256 0
-1214 -1257 0
-1214 -1258 0
-1214 -1259 0
-1214 -1260 0
-1214 -1261 0
-1214 -1262 0
-1214 -1263 0
-1214 -1264 0
-1214 -1265 0
-1214 -1266 0
-1214 -1267 0
-1214 -1268 0
-1214 -1269 0
-1214 -1270 0
-1214 -1271 0
-1214 -1272 0
-1214 -1273 0
-1214 -1274 0
-1214 -1275 0
-1214 -1276 0
-1214 -1277 0
-1214 -1278 0
-1214 -1279 0
-1214 -1280 0
-1214 -1281 0
-1214 -1282 0
-1214 -1283 0
-1214 -1284 0
-1214 -1285 0
-1214 -1286 0
-1214 -1287 0
-1214 -1288 0
-1214 -1289 0
-1214 -1290 0
-1214 -1291 0
-1214 -1292 0
-1214 -1293 0
-1214 -1294 0
-1214 -1295 0
-1215 -1216 0
-1215 -1217 0
-1215 -1218 0
-1215 -1219 0
-1215 -1220 0
-1215 -1221 0
-1215 -1222 0
-1215 -1223 0
-1215 -1224 0
-1215 -1225 0
-1215 -1226 0
-1215 -1227 0
-1215 -1228 0
-1215 -1229 0
-1215 -1230 0
-1215 -1231 0
-1215 -1232 0
-1215 -1233 0
-1215 -1234 0
-1215 -1235 0
-1215 -1236 0
-1215 -1237 0
-1215 -1238 0
-1215 -1239 0
-1215 -1240 0
-1215 -1241 0
-1215 -1242 0
-1215 -1243 0
-1215 -1244 0
-1215 -1245 0
-1215 -1246 0
-1215 -1247 0
-1215 -1248 0
-1215 -1249 0
-1215 -1250 0
-1215 -1251 0
-1215 -1252 0
-1215 -1253 0
-1215 -1254 0
-1215 -1255 0
-1215 -1256 0
-1215 -1257 0
-1215 -1258 0
-1215 -1259 0
-1215 -1260 0
-1215 -1261 0
-1215 -1262 0
-1215 -1263 0
-1215 -1264 0
-1215 -1265 0
-1215 -1266 0
-1215 -1267 0
-1215 -1268 0
-1215 -1269 0
-1215 -1270 0
-1215 -1271 0
-1215 -1272 0
-1215 -1273 0
-1215 -1274 0
-1215 -1275 0
-1215 -1276 0
-1215 -1277 0
-1215 -1278 0
-1215 -1279 0
-1215 -1280 0
-1215 -1281 0
-1215 -1282 0
-1215 -1283 0
-1215 -1284 0
-1215 -1285 0
-1215 -1286 0
-1215 -1287 0
-1215 -1288 0
-1215 -1289 0
-1215 -1290 0
-1215 -1291 0
-1215 -1292 0
-1215 -1293 0
-1215 -1294 0
-1215 -1295 0
-1216 -1217 0
-1216 -1218 0
-1216 -1219 0
-1216 -1220 0
-1216 -1221 0
-1216 -1222 0
-1216 -1223 0
-1216 -1224 0
-1216 -1225 0
-1216 -1226 0
-1216 -1227 0
-1216 -1228 0
-1216 -1229 0
-1216 -1230 0
-1216 -1231 0
-1216 -1232 0
-1216 -1233 0
-1216 -1234 0
-1216 -1235 0
-1216 -1236 0
-1216 -1237 0
-1216 -1238 0
-1216 -1239 0
-1216 -1240 0
-1216 -1241 0
-1216 -1242 0
-1216 -1243 0
-1216 -1244 0
-1216 -1245 0
-1216 -1246 0
-1216 -1247 0
-1216 -1248 0
-1216 -1249 0
-1216 -1250 0
-1216 -1251 0
-1216 -1252 0
-1216 -1253 0
-1216 -1254 0
-1216 -1255 0
-1216 -1256 0
-1216 -1257 0
-1216 -1258 0
-1216 -1259 0
-1216 -1260 0
-1216 -1261 0
-1216 -1262 0
-1216 -1263 0
-1216 -1264 0
-1216 -1265 0
-1216 -1266 0
-1216 -1267 0
-1216 -1268 0
-1216 -1269 0
-1216 -1270 0
-1216 -1271 0
-1216 -1272 0
-1216 -1273 0
-1216 -1274 0
-1216 -1275 0
-1216 -1276 0
-1216 -1277 0
-1216 -1278 0
-1216 -1279 0
-1216 -1280 0
-1216 -1281 0
-1216 -1282 0
-1216 -1283 0
-1216 -1284 0
-1216 -1285 0
-1216 -1286 0
-1216 -1287 0
-1216 -1288 0
-1216 -1289 0
-1216 -1290 0
-1216 -1291 0
-1216 -1292 0
-1216 -1293 0
-1216 -1294 0
-1216 -1295 0
-1217 -1218 0
-1217 -1219 0
-1217 -1220 0
-1217 -1221 0
-1217 -1222 0
-1217 -1223 0
-1217 -1224 0
-1217 -1225 0
-1217 -1226 0
-1217 -1227 0
-1217 -1228 0
-1217 -1229 0
-1217 -1230 0
-1217 -1231 0
-1217 -1232 0
-1217 -1233 0
-1217 -1234 0
-1217 -1235 0
-1217 -1236 0
-1217 -1237 0
-1217 -1238 0
-1217 -1239 0
-1217 -1240 0
-1217 -1241 0
-1217 -1242 0
-1217 -1243 0
-1217 -1244 0
-1217 -1245 0
-1217 -1246 0
-1217 -1247 0
-1217 -1248 0
-1217 -1249 0
-1217 -1250 0
-1217 -1251 0
-1217 -1252 0
-1217 -1253 0
-1217 -1254 0
-1217 -1255 0
-1217 -1256 0
-1217 -1257 0
-1217 -1258 0
-1217 -1259 0
-1217 -1260 0
-1217 -1261 0
-1217 -1262 0
-1217 -1263 0
-1217 -1264 0
-1217 -1265 0
-1217 -1266 0
-1217 -1267 0
-1217 -1268 0
-1217 -1269 0
-1217 -1270 0
-1217 -1271 0
-1217 -1272 0
-1217 -1273 0
-1217 -1274 0
-1217 -1275 0
-1217 -1276 0
-1217 -1277 0
-1217 -1278 0
-1217 -1279 0
-1217 -1280 0
-1217 -1281 0
-1217 -1282 0
-1217 -1283 0
-1217 -1284 0
-1217 -1285 0
-1217 -1286 0
-1217 -1287 0
-1217 -1288 0
-1217 -1289 0
-1217 -1290 0
-1217 -1291 0
-1217 -1292 0
-1217 -1293 0
-1217 -1294 0
-1217 -1295 0
-1218 -1219 0
-1218 -1220 0
-1218 -1221 0
-1218 -1222 0
-1218 -1223 0
-1218 -1224 0
-1218 -1225 0
-1218 -1226 0
-1218 -1227 0
-1218 -1228 0
-1218 -1229 0
-1218 -1230 0
-1218 -1231 0
-1218 -1232 0
-1218 -1233 0
-1218 -1234 0
-1218 -1235 0
-1218 -1236 0
-1218 -1237 0
-1218 -1238 0
-1218 -1239 0
-1218 -1240 0
-1218 -1241 0
-1218 -1242 0
-1218 -1243 0
-1218 -1244 0
-1218 -1245 0
-1218 -1246 0
-1218 -1247 0
-1218 -1248 0
-1218 -1249 0
-1218 -1250 0
-1218 -1251 0
-1218 -1252 0
-1218 -1253 0
-1218 -1254 0
-1218 -1255 0
-1218 -1256 0
-1218 -1257 0
-1218 -1258 0
-1218 -1259 0
-1218 -1260 0
-1218 -1261 0
-1218 -1262 0
-1218 -1263 0
-1218 -1264 0
-1218 -1265 0
-1218 -1266 0
-1218 -1267 0
-1218 -1268 0
-1218 -1269 0
-1218 -1270 0
-1218 -1271 0
-1218 -1272 0
-1218 -1273 0
-1218 -1274 0
-1218 -1275 0
-1218 -1276 0
-1218 -1277 0
-1218 -1278 0
-1218 -1279 0
-1218 -1280 0
-1218 -1281 0
-1218 -1282 0
-1218 -1283 0
-1218 -1284 0
-1218 -1285 0
-1218 -1286 0
-1218 -1287 0
-1218 -1288 0
-1218 -1289 0
-1218 -1290 0
-1218 -1291 0
-1218 -1292 0
-1218 -1293 0
-1218 -1294 0
-1218 -1295 0
-1219 -1220 0
-1219 -1221 0
-1219 -1222 0
-1219 -1223 0
-1219 -1224 0
-1219 -1225 0
-1219 -1226 0
-1219 -1227 0
-1219 -1228 0
-1219 -1229 0
-1219 -1230 0
-1219 -1231 0
-1219 -1232 0
-1219 -1233 0
-1219 -1234 0
-1219 -1235 0
-1219 -1236 0
-1219 -1237 0
-1219 -1238 0
-1219 -1239 0
-1219 -1240 0
-1219 -1241 0
-1219 -1242 0
-1219 -1243 0
-1219 -1244 0
-1219 -1245 0
-1219 -1246 0
-1219 -1247 0
-1219 -1248 0
-1219 -1249 0
-1219 -1250 0
-1219 -1251 0
-1219 -1252 0
-1219 -1253 0
-1219 -1254 0
-1219 -1255 0
-1219 -1256 0
-1219 -1257 0
-1219 -1258 0
-1219 -1259 0
-1219 -1260 0
-1219 -1261 0
-1219 -1262 0
-1219 -1263 0
-1219 -1264 0
-1219 -1265 0
-1219 -1266 0
-1219 -1267 0
-1219 -1268 0
-1219 -1269 0
-1219 -1270 0
-1219 -1271 0
-1219 -1272 0
-1219 -1273 0
-1219 -1274 0
-1219 -1275 0
-1219 -1276 0
-1219 -1277 0
-1219 -1278 0
-1219 -1279 0
-1219 -1280 0
-1219 -1281 0
-1219 -1282 0
-1219 -1283 0
-1219 -1284 0
-1219 -1285 0
-1219 -1286 0
-1219 -1287 0
-1219 -1288 0
-1219 -1289 0
-1219 -1290 0
-1219 -1291 0
-1219 -1292 0
-1219 -1293 0
-1219 -1294 0
-1219 -1295 0
-1220 -1221 0
-1220 -1222 0
-1220 -1223 0
-1220 -1224 0
-1220 -1225 0
-1220 -1226 0
-1220 -1227 0
-1220 -1228 0
-1220 -1229 0
-1220 -1230 0
-1220 -1231 0
-1220 -1232 0
-1220 -1233 0
-1220 -1234 0
-1220 -1235 0
-1220 -1236 0
-1220 -1237 0
-1220 -1238 0
-1220 -1239 0
-1220 -1240 0
-1220 -1241 0
-1220 -1242 0
-1220 -1243 0
-1220 -1244 0
-1220 -1245 0
-1220 -1246 0
-1220 -1247 0
-1220 -1248 0
-1220 -1249 0
-1220 -1250 0
-1220 -1251 0
-1220 -1252 0
-1220 -1253 0
-1220 -1254 0
-1220 -1255 0
-1220 -1256 0
-1220 -1257 0
-1220 -1258 0
-1220 -1259 0
-1220 -1260 0
-1220 -1261 0
-1220 -1262 0
-1220 -1263 0
-1220 -1264 0
-1220 -1265 0
-1220 -1266 0
-1220 -1267 0
-1220 -1268 0
-1220 -1269 0
-1220 -1270 0
-1220 -1271 0
-1220 -1272 0
-1220 -1273 0
-1220 -1274 0
-1220 -1275 0
-1220 -1276 0
-1220 -1277 0
-1220 -1278 0
-1220 -1279 0
-1220 -1280 0
-1220 -1281 0
-1220 -1282 0
-1220 -1283 0
-1220 -1284 0
-1220 -1285 0
-1220 -1286 0
-1220 -1287 0
-1220 -1288 0
-1220 -1289 0
-1220 -1290 0
-1220 -1291 0
-1220 -1292 0
-1220 -1293 0
-1220 -1294 0
-1220 -1295 0
-1221 -1222 0
-1221 -1223 0
-1221 -1224 0
-1221 -1225 0
-1221 -1226 0
-1221 -1227 0
-1221 -1228 0
-1221 -1229 0
-1221 -1230 0
-1221 -1231 0
-1221 -1232 0
-1221 -1233 0
-1221 -1234 0
-1221 -1235 0
-1221 -1236 0
-1221 -1237 0
-1221 -1238 0
-1221 -1239 0
-1221 -1240 0
-1221 -1241 0
-1221 -1242 0
-1221 -1243 0
-1221 -1244 0
-1221 -1245 0
-1221 -1246 0
-1221 -1247 0
-1221 -1248 0
-1221 -1249 0
-1221 -1250 0
-1221 -1251 0
-1221 -1252 0
-1221 -1253 0
-1221 -1254 0
-1221 -1255 0
-1221 -1256 0
-1221 -1257 0
-1221 -1258 0
-1221 -1259 0
-1221 -1260 0
-1221 -1261 0
-1221 -1262 0
-1221 -1263 0
-1221 -1264 0
-1221 -1265 0
-1221 -1266 0
-1221 -1267 0
-1221 -1268 0
-1221 -1269 0
-1221 -1270 0
-1221 -1271 0
-1221 -1272 0
-1221 -1273 0
-1221 -1274 0
-1221 -1275 0
-1221 -1276 0
-1221 -1277 0
-1221 -1278 0
-1221 -1279 0
-1221 -1280 0
-1221 -1281 0
-1221 -1282 0
-1221 -1283 0
-1221 -1284 0
-1221 -1285 0
-1221 -1286 0
-1221 -1287 0
-1221 -1288 0
-1221 -1289 0
-1221 -1290 0
-1221 -1291 0
-1221 -1292 0
-1221 -1293 0
-1221 -1294 0
-1221 -1295 0
-1222 -1223 0
-1222 -1224 0
-1222 -1225 0
-1222 -1226 0
-1222 -1227 0
-1222 -1228 0
-1222 -1229 0
-1222 -1230 0
-1222 -1231 0
-1222 -1232 0
-1222 -1233 0
-1222 -1234 0
-1222 -1235 0
-1222 -1236 0
-1222 -1237 0
-1222 -1238 0
-1222 -1239 0
-1222 -1240 0
-1222 -1241 0
-1222 -1242 0
-1222 -1243 0
-1222 -1244 0
-1222 -1245 0
-1222 -1246 0
-1222 -1247 0
-1222 -1248 0
-1222 -1249 0
-1222 -1250 0
-1222 -1251 0
-1222 -1252 0
-1222 -1253 0
-1222 -1254 0
-1222 -1255 0
-1222 -1256 0
-1222 -1257 0
-1222 -1258 0
-1222 -1259 0
-1222 -1260 0
-1222 -1261 0
-1222 -1262 0
-1222 -1263 0
-1222 -1264 0
-1222 -1265 0
-1222 -1266 0
-1222 -1267 0
-1222 -1268 0
-1222 -1269 0
-1222 -1270 0
-1222 -1271 0
-1222 -1272 0
-1222 -1273 0
-1222 -1274 0
-1222 -1275 0
-1222 -1276 0
-1222 -1277 0
-1222 -1278 0
-1222 -1279 0
-1222 -1280 0
-1222 -1281 0
-1222 -1282 0
-1222 -1283 0
-1222 -1284 0
-1222 -1285 0
-1222 -1286 0
-1222 -1287 0
-1222 -1288 0
-1222 -1289 0
-1222 -1290 0
-1222 -1291 0
-1222 -1292 0
-1222 -1293 0
-1222 -1294 0
-1222 -1295 0
-1223 -1224 0
-1223 -1225 0
-1223 -1226 0
-1223 -1227 0
-1223 -1228 0
-1223 -1229 0
-1223 -1230 0
-1223 -1231 0
-1223 -1232 0
-1223 -1233 0
-1223 -1234 0
-1223 -1235 0
-1223 -1236 0
-1223 -1237 0
-1223 -1238 0
-1223 -1239 0
-1223 -1240 0
-1223 -1241 0
-1223 -1242 0
-1223 -1243 0
-1223 -1244 0
-1223 -1245 0
-1223 -1246 0
-1223 -1247 0
-1223 -1248 0
-1223 -1249 0
-1223 -1250 0
-1223 -1251 0
-1223 -1252 0
-1223 -1253 0
-1223 -1254 0
-1223 -1255 0
-1223 -1256 0
-1223 -1257 0
-1223 -1258 0
-1223 -1259 0
-1223 -1260 0
-1223 -1261 0
-1223 -1262 0
-1223 -1263 0
-1223 -1264 0
-1223 -1265 0
-1223 -1266 0
-1223 -1267 0
-1223 -1268 0
-1223 -1269 0
-1223 -1270 0
-1223 -1271 0
-1223 -1272 0
-1223 -1273 0
-1223 -1274 0
-1223 -1275 0
-1223 -1276 0
-1223 -1277 0
-1223 -1278 0
-1223 -1279 0
-1223 -1280 0
-1223 -1281 0
-1223 -1282 0
-1223 -1283 0
-1223 -1284 0
-1223 -1285 0
-1223 -1286 0
-1223 -1287 0
-1223 -1288 0
-1223 -1289 0
-1223 -1290 0
-1223 -1291 0
-1223 -1292 0
-1223 -1293 0
-1223 -1294 0
-1223 -1295 0
-1224 -1225 0
-1224 -1226 0
-1224 -1227 0
-1224 -1228 0
-1224 -1229 0
-1224 -1230 0
-1224 -1231 0
-1224 -1232 0
-1224 -1233 0
-1224 -1234 0
-1224 -1235 0
-1224 -1236 0
-1224 -1237 0
-1224 -1238 0
-1224 -1239 0
-1224 -1240 0
-1224 -1241 0
-1224 -1242 0
-1224 -1243 0
-1224 -1244 0
-1224 -1245 0
-1224 -1246 0
-1224 -1247 0
-1224 -1248 0
-1224 -1249 0
-1224 -1250 0
-1224 -1251 0
-1224 -1252 0
-1224 -1253 0
-1224 -1254 0
-1224 -1255 0
-1224 -1256 0
-1224 -1257 0
-1224 -1258 0
-1224 -1259 0
-1224 -1260 0
-1224 -1261 0
-1224 -1262 0
-1224 -1263 0
-1224 -1264 0
-1224 -1265 0
-1224 -1266 0
-1224 -1267 0
-1224 -1268 0
-1224 -1269 0
-1224 -1270 0
-1224 -1271 0
-1224 -1272 0
-1224 -1273 0
-1224 -1274 0
-1224 -1275 0
-1224 -1276 0
-1224 -1277 0
-1224 -1278 0
-1224 -1279 0
-1224 -1280 0
-1224 -1281 0
-1224 -1282 0
-1224 -1283 0
-1224 -1284 0
-1224 -1285 0
-1224 -1286 0
-1224 -1287 0
-1224 -1288 0
-1224 -1289 0
-1224 -1290 0
-1224 -1291 0
-1224 -1292 0
-1224 -1293 0
-1224 -1294 0
-1224 -1295 0
-1225 -1226 0
-1225 -1227 0
-1225 -1228 0
-1225 -1229 0
-1225 -1230 0
-1225 -1231 0
-1225 -1232 0
-1225 -1233 0
-1225 -1234 0
-1225 -1235 0
-1225 -1236 0
-1225 -1237 0
-1225 -1238 0
-1225 -1239 0
-1225 -1240 0
-1225 -1241 0
-1225 -1242 0
-1225 -1243 0
-1225 -1244 0
-1225 -1245 0
-1225 -1246 0
-1225 -1247 0
-1225 -1248 0
-1225 -1249 0
-1225 -1250 0
-1225 -1251 0
-1225 -1252 0
-1225 -1253 0
-1225 -1254 0
-1225 -1255 0
-1225 -1256 0
-1225 -1257 0
-1225 -1258 0
-1225 -1259 0
-1225 -1260 0
-1225 -1261 0
-1225 -1262 0
-1225 -1263 0
-1225 -1264 0
-1225 -1265 0
-1225 -1266 0
-1225 -1267 0
-1225 -1268 0
-1225 -1269 0
-1225 -1270 0
-1225 -1271 0
-1225 -1272 0
-1225 -1273 0
-1225 -1274 0
-1225 -1275 0
-1225 -1276 0
-1225 -1277 0
-1225 -1278 0
-1225 -1279 0
-1225 -1280 0
-1225 -1281 0
-1225 -1282 0
-1225 -1283 0
-1225 -1284 0
-1225 -1285 0
-1225 -1286 0
-1225 -1287 0
-1225 -1288 0
-1225 -1289 0
-1225 -1290 0
-1225 -1291 0
-1225 -1292 0
-1225 -1293 0
-1225 -1294 0
-1225 -1295 0
-1226 -1227 0
-1226 -1228 0
-1226 -1229 0
-1226 -1230 0
-1226 -1231 0
-1226 -1232 0
-1226 -1233 0
-1226 -1234 0
-1226 -1235 0
-1226 -1236 0
-1226 -1237 0
-1226 -1238 0
-1226 -1239 0
-1226 -1240 0
-1226 -1241 0
-1226 -1242 0
-1226 -1243 0
-1226 -1244 0
-1226 -1245 0
-1226 -1246 0
-1226 -1247 0
-1226 -1248 0
-1226 -1249 0
-1226 -1250 0
-1226 -1251 0
-1226 -1252 0
-1226 -1253 0
-1226 -1254 0
-1226 -1255 0
-1226 -1256 0
-1226 -1257 0
-1226 -1258 0
-1226 -1259 0
-1226 -1260 0
-1226 -1261 0
-1226 -1262 0
-1226 -1263 0
-1226 -1264 0
-1226 -1265 0
-1226 -1266 0
-1226 -1267 0
-1226 -1268 0
-1226 -1269 0
-1226 -1270 0
-1226 -1271 0
-1226 -1272 0
-1226 -1273 0
-1226 -1274 0
-1226 -1275 0
-1226 -1276 0
-1226 -1277 0
-1226 -1278 0
-1226 -1279 0
-1226 -1280 0
-1226 -1281 0
-1226 -1282 0
-1226 -1283 0
-1226 -1284 0
-1226 -1285 0
-1226 -1286 0
-1226 -1287 0
-1226 -1288 0
-1226 -1289 0
-1226 -1290 0
-1226 -1291 0
-1226 -1292 0
-1226 -1293 0
-1226 -1294 0
-1226 -1295 0
-1227 -1228 0
-1227 -1229 0
-1227 -1230 0
-1227 -1231 0
-1227 -1232 0
-1227 -1233 0
-1227 -1234 0
-1227 -1235 0
-1227 -1236 0
-1227 -1237 0
-1227 -1238 0
-1227 -1239 0
-1227 -1240 0
-1227 -1241 0
-1227 -1242 0
-1227 -1243 0
-1227 -1244 0
-1227 -1245 0
-1227 -1246 0
-1227 -1247 0
-1227 -1248 0
-1227 -1249 0
-1227 -1250 0
-1227 -1251 0
-1227 -1252 0
-1227 -1253 0
-1227 -1254 0
-1227 -1255 0
-1227 -1256 0
-1227 -1257 0
-1227 -1258 0
-1227 -1259 0
-1227 -1260 0
-1227 -1261 0
-1227 -1262 0
-1227 -1263 0
-1227 -1264 0
-1227 -1265 0
-1227 -1266 0
-1227 -1267 0
-1227 -1268 0
-1227 -1269 0
-1227 -1270 0
-1227 -1271 0
-1227 -1272 0
-1227 -1273 0
-1227 -1274 0
-1227 -1275 0
-1227 -1276 0
-1227 -1277 0
-1227 -1278 0
-1227 -1279 0
-1227 -1280 0
-1227 -1281 0
-1227 -1282 0
-1227 -1283 0
-1227 -1284 0
-1227 -1285 0
-1227 -1286 0
-1227 -1287 0
-1227 -1288 0
-1227 -1289 0
-1227 -1290 0
-1227 -1291 0
-1227 -1292 0
-1227 -1293 0
-1227 -1294 0
-1227 -1295 0
-1228 -1229 0
-1228 -1230 0
-1228 -1231 0
-1228 -1232 0
-1228 -1233 0
-1228 -1234 0
-1228 -1235 0
-1228 -1236 0
-1228 -1237 0
-1228 -1238 0
-1228 -1239 0
-1228 -1240 0
-1228 -1241 0
-1228 -1242 0
-1228 -1243 0
-1228 -1244 0
-1228 -1245 0
-1228 -1246 0
-1228 -1247 0
-1228 -1248 0
-1228 -1249 0
-1228 -1250 0
-1228 -1251 0
-1228 -1252 0
-1228 -1253 0
-1228 -1254 0
-1228 -1255 0
-1228 -1256 0
-1228 -1257 0
-1228 -1258 0
-1228 -1259 0
-1228 -1260 0
-1228 -1261 0
-1228 -1262 0
-1228 -1263 0
-1228 -1264 0
-1228 -1265 0
-1228 -1266 0
-1228 -1267 0
-1228 -1268 0
-1228 -1269 0
-1228 -1270 0
-1228 -1271 0
-1228 -1272 0
-1228 -1273 0
-1228 -1274 0
-1228 -1275 0
-1228 -1276 0
-1228 -1277 0
-1228 -1278 0
-1228 -1279 0
-1228 -1280 0
-1228 -1281 0
-1228 -1282 0
-1228 -1283 0
-1228 -1284 0
-1228 -1285 0
-1228 -1286 0
-1228 -1287 0
-1228 -1288 0
-1228 -1289 0
-1228 -1290 0
-1228 -1291 0
-1228 -1292 0
-1228 -1293 0
-1228 -1294 0
-1228 -1295 0
-1229 -1230 0
-1229 -1231 0
-1229 -1232 0
-1229 -1233 0
-1229 -1234 0
-1229 -1235 0
-1229 -1236 0
-1229 -1237 0
-1229 -1238 0
-1229 -1239 0
-1229 -1240 0
-1229 -1241 0
-1229 -1242 0
-1229 -1243 0
-1229 -1244 0
-1229 -1245 0
-1229 -1246 0
-1229 -1247 0
-1229 -1248 0
-1229 -1249 0
-1229 -1250 0
-1229 -1251 0
-1229 -1252 0
-1229 -1253 0
-1229 -1254 0
-1229 -1255 0
-1229 -1256 0
-1229 -1257 0
-1229 -1258 0
-1229 -1259 0
-1229 -1260 0
-1229 -1261 0
-1229 -1262 0
-1229 -1263 0
-1229 -1264 0
-1229 -1265 0
-1229 -1266 0
-1229 -1267 0
-1229 -1268 0
-1229 -1269 0
-1229 -1270 0
-1229 -1271 0
-1229 -1272 0
-1229 -1273 0
-1229 -1274 0
-1229 -1275 0
-1229 -1276 0
-1229 -1277 0
-1229 -1278 0
-1229 -1279 0
-1229 -1280 0
-1229 -1281 0
-1229 -1282 0
-1229 -1283 0
-1229 -1284 0
-1229 -1285 0
-1229 -1286 0
-1229 -1287 0
-1229 -1288 0
-1229 -1289 0
-1229 -1290 0
-1229 -1291 0
-1229 -1292 0
-1229 -1293 0
-1229 -1294 0
-1229 -1295 0
-1230 -1231 0
-1230 -1232 0
-1230 -1233 0
-1230 -1234 0
-1230 -1235 0
-1230 -1236 0
-1230 -1237 0
-1230 -1238 0
-1230 -1239 0
-1230 -1240 0
-1230 -1241 0
-1230 -1242 0
-1230 -1243 0
-1230 -1244 0
-1230 -1245 0
-1230 -1246 0
-1230 -1247 0
-1230 -1248 0
-1230 -1249 0
-1230 -1250 0
-1230 -1251 0
-1230 -1252 0
-1230 -1253 0
-1230 -1254 0
-1230 -1255 0
-1230 -1256 0
-1230 -1257 0
-1230 -1258 0
-1230 -1259 0
-1230 -1260 0
-1230 -1261 0
-1230 -1262 0
-1230 -1263 0
-1230 -1264 0
-1230 -1265 0
-1230 -1266 0
-1230 -1267 0
-1230 -1268 0
-1230 -1269 0
-1230 -1270 0
-1230 -1271 0
-1230 -1272 0
-1230 -1273 0
-1230 -1274 0
-1230 -1275 0
-1230 -1276 0
-1230 -1277 0
-1230 -1278 0
-1230 -1279 0
-1230 -1280 0
-1230 -1281 0
-1230 -1282 0
-1230 -1283 0
-1230 -1284 0
-1230 -1285 0
-1230 -1286 0
-1230 -1287 0
-1230 -1288 0
-1230 -1289 0
-1230 -1290 0
-1230 -1291 0
-1230 -1292 0
-1230 -1293 0
-1230 -1294 0
-1230 -1295 0
-1231 -1232 0
-1231 -1233 0
-1231 -1234 0
-1231 -1235 0
-1231 -1236 0
-1231 -1237 0
-1231 -1238 0
-1231 -1239 0
-1231 -1240 0
-1231 -1241 0
-1231 -1242 0
-1231 -1243 0
-1231 -1244 0
-1231 -1245 0
-1231 -1246 0
-1231 -1247 0
-1231 -1248 0
-1231 -1249 0
-1231 -1250 0
-1231 -1251 0
-1231 -1252 0
-1231 -1253 0
-1231 -1254 0
-1231 -1255 0
-1231 -1256 0
-1231 -1257 0
-1231 -1258 0
-1231 -1259 0
-1231 -1260 0
-1231 -1261 0
-1231 -1262 0
-1231 -1263 0
-1231 -1264 0
-1231 -1265 0
-1231 -1266 0
-1231 -1267 0
-1231 -1268 0
-1231 -1269 0
-1231 -1270 0
-1231 -1271 0
-1231 -1272 0
-1231 -1273 0
-1231 -1274 0
-1231 -1275 0
-1231 -1276 0
-1231 -1277 0
-1231 -1278 0
-1231 -1279 0
-1231 -1280 0
-1231 -1281 0
-1231 -1282 0
-1231 -1283 0
-1231 -1284 0
-1231 -1285 0
-1231 -1286 0
-1231 -1287 0
-1231 -1288 0
-1231 -1289 0
-1231 -1290 0
-1231 -1291 0
-1231 -1292 0
-1231 -1293 0
-1231 -1294 0
-1231 -1295 0
-1232 -1233 0
-1232 -1234 0
-1232 -1235 0
-1232 -1236 0
-1232 -1237 0
-1232 -1238 0
-1232 -1239 0
-1232 -1240 0
-1232 -1241 0
-1232 -1242 0
-1232 -1243 0
-1232 -1244 0
-1232 -1245 0
-1232 -1246 0
-1232 -1247 0
-1232 -1248 0
-1232 -1249 0
-1232 -1250 0
-1232 -1251 0
-1232 -1252 0
-1232 -1253 0
-1232 -1254 0
-1232 -1255 0
-1232 -1256 0
-1232 -1257 0
-1232 -1258 0
-1232 -1259 0
-1232 -1260 0
-1232 -1261 0
-1232 -1262 0
-1232 -1263 0
-1232 -1264 0
-1232 -1265 0
-1232 -1266 0
-1232 -1267 0
-1232 -1268 0
-1232 -1269 0
-1232 -1270 0
-1232 -1271 0
-1232 -1272 0
-1232 -1273 0
-1232 -1274 0
-1232 -1275 0
-1232 -1276 0
-1232 -1277 0
-1232 -1278 0
-1232 -1279 0
-1232 -1280 0
-1232 -1281 0
-1232 -1282 0
-1232 -1283 0
-1232 -1284 0
-1232 -1285 0
-1232 -1286 0
-1232 -1287 0
-1232 -1288 0
-1232 -1289 0
-1232 -1290 0
-1232 -1291 0
-1232 -1292 0
-1232 -1293 0
-1232 -1294 0
-1232 -1295 0
-1233 -1234 0
-1233 -1235 0
-1233 -1236 0
-1233 -1237 0
-1233 -1238 0
-1233 -1239 0
-1233 -1240 0
-1233 -1241 0
-1233 -1242 0
-1233 -1243 0
-1233 -1244 0
-1233 -1245 0
-1233 -1246 0
-1233 -1247 0
-1233 -1248 0
-1233 -1249 0
-1233 -1250 0
-1233 -1251 0
-1233 -1252 0
-1233 -1253 0
-1233 -1254 0
-1233 -1255 0
-1233 -1256 0
-1233 -1257 0
-1233 -1258 0
-1233 -1259 0
-1233 -1260 0
-1233 -1261 0
-1233 -1262 0
-1233 -1263 0
-1233 -1264 0
-1233 -1265 0
-1233 -1266 0
-1233 -1267 0
-1233 -1268 0
-1233 -1269 0
-1233 -1270 0
-1233 -1271 0
-1233 -1272 0
-1233 -1273 0
-1233 -1274 0
-1233 -1275 0
-1233 -1276 0
-1233 -1277 0
-1233 -1278 0
-1233 -1279 0
-1233 -1280 0
-1233 -1281 0
-1233 -1282 0
-1233 -1283 0
-1233 -1284 0
-1233 -1285 0
-1233 -1286 0
-1233 -1287 0
-1233 -1288 0
-1233 -1289 0
-1233 -1290 0
-1233 -1291 0
-1233 -1292 0
-1233 -1293 0
-1233 -1294 0
-1233 -1295 0
-1234 -1235 0
-1234 -1236 0
-1234 -1237 0
-1234 -1238 0
-1234 -1239 0
-1234 -1240 0
-1234 -1241 0
-1234 -1242 0
-1234 -1243 0
-1234 -1244 0
-1234 -1245 0
-1234 -1246 0
-1234 -1247 0
-1234 -1248 0
-1234 -1249 0
-1234 -1250 0
-1234 -1251 0
-1234 -1252 0
-1234 -1253 0
-1234 -1254 0
-1234 -1255 0
-1234 -1256 0
-1234 -1257 0
-1234 -1258 0
-1234 -1259 0
-1234 -1260 0
-1234 -1261 0
-1234 -1262 0
-1234 -1263 0
-1234 -1264 0
-1234 -1265 0
-1234 -1266 0
-1234 -1267 0
-1234 -1268 0
-1234 -1269 0
-1234 -1270 0
-1234 -1271 0
-1234 -1272 0
-1234 -1273 0
-1234 -1274 0
-1234 -1275 0
-1234 -1276 0
-1234 -1277 0
-1234 -1278 0
-1234 -1279 0
-1234 -1280 0
-1234 -1281 0
-1234 -1282 0
-1234 -1283 0
-1234 -1284 0
-1234 -1285 0
-1234 -1286 0
-1234 -1287 0
-1234 -1288 0
-1234 -1289 0
-1234 -1290 0
-1234 -1291 0
-1234 -1292 0
-1234 -1293 0
-1234 -1294 0
-1234 -1295 0
-1235 -1236 0
-1235 -1237 0
-1235 -1238 0
-1235 -1239 0
-1235 -1240 0
-1235 -1241 0
-1235 -1242 0
-1235 -1243 0
-1235 -1244 0
-1235 -1245 0
-1235 -1246 0
-1235 -1247 0
-1235 -1248 0
-1235 -1249 0
-1235 -1250 0
-1235 -1251 0
-1235 -1252 0
-1235 -1253 0
-1235 -1254 0
-1235 -1255 0
-1235 -1256 0
-1235 -1257 0
-1235 -1258 0
-1235 -1259 0
-1235 -1260 0
-1235 -1261 0
-1235 -1262 0
-1235 -1263 0
-1235 -1264 0
-1235 -1265 0
-1235 -1266 0
-1235 -1267 0
-1235 -1268 0
-1235 -1269 0
-1235 -1270 0
-1235 -1271 0
-1235 -1272 0
-1235 -1273 0
-1235 -1274 0
-1235 -1275 0
-1235 -1276 0
-1235 -1277 0
-1235 -1278 0
-1235 -1279 0
-1235 -1280 0
-1235 -1281 0
-1235 -1282 0
-1235 -1283 0
-1235 -1284 0
-1235 -1285 0
-1235 -1286 0
-1235 -1287 0
-1235 -1288 0
-1235 -1289 0
-1235 -1290 0
-1235 -1291 0
-1235 -1292 0
-1235 -1293 0
-1235 -1294 0
-1235 -1295 0
-1236 -1237 0
-1236 -1238 0
-1236 -1239 0
-1236 -1240 0
-1236 -1241 0
-1236 -1242 0
-1236 -1243 0
-1236 -1244 0
-1236 -1245 0
-1236 -1246 0
-1236 -1247 0
-1236 -1248 0
-1236 -1249 0
-1236 -1250 0
-1236 -1251 0
-1236 -1252 0
-1236 -1253 0
-1236 -1254 0
-1236 -1255 0
-1236 -1256 0
-1236 -1257 0
-1236 -1258 0
-1236 -1259 0
-1236 -1260 0
-1236 -1261 0
-1236 -1262 0
-1236 -1263 0
-1236 -1264 0
-1236 -1265 0
-1236 -1266 0
-1236 -1267 0
-1236 -1268 0
-1236 -1269 0
-1236 -1270 0
-1236 -1271 0
-1236 -1272 0
-1236 -1273 0
-1236 -1274 0
-1236 -1275 0
-1236 -1276 0
-1236 -1277 0
-1236 -1278 0
-1236 -1279 0
-1236 -1280 0
-1236 -1281 0
-1236 -1282 0
-1236 -1283 0
-1236 -1284 0
-1236 -1285 0
-1236 -1286 0
-1236 -1287 0
-1236 -1288 0
-1236 -1289 0
-1236 -1290 0
-1236 -1291 0
-1236 -1292 0
-1236 -1293 0
-1236 -1294 0
-1236 -1295 0
-1237 -1238 0
-1237 -1239 0
-1237 -1240 0
-1237 -1241 0
-1237 -1242 0
-1237 -1243 0
-1237 -1244 0
-1237 -1245 0
-1237 -1246 0
-1237 -1247 0
-1237 -1248 0
-1237 -1249 0
-1237 -1250 0
-1237 -1251 0
-1237 -1252 0
-1237 -1253 0
-1237 -1254 0
-1237 -1255 0
-1237 -1256 0
-1237 -1257 0
-1237 -1258 0
-1237 -1259 0
-1237 -1260 0
-1237 -1261 0
-1237 -1262 0
-1237 -1263 0
-1237 -1264 0
-1237 -1265 0
-1237 -1266 0
-1237 -1267 0
-1237 -1268 0
-1237 -1269 0
-1237 -1270 0
-1237 -1271 0
-1237 -1272 0
-1237 -1273 0
-1237 -1274 0
-1237 -1275 0
-1237 -1276 0
-1237 -1277 0
-1237 -1278 0
-1237 -1279 0
-1237 -1280 0
-1237 -1281 0
-1237 -1282 0
-1237 -1283 0
-1237 -1284 0
-1237 -1285 0
-1237 -1286 0
-1237 -1287 0
-1237 -1288 0
-1237 -1289 0
-1237 -1290 0
-1237 -1291 0
-1237 -1292 0
-1237 -1293 0
-1237 -1294 0
-1237 -1295 0
-1238 -1239 0
-1238 -1240 0
-1238 -1241 0
-1238 -1242 0
-1238 -1243 0
-1238 -1244 0
-1238 -1245 0
-1238 -1246 0
-1238 -1247 0
-1238 -1248 0
-1238 -1249 0
-1238 -1250 0
-1238 -1251 0
-1238 -1252 0
-1238 -1253 0
-1238 -1254 0
-1238 -1255 0
-1238 -1256 0
-1238 -1257 0
-1238 -1258 0
-1238 -1259 0
-1238 -1260 0
-1238 -1261 0
-1238 -1262 0
-1238 -1263 0
-1238 -1264 0
-1238 -1265 0
-1238 -1266 0
-1238 -1267 0
-1238 -1268 0
-1238 -1269 0
-1238 -1270 0
-1238 -1271 0
-1238 -1272 0
-1238 -1273 0
-1238 -1274 0
-1238 -1275 0
-1238 -1276 0
-1238 -1277 0
-1238 -1278 0
-1238 -1279 0
-1238 -1280 0
-1238 -1281 0
-1238 -1282 0
-1238 -1283 0
-1238 -1284 0
-1238 -1285 0
-1238 -1286 0
-1238 -1287 0
-1238 -1288 0
-1238 -1289 0
-1238 -1290 0
-1238 -1291 0
-1238 -1292 0
-1238 -1293 0
-1238 -1294 0
-1238 -1295 0
-1239 -1240 0
-1239 -1241 0
-1239 -1242 0
-1239 -1243 0
-1239 -1244 0
-1239 -1245 0
-1239 -1246 0
-1239 -1247 0
-1239 -1248 0
-1239 -1249 0
-1239 -1250 0
-1239 -1251 0
-1239 -1252 0
-1239 -1253 0
-1239 -1254 0
-1239 -1255 0
-1239 -1256 0
-1239 -1257 0
-1239 -1258 0
-1239 -1259 0
-1239 -1260 0
-1239 -1261 0
-1239 -1262 0
-1239 -1263 0
-1239 -1264 0
-1239 -1265 0
-1239 -1266 0
-1239 -1267 0
-1239 -1268 0
-1239 -1269 0
-1239 -1270 0
-1239 -1271 0
-1239 -1272 0
-1239 -1273 0
-1239 -1274 0
-1239 -1275 0
-1239 -1276 0
-1239 -1277 0
-1239 -1278 0
-1239 -1279 0
-1239 -1280 0
-1239 -1281 0
-1239 -1282 0
-1239 -1283 0
-1239 -1284 0
-1239 -1285 0
-1239 -1286 0
-1239 -1287 0
-1239 -1288 0
-1239 -1289 0
-1239 -1290 0
-1239 -1291 0
-1239 -1292 0
-1239 -1293 0
-1239 -1294 0
-1239 -1295 0
-1240 -1241 0
-1240 -1242 0
-1240 -1243 0
-1240 -1244 0
-1240 -1245 0
-1240 -1246 0
-1240 -1247 0
-1240 -1248 0
-1240 -1249 0
-1240 -1250 0
-1240 -1251 0
-1240 -1252 0
-1240 -1253 0
-1240 -1254 0
-1240 -1255 0
-1240 -1256 0
-1240 -1257 0
-1240 -1258 0
-1240 -1259 0
-1240 -1260 0
-1240 -1261 0
-1240 -1262 0
-1240 -1263 0
-1240 -1264 0
-1240 -1265 0
-1240 -1266 0
-1240 -1267 0
-1240 -1268 0
-1240 -1269 0
-1240 -1270 0
-1240 -1271 0
-1240 -1272 0
-1240 -1273 0
-1240 -1274 0
-1240 -1275 0
-1240 -1276 0
-1240 -1277 0
-1240 -1278 0
-1240 -1279 0
-1240 -1280 0
-1240 -1281 0
-1240 -1282 0
-1240 -1283 0
-1240 -1284 0
-1240 -1285 0
-1240 -1286 0
-1240 -1287 0
-1240 -1288 0
-1240 -1289 0
-1240 -1290 0
-1240 -1291 0
-1240 -1292 0
-1240 -1293 0
-1240 -1294 0
-1240 -1295 0
-1241 -1242 0
-1241 -1243 0
-1241 -1244 0
-1241 -1245 0
-1241 -1246 0
-1241 -1247 0
-1241 -1248 0
-1241 -1249 0
-1241 -1250 0
-1241 -1251 0
-1241 -1252 0
-1241 -1253 0
-1241 -1254 0
-1241 -1255 0
-1241 -1256 0
-1241 -1257 0
-1241 -1258 0
-1241 -1259 0
-1241 -1260 0
-1241 -1261 0
-1241 -1262 0
-1241 -1263 0
-1241 -1264 0
-1241 -1265 0
-1241 -1266 0
-1241 -1267 0
-1241 -1268 0
-1241 -1269 0
-1241 -1270 0
-1241 -1271 0
-1241 -1272 0
-1241 -1273 0
-1241 -1274 0
-1241 -1275 0
-1241 -1276 0
-1241 -1277 0
-1241 -1278 0
-1241 -1279 0
-1241 -1280 0
-1241 -1281 0
-1241 -1282 0
-1241 -1283 0
-1241 -1284 0
-1241 -1285 0
-1241 -1286 0
-1241 -1287 0
-1241 -1288 0
-1241 -1289 0
-1241 -1290 0
-1241 -1291 0
-1241 -1292 0
-1241 -1293 0
-1241 -1294 0
-1241 -1295 0
-1242 -1243 0
-1242 -1244 0
-1242 -1245 0
-1242 -1246 0
-1242 -1247 0
-1242 -1248 0
-1242 -1249 0
-1242 -1250 0
-1242 -1251 0
-1242 -1252 0
-1242 -1253 0
-1242 -1254 0
-1242 -1255 0
-1242 -1256 0
-1242 -1257 0
-1242 -1258 0
-1242 -1259 0
-1242 -1260 0
-1242 -1261 0
-1242 -1262 0
-1242 -1263 0
-1242 -1264 0
-1242 -1265 0
-1242 -1266 0
-1242 -1267 0
-1242 -1268 0
-1242 -1269 0
-1242 -1270 0
-1242 -1271 0
-1242 -1272 0
-1242 -1273 0
-1242 -1274 0
-1242 -1275 0
-1242 -1276 0
-1242 -1277 0
-1242 -1278 0
-1242 -1279 0
-1242 -1280 0
-1242 -1281 0
-1242 -1282 0
-1242 -1283 0
-1242 -1284 0
-1242 -1285 0
-1242 -1286 0
-1242 -1287 0
-1242 -1288 0
-1242 -1289 0
-1242 -1290 0
-1242 -1291 0
-1242 -1292 0
-1242 -1293 0
-1242 -1294 0
-1242 -1295 0
-1243 -1244 0
-1243 -1245 0
-1243 -1246 0
-1243 -1247 0
-1243 -1248 0
-1243 -1249 0
-1243 -1250 0
-1243 -1251 0
-1243 -1252 0
-1243 -1253 0
-1243 -1254 0
-1243 -1255 0
-1243 -1256 0
-1243 -1257 0
-1243 -1258 0
-1243 -1259 0
-1243 -1260 0
-1243 -1261 0
-1243 -1262 0
-1243 -1263 0
-1243 -1264 0
-1243 -1265 0
-1243 -1266 0
-1243 -1267 0
-1243 -1268 0
-1243 -1269 0
-1243 -1270 0
-1243 -1271 0
-1243 -1272 0
-1243 -1273 0
-1243 -1274 0
-1243 -1275 0
-1243 -1276 0
-1243 -1277 0
-1243 -1278 0
-1243 -1279 0
-1243 -1280 0
-1243 -1281 0
-1243 -1282 0
-1243 -1283 0
-1243 -1284 0
-1243 -1285 0
-1243 -1286 0
-1243 -1287 0
-1243 -1288 0
-1243 -1289 0
-1243 -1290 0
-1243 -1291 0
-1243 -1292 0
-1243 -1293 0
-1243 -1294 0
-1243 -1295 0
-1244 -1245 0
-1244 -1246 0
-1244 -1247 0
-1244 -1248 0
-1244 -1249 0
-1244 -1250 0
-1244 -1251 0
-1244 -1252 0
-1244 -1253 0
-1244 -1254 0
-1244 -1255 0
-1244 -1256 0
-1244 -1257 0
-1244 -1258 0
-1244 -1259 0
-1244 -1260 0
-1244 -1261 0
-1244 -1262 0
-1244 -1263 0
-1244 -1264 0
-1244 -1265 0
-1244 -1266 0
-1244 -1267 0
-1244 -1268 0
-1244 -1269 0
-1244 -1270 0
-1244 -1271 0
-1244 -1272 0
-1244 -1273 0
-1244 -1274 0
-1244 -1275 0
-1244 -1276 0
-1244 -1277 0
-1244 -1278 0
-1244 -1279 0
-1244 -1280 0
-1244 -1281 0
-1244 -1282 0
-1244 -1283 0
-1244 -1284 0
-1244 -1285 0
-1244 -1286 0
-1244 -1287 0
-1244 -1288 0
-1244 -1289 0
-1244 -1290 0
-1244 -1291 0
-1244 -1292 0
-1244 -1293 0
-1244 -1294 0
-1244 -1295 0
-1245 -1246 0
-1245 -1247 0
-1245 -1248 0
-1245 -1249 0
-1245 -1250 0
-1245 -1251 0
-1245 -1252 0
-1245 -1253 0
-1245 -1254 0
-1245 -1255 0
-1245 -1256 0
-1245 -1257 0
-1245 -1258 0
-1245 -1259 0
-1245 -1260 0
-1245 -1261 0
-1245 -1262 0
-1245 -1263 0
-1245 -1264 0
-1245 -1265 0
-1245 -1266 0
-1245 -1267 0
-1245 -1268 0
-1245 -1269 0
-1245 -1270 0
-1245 -1271 0
-1245 -1272 0
-1245 -1273 0
-1245 -1274 0
-1245 -1275 0
-1245 -1276 0
-1245 -1277 0
-1245 -1278 0
-1245 -1279 0
-1245 -1280 0
-1245 -1281 0
-1245 -1282 0
-1245 -1283 0
-1245 -1284 0
-1245 -1285 0
-1245 -1286 0
-1245 -1287 0
-1245 -1288 0
-1245 -1289 0
-1245 -1290 0
-1245 -1291 0
-1245 -1292 0
-1245 -1293 0
-1245 -1294 0
-1245 -1295 0
-1246 -1247 0
-1246 -1248 0
-1246 -1249 0
-1246 -1250 0
-1246 -1251 0
-1246 -1252 0
-1246 -1253 0
-1246 -1254 0
-1246 -1255 0
-1246 -1256 0
-1246 -1257 0
-1246 -1258 0
-1246 -1259 0
-1246 -1260 0
-1246 -1261 0
-1246 -1262 0
-1246 -1263 0
-1246 -1264 0
-1246 -1265 0
-1246 -1266 0
-1246 -1267 0
-1246 -1268 0
-1246 -1269 0
-1246 -1270 0
-1246 -1271 0
-1246 -1272 0
-1246 -1273 0
-1246 -1274 0
-1246 -1275 0
-1246 -1276 0
-1246 -1277 0
-1246 -1278 0
-1246 -1279 0
-1246 -1280 0
-1246 -1281 0
-1246 -1282 0
-1246 -1283 0
-1246 -1284 0
-1246 -1285 0
-1246 -1286 0
-1246 -1287 0
-1246 -1288 0
-1246 -1289 0
-1246 -1290 0
-1246 -1291 0
-1246 -1292 0
-1246 -1293 0
-1246 -1294 0
-1246 -1295 0
-1247 -1248 0
-1247 -1249 0
-1247 -1250 0
-1247 -1251 0
-1247 -1252 0
-1247 -1253 0
-1247 -1254 0
-1247 -1255 0
-1247 -1256 0
-1247 -1257 0
-1247 -1258 0
-1247 -1259 0
-1247 -1260 0
-1247 -1261 0
-1247 -1262 0
-1247 -1263 0
-1247 -1264 0
-1247 -1265 0
-1247 -1266 0
-1247 -1267 0
-1247 -1268 0
-1247 -1269 0
-1247 -1270 0
-1247 -1271 0
-1247 -1272 0
-1247 -1273 0
-1247 -1274 0
-1247 -1275 0
-1247 -1276 0
-1247 -1277 0
-1247 -1278 0
-1247 -1279 0
-1247 -1280 0
-1247 -1281 0
-1247 -1282 0
-1247 -1283 0
-1247 -1284 0
-1247 -1285 0
-1247 -1286 0
-1247 -1287 0
-1247 -1288 0
-1247 -1289 0
-1247 -1290 0
-1247 -1291 0
-1247 -1292 0
-1247 -1293 0
-1247 -1294 0
-1247 -1295 0
-1248 -1249 0
-1248 -1250 0
-1248 -1251 0
-1248 -1252 0
-1248 -1253 0
-1248 -1254 0
-1248 -1255 0
-1248 -1256 0
-1248 -1257 0
-1248 -1258 0
-1248 -1259 0
-1248 -1260 0
-1248 -1261 0
-1248 -1262 0
-1248 -1263 0
-1248 -1264 0
-1248 -1265 0
-1248 -1266 0
-1248 -1267 0
-1248 -1268 0
-1248 -1269 0
-1248 -1270 0
-1248 -1271 0
-1248 -1272 0
-1248 -1273 0
-1248 -1274 0
-1248 -1275 0
-1248 -1276 0
-1248 -1277 0
-1248 -1278 0
-1248 -1279 0
-1248 -1280 0
-1248 -1281 0
-1248 -1282 0
-1248 -1283 0
-1248 -1284 0
-1248 -1285 0
-1248 -1286 0
-1248 -1287 0
-1248 -1288 0
-1248 -1289 0
-1248 -1290 0
-1248 -1291 0
-1248 -1292 0
-1248 -1293 0
-1248 -1294 0
-1248 -1295 0
-1249 -1250 0
-1249 -1251 0
-1249 -1252 0
-1249 -1253 0
-1249 -1254 0
-1249 -1255 0
-1249 -1256 0
-1249 -1257 0
-1249 -1258 0
-1249 -1259 0
-1249 -1260 0
-1249 -1261 0
-1249 -1262 0
-1249 -1263 0
-1249 -1264 0
-1249 -1265 0
-1249 -1266 0
-1249 -1267 0
-1249 -1268 0
-1249 -1269 0
-1249 -1270 0
-1249 -1271 0
-1249 -1272 0
-1249 -1273 0
-1249 -1274 0
-1249 -1275 0
-1249 -1276 0
-1249 -1277 0
-1249 -1278 0
-1249 -1279 0
-1249 -1280 0
-1249 -1281 0
-1249 -1282 0
-1249 -1283 0
-1249 -1284 0
-1249 -1285 0
-1249 -1286 0
-1249 -1287 0
-1249 -1288 0
-1249 -1289 0
-1249 -1290 0
-1249 -1291 0
-1249 -1292 0
-1249 -1293 0
-1249 -1294 0
-1249 -1295 0
-1250 -1251 0
-1250 -1252 0
-1250 -1253 0
-1250 -1254 0
-1250 -1255 0
-1250 -1256 0
-1250 -1257 0
-1250 -1258 0
-1250 -1259 0
-1250 -1260 0
-1250 -1261 0
-1250 -1262 0
-1250 -1263 0
-1250 -1264 0
-1250 -1265 0
-1250 -1266 0
-1250 -1267 0
-1250 -1268 0
-1250 -1269 0
-1250 -1270 0
-1250 -1271 0
-1250 -1272 0
-1250 -1273 0
-1250 -1274 0
-1250 -1275 0
-1250 -1276 0
-1250 -1277 0
-1250 -1278 0
-1250 -1279 0
-1250 -1280 0
-1250 -1281 0
-1250 -1282 0
-1250 -1283 0
-1250 -1284 0
-1250 -1285 0
-1250 -1286 0
-1250 -1287 0
-1250 -1288 0
-1250 -1289 0
-1250 -1290 0
-1250 -1291 0
-1250 -1292 0
-1250 -1293 0
-1250 -1294 0
-1250 -1295 0
-1251 -1252 0
-1251 -1253 0
-1251 -1254 0
-1251 -1255 0
-1251 -1256 0
-1251 -1257 0
-1251 -1258 0
-1251 -1259 0
-1251 -1260 0
-1251 -1261 0
-1251 -1262 0
-1251 -1263 0
-1251 -1264 0
-1251 -1265 0
-1251 -1266 0
-1251 -1267 0
-1251 -1268 0
-1251 -1269 0
-1251 -1270 0
-1251 -1271 0
-1251 -1272 0
-1251 -1273 0
-1251 -1274 0
-1251 -1275 0
-1251 -1276 0
-1251 -1277 0
-1251 -1278 0
-1251 -1279 0
-1251 -1280 0
-1251 -1281 0
-1251 -1282 0
-1251 -1283 0
-1251 -1284 0
-1251 -1285 0
-1251 -1286 0
-1251 -1287 0
-1251 -1288 0
-1251 -1289 0
-1251 -1290 0
-1251 -1291 0
-1251 -1292 0
-1251 -1293 0
-1251 -1294 0
-1251 -1295 0
-1252 -1253 0
-1252 -1254 0
-1252 -1255 0
-1252 -1256 0
-1252 -1257 0
-1252 -1258 0
-1252 -1259 0
-1252 -1260 0
-1252 -1261 0
-1252 -1262 0
-1252 -1263 0
-1252 -1264 0
-1252 -1265 0
-1252 -1266 0
-1252 -1267 0
-1252 -1268 0
-1252 -1269 0
-1252 -1270 0
-1252 -1271 0
-1252 -1272 0
-1252 -1273 0
-1252 -1274 0
-1252 -1275 0
-1252 -1276 0
-1252 -1277 0
-1252 -1278 0
-1252 -1279 0
-1252 -1280 0
-1252 -1281 0
-1252 -1282 0
-1252 -1283 0
-1252 -1284 0
-1252 -1285 0
-1252 -1286 0
-1252 -1287 0
-1252 -1288 0
-1252 -1289 0
-1252 -1290 0
-1252 -1291 0
-1252 -1292 0
-1252 -1293 0
-1252 -1294 0
-1252 -1295 0
-1253 -1254 0
-1253 -1255 0
-1253 -1256 0
-1253 -1257 0
-1253 -1258 0
-1253 -1259 0
-1253 -1260 0
-1253 -1261 0
-1253 -1262 0
-1253 -1263 0
-1253 -1264 0
-1253 -1265 0
-1253 -1266 0
-1253 -1267 0
-1253 -1268 0
-1253 -1269 0
-1253 -1270 0
-1253 -1271 0
-1253 -1272 0
-1253 -1273 0
-1253 -1274 0
-1253 -1275 0
-1253 -1276 0
-1253 -1277 0
-1253 -1278 0
-1253 -1279 0
-1253 -1280 0
-1253 -1281 0
-1253 -1282 0
-1253 -1283 0
-1253 -1284 0
-1253 -1285 0
-1253 -1286 0
-1253 -1287 0
-1253 -1288 0
-1253 -1289 0
-1253 -1290 0
-1253 -1291 0
-1253 -1292 0
-1253 -1293 0
-1253 -1294 0
-1253 -1295 0
-1254 -1255 0
-1254 -1256 0
-1254 -1257 0
-1254 -1258 0
-1254 -1259 0
-1254 -1260 0
-1254 -1261 0
-1254 -1262 0
-1254 -1263 0
-1254 -1264 0
-1254 -1265 0
-1254 -1266 0
-1254 -1267 0
-1254 -1268 0
-1254 -1269 0
-1254 -1270 0
-1254 -1271 0
-1254 -1272 0
-1254 -1273 0
-1254 -1274 0
-1254 -1275 0
-1254 -1276 0
-1254 -1277 0
-1254 -1278 0
-1254 -1279 0
-1254 -1280 0
-1254 -1281 0
-1254 -1282 0
-1254 -1283 0
-1254 -1284 0
-1254 -1285 0
-1254 -1286 0
-1254 -1287 0
-1254 -1288 0
-1254 -1289 0
-1254 -1290 0
-1254 -1291 0
-1254 -1292 0
-1254 -1293 0
-1254 -1294 0
-1254 -1295 0
-1255 -1256 0
-1255 -1257 0
-1255 -1258 0
-1255 -1259 0
-1255 -1260 0
-1255 -1261 0
-1255 -1262 0
-1255 -1263 0
-1255 -1264 0
-1255 -1265 0
-1255 -1266 0
-1255 -1267 0
-1255 -1268 0
-1255 -1269 0
-1255 -1270 0
-1255 -1271 0
-1255 -1272 0
-1255 -1273 0
-1255 -1274 0
-1255 -1275 0
-1255 -1276 0
-1255 -1277 0
-1255 -1278 0
-1255 -1279 0
-1255 -1280 0
-1255 -1281 0
-1255 -1282 0
-1255 -1283 0
-1255 -1284 0
-1255 -1285 0
-1255 -1286 0
-1255 -1287 0
-1255 -1288 0
-1255 -1289 0
-1255 -1290 0
-1255 -1291 0
-1255 -1292 0
-1255 -1293 0
-1255 -1294 0
-1255 -1295 0
-1256 -1257 0
-1256 -1258 0
-1256 -1259 0
-1256 -1260 0
-1256 -1261 0
-1256 -1262 0
-1256 -1263 0
-1256 -1264 0
-1256 -1265 0
-1256 -1266 0
-1256 -1267 0
-1256 -1268 0
-1256 -1269 0
-1256 -1270 0
-1256 -1271 0
-1256 -1272 0
-1256 -1273 0
-1256 -1274 0
-1256 -1275 0
-1256 -1276 0
-1256 -1277 0
-1256 -1278 0
-1256 -1279 0
-1256 -1280 0
-1256 -1281 0
-1256 -1282 0
-1256 -1283 0
-1256 -1284 0
-1256 -1285 0
-1256 -1286 0
-1256 -1287 0
-1256 -1288 0
-1256 -1289 0
-1256 -1290 0
-1256 -1291 0
-1256 -1292 0
-1256 -1293 0
-1256 -1294 0
-1256 -1295 0
-1257 -1258 0
-1257 -1259 0
-1257 -1260 0
-1257 -1261 0
-1257 -1262 0
-1257 -1263 0
-1257 -1264 0
-1257 -1265 0
-1257 -1266 0
-1257 -1267 0
-1257 -1268 0
-1257 -1269 0
-1257 -1270 0
-1257 -1271 0
-1257 -1272 0
-1257 -1273 0
-1257 -1274 0
-1257 -1275 0
-1257 -1276 0
-1257 -1277 0
-1257 -1278 0
-1257 -1279 0
-1257 -1280 0
-1257 -1281 0
-1257 -1282 0
-1257 -1283 0
-1257 -1284 0
-1257 -1285 0
-1257 -1286 0
-1257 -1287 0
-1257 -1288 0
-1257 -1289 0
-1257 -1290 0
-1257 -1291 0
-1257 -1292 0
-1257 -1293 0
-1257 -1294 0
-1257 -1295 0
-1258 -1259 0
-1258 -1260 0
-1258 -1261 0
-1258 -1262 0
-1258 -1263 0
-1258 -1264 0
-1258 -1265 0
-1258 -1266 0
-1258 -1267 0
-1258 -1268 0
-1258 -1269 0
-1258 -1270 0
-1258 -1271 0
-1258 -1272 0
-1258 -1273 0
-1258 -1274 0
-1258 -1275 0
-1258 -1276 0
-1258 -1277 0
-1258 -1278 0
-1258 -1279 0
-1258 -1280 0
-1258 -1281 0
-1258 -1282 0
-1258 -1283 0
-1258 -1284 0
-1258 -1285 0
-1258 -1286 0
-1258 -1287 0
-1258 -1288 0
-1258 -1289 0
-1258 -1290 0
-1258 -1291 0
-1258 -1292 0
-1258 -1293 0
-1258 -1294 0
-1258 -1295 0
-1259 -1260 0
-1259 -1261 0
-1259 -1262 0
-1259 -1263 0
-1259 -1264 0
-1259 -1265 0
-1259 -1266 0
-1259 -1267 0
-1259 -1268 0
-1259 -1269 0
-1259 -1270 0
-1259 -1271 0
-1259 -1272 0
-1259 -1273 0
-1259 -1274 0
-1259 -1275 0
-1259 -1276 0
-1259 -1277 0
-1259 -1278 0
-1259 -1279 0
-1259 -1280 0
-1259 -1281 0
-1259 -1282 0
-1259 -1283 0
-1259 -1284 0
-1259 -1285 0
-1259 -1286 0
-1259 -1287 0
-1259 -1288 0
-1259 -1289 0
-1259 -1290 0
-1259 -1291 0
-1259 -1292 0
-1259 -1293 0
-1259 -1294 0
-1259 -1295 0
-1260 -1261 0
-1260 -1262 0
-1260 -1263 0
-1260 -1264 0
-1260 -1265 0
-1260 -1266 0
-1260 -1267 0
-1260 -1268 0
-1260 -1269 0
-1260 -1270 0
-1260 -1271 0
-1260 -1272 0
-1260 -1273 0
-1260 -1274 0
-1260 -1275 0
-1260 -1276 0
-1260 -1277 0
-1260 -1278 0
-1260 -1279 0
-1260 -1280 0
-1260 -1281 0
-1260 -1282 0
-1260 -1283 0
-1260 -1284 0
-1260 -1285 0
-1260 -1286 0
-1260 -1287 0
-1260 -1288 0
-1260 -1289 0
-1260 -1290 0
-1260 -1291 0
-1260 -1292 0
-1260 -1293 0
-1260 -1294 0
-1260 -1295 0
-1261 -1262 0
-1261 -1263 0
-1261 -1264 0
-1261 -1265 0
-1261 -1266 0
-1261 -1267 0
-1261 -1268 0
-1261 -1269 0
-1261 -1270 0
-1261 -1271 0
-1261 -1272 0
-1261 -1273 0
-1261 -1274 0
-1261 -1275 0
-1261 -1276 0
-1261 -1277 0
-1261 -1278 0
-1261 -1279 0
-1261 -1280 0
-1261 -1281 0
-1261 -1282 0
-1261 -1283 0
-1261 -1284 0
-1261 -1285 0
-1261 -1286 0
-1261 -1287 0
-1261 -1288 0
-1261 -1289 0
-1261 -1290 0
-1261 -1291 0
-1261 -1292 0
-1261 -1293 0
-1261 -1294 0
-1261 -1295 0
-1262 -1263 0
-1262 -1264 0
-1262 -1265 0
-1262 -1266 0
-1262 -1267 0
-1262 -1268 0
-1262 -1269 0
-1262 -1270 0
-1262 -1271 0
-1262 -1272 0
-1262 -1273 0
-1262 -1274 0
-1262 -1275 0
-1262 -1276 0
-1262 -1277 0
-1262 -1278 0
-1262 -1279 0
-1262 -1280 0
-1262 -1281 0
-1262 -1282 0
-1262 -1283 0
-1262 -1284 0
-1262 -1285 0
-1262 -1286 0
-1262 -1287 0
-1262 -1288 0
-1262 -1289 0
-1262 -1290 0
-1262 -1291 0
-1262 -1292 0
-1262 -1293 0
-1262 -1294 0
-1262 -1295 0
-1263 -1264 0
-1263 -1265 0
-1263 -1266 0
-1263 -1267 0
-1263 -1268 0
-1263 -1269 0
-1263 -1270 0
-1263 -1271 0
-1263 -1272 0
-1263 -1273 0
-1263 -1274 0
-1263 -1275 0
-1263 -1276 0
-1263 -1277 0
-1263 -1278 0
-1263 -1279 0
-1263 -1280 0
-1263 -1281 0
-1263 -1282 0
-1263 -1283 0
-1263 -1284 0
-1263 -1285 0
-1263 -1286 0
-1263 -1287 0
-1263 -1288 0
-1263 -1289 0
-1263 -1290 0
-1263 -1291 0
-1263 -1292 0
-1263 -1293 0
-1263 -1294 0
-1263 -1295 0
-1264 -1265 0
-1264 -1266 0
-1264 -1267 0
-1264 -1268 0
-1264 -1269 0
-1264 -1270 0
-1264 -1271 0
-1264 -1272 0
-1264 -1273 0
-1264 -1274 0
-1264 -1275 0
-1264 -1276 0
-1264 -1277 0
-1264 -1278 0
-1264 -1279 0
-1264 -1280 0
-1264 -1281 0
-1264 -1282 0
-1264 -1283 0
-1264 -1284 0
-1264 -1285 0
-1264 -1286 0
-1264 -1287 0
-1264 -1288 0
-1264 -1289 0
-1264 -1290 0
-1264 -1291 0
-1264 -1292 0
-1264 -1293 0
-1264 -1294 0
-1264 -1295 0
-1265 -1266 0
-1265 -1267 0
-1265 -1268 0
-1265 -1269 0
-1265 -1270 0
-1265 -1271 0
-1265 -1272 0
-1265 -1273 0
-1265 -1274 0
-1265 -1275 0
-1265 -1276 0
-1265 -1277 0
-1265 -1278 0
-1265 -1279 0
-1265 -1280 0
-1265 -1281 0
-1265 -1282 0
-1265 -1283 0
-1265 -1284 0
-1265 -1285 0
-1265 -1286 0
-1265 -1287 0
-1265 -1288 0
-1265 -1289 0
-1265 -1290 0
-1265 -1291 0
-1265 -1292 0
-1265 -1293 0
-1265 -1294 0
-1265 -1295 0
-1266 -1267 0
-1266 -1268 0
-1266 -1269 0
-1266 -1270 0
-1266 -1271 0
-1266 -1272 0
-1266 -1273 0
-1266 -1274 0
-1266 -1275 0
-1266 -1276 0
-1266 -1277 0
-1266 -1278 0
-1266 -1279 0
-1266 -1280 0
-1266 -1281 0
-1266 -1282 0
-1266 -1283 0
-1266 -1284 0
-1266 -1285 0
-1266 -1286 0
-1266 -1287 0
-1266 -1288 0
-1266 -1289 0
-1266 -1290 0
-1266 -1291 0
-1266 -1292 0
-1266 -1293 0
-1266 -1294 0
-1266 -1295 0
-1267 -1268 0
-1267 -1269 0
-1267 -1270 0
-1267 -1271 0
-1267 -1272 0
-1267 -1273 0
-1267 -1274 0
-1267 -1275 0
-1267 -1276 0
-1267 -1277 0
-1267 -1278 0
-1267 -1279 0
-1267 -1280 0
-1267 -1281 0
-1267 -1282 0
-1267 -1283 0
-1267 -1284 0
-1267 -1285 0
-1267 -1286 0
-1267 -1287 0
-1267 -1288 0
-1267 -1289 0
-1267 -1290 0
-1267 -1291 0
-1267 -1292 0
-1267 -1293 0
-1267 -1294 0
-1267 -1295 0
-1268 -1269 0
-1268 -1270 0
-1268 -1271 0
-1268 -1272 0
-1268 -1273 0
-1268 -1274 0
-1268 -1275 0
-1268 -1276 0
-1268 -1277 0
-1268 -1278 0
-1268 -1279 0
-1268 -1280 0
-1268 -1281 0
-1268 -1282 0
-1268 -1283 0
-1268 -1284 0
-1268 -1285 0
-1268 -1286 0
-1268 -1287 0
-1268 -1288 0
-1268 -1289 0
-1268 -1290 0
-1268 -1291 0
-1268 -1292 0
-1268 -1293 0
-1268 -1294 0
-1268 -1295 0
-1269 -1270 0
-1269 -1271 0
-1269 -1272 0
-1269 -1273 0
-1269 -1274 0
-1269 -1275 0
-1269 -1276 0
-1269 -1277 0
-1269 -1278 0
-1269 -1279 0
-1269 -1280 0
-1269 -1281 0
-1269 -1282 0
-1269 -1283 0
-1269 -1284 0
-1269 -1285 0
-1269 -1286 0
-1269 -1287 0
-1269 -1288 0
-1269 -1289 0
-1269 -1290 0
-1269 -1291 0
-1269 -1292 0
-1269 -1293 0
-1269 -1294 0
-1269 -1295 0
-1270 -1271 0
-1270 -1272 0
-1270 -1273 0
-1270 -1274 0
-1270 -1275 0
-1270 -1276 0
-1270 -1277 0
-1270 -1278 0
-1270 -1279 0
-1270 -1280 0
-1270 -1281 0
-1270 -1282 0
-1270 -1283 0
-1270 -1284 0
-1270 -1285 0
-1270 -1286 0
-1270 -1287 0
-1270 -1288 0
-1270 -1289 0
-1270 -1290 0
-1270 -1291 0
-1270 -1292 0
-1270 -1293 0
-1270 -1294 0
-1270 -1295 0
-1271 -1272 0
-1271 -1273 0
-1271 -1274 0
-1271 -1275 0
-1271 -1276 0
-1271 -1277 0
-1271 -1278 0
-1271 -1279 0
-1271 -1280 0
-1271 -1281 0
-1271 -1282 0
-1271 -1283 0
-1271 -1284 0
-1271 -1285 0
-1271 -1286 0
-1271 -1287 0
-1271 -1288 0
-1271 -1289 0
-1271 -1290 0
-1271 -1291 0
-1271 -1292 0
-1271 -1293 0
-1271 -1294 0
-1271 -1295 0
-1272 -1273 0
-1272 -1274 0
-1272 -1275 0
-1272 -1276 0
-1272 -1277 0
-1272 -1278 0
-1272 -1279 0
-1272 -1280 0
-1272 -1281 0
-1272 -1282 0
-1272 -1283 0
-1272 -1284 0
-1272 -1285 0
-1272 -1286 0
-1272 -1287 0
-1272 -1288 0
-1272 -1289 0
-1272 -1290 0
-1272 -1291 0
-1272 -1292 0
-1272 -1293 0
-1272 -1294 0
-1272 -1295 0
-1273 -1274 0
-1273 -1275 0
-1273 -1276 0
-1273 -1277 0
-1273 -1278 0
-1273 -1279 0
-1273 -1280 0
-1273 -1281 0
-1273 -1282 0
-1273 -1283 0
-1273 -1284 0
-1273 -1285 0
-1273 -1286 0
-1273 -1287 0
-1273 -1288 0
-1273 -1289 0
-1273 -1290 0
-1273 -1291 0
-1273 -1292 0
-1273 -1293 0
-1273 -1294 0
-1273 -1295 0
-1274 -1275 0
-1274 -1276 0
-1274 -1277 0
-1274 -1278 0
-1274 -1279 0
-1274 -1280 0
-1274 -1281 0
-1274 -1282 0
-1274 -1283 0
-1274 -1284 0
-1274 -1285 0
-1274 -1286 0
-1274 -1287 0
-1274 -1288 0
-1274 -1289 0
-1274 -1290 0
-1274 -1291 0
-1274 -1292 0
-1274 -1293 0
-1274 -1294 0
-1274 -1295 0
-1275 -1276 0
-1275 -1277 0
-1275 -1278 0
-1275 -1279 0
-1275 -1280 0
-1275 -1281 0
-1275 -1282 0
-1275 -1283 0
-1275 -1284 0
-1275 -1285 0
-1275 -1286 0
-1275 -1287 0
-1275 -1288 0
-1275 -1289 0
-1275 -1290 0
-1275 -1291 0
-1275 -1292 0
-1275 -1293 0
-1275 -1294 0
-1275 -1295 0
-1276 -1277 0
-1276 -1278 0
-1276 -1279 0
-1276 -1280 0
-1276 -1281 0
-1276 -1282 0
-1276 -1283 0
-1276 -1284 0
-1276 -1285 0
-1276 -1286 0
-1276 -1287 0
-1276 -1288 0
-1276 -1289 0
-1276 -1290 0
-1276 -1291 0
-1276 -1292 0
-1276 -1293 0
-1276 -1294 0
-1276 -1295 0
-1277 -1278 0
-1277 -1279 0
-1277 -1280 0
-1277 -1281 0
-1277 -1282 0
-1277 -1283 0
-1277 -1284 0
-1277 -1285 0
-1277 -1286 0
-1277 -1287 0
-1277 -1288 0
-1277 -1289 0
-1277 -1290 0
-1277 -1291 0
-1277 -1292 0
-1277 -1293 0
-1277 -1294 0
-1277 -1295 0
-1278 -1279 0
-1278 -1280 0
-1278 -1281 0
-1278 -1282 0
-1278 -1283 0
-1278 -1284 0
-1278 -1285 0
-1278 -1286 0
-1278 -1287 0
-1278 -1288 0
-1278 -1289 0
-1278 -1290 0
-1278 -1291 0
-1278 -1292 0
-1278 -1293 0
-1278 -1294 0
-1278 -1295 0
-1279 -1280 0
-1279 -1281 0
-1279 -1282 0
-1279 -1283 0
-1279 -1284 0
-1279 -1285 0
-1279 -1286 0
-1279 -1287 0
-1279 -1288 0
-1279 -1289 0
-1279 -1290 0
-1279 -1291 0
-1279 -1292 0
-1279 -1293 0
-1279 -1294 0
-1279 -1295 0
-1280 -1281 0
-1280 -1282 0
-1280 -1283 0
-1280 -1284 0
-1280 -1285 0
-1280 -1286 0
-1280 -1287 0
-1280 -1288 0
-1280 -1289 0
-1280 -1290 0
-1280 -1291 0
-1280 -1292 0
-1280 -1293 0
-1280 -1294 0
-1280 -1295 0
-1281 -1282 0
-1281 -1283 0
-1281 -1284 0
-1281 -1285 0
-1281 -1286 0
-1281 -1287 0
-1281 -1288 0
-1281 -1289 0
-1281 -1290 0
-1281 -1291 0
-1281 -1292 0
-1281 -1293 0
-1281 -1294 0
-1281 -1295 0
-1282 -1283 0
-1282 -1284 0
-1282 -1285 0
-1282 -1286 0
-1282 -1287 0
-1282 -1288 0
-1282 -1289 0
-1282 -1290 0
-1282 -1291 0
-1282 -1292 0
-1282 -1293 0
-1282 -1294 0
-1282 -1295 0
-1283 -1284 0
-1283 -1285 0
-1283 -1286 0
-1283 -1287 0
-1283 -1288 0
-1283 -1289 0
-1283 -1290 0
-1283 -1291 0
-1283 -1292 0
-1283 -1293 0
-1283 -1294 0
-1283 -1295 0
-1284 -1285 0
-1284 -1286 0
-1284 -1287 0
-1284 -1288 0
-1284 -1289 0
-1284 -1290 0
-1284 -1291 0
-1284 -1292 0
-1284 -1293 0
-1284 -1294 0
-1284 -1295 0
-1285 -1286 0
-1285 -1287 0
-1285 -1288 0
-1285 -1289 0
-1285 -1290 0
-1285 -1291 0
-1285 -1292 0
-1285 -1293 0
-1285 -1294 0
-1285 -1295 0
-1286 -1287 0
-1286 -1288 0
-1286 -1289 0
-1286 -1290 0
-1286 -1291 0
-1286 -1292 0
-1286 -1293 0
-1286 -1294 0
-1286 -1295 0
-1287 -1288 0
-1287 -1289 0
-1287 -1290 0
-1287 -1291 0
-1287 -1292 0
-1287 -1293 0
-1287 -1294 0
-1287 -1295 0
-1288 -1289 0
-1288 -1290 0
-1288 -1291 0
-1288 -1292 0
-1288 -1293 0
-1288 -1294 0
-1288 -1295 0
-1289 -1290 0
-1289 -1291 0
-1289 -1292 0
-1289 -1293 0
-1289 -1294 0
-1289 -1295 0
-1290 -1291 0
-1290 -1292 0
-1290 -1293 0
-1290 -1294 0
-1290 -1295 0
-1291 -1292 0
-1291 -1293 0
-1291 -1294 0
-1291 -1295 0
-1292 -1293 0
-1292 -1294 0
-1292 -1295 0
-1293 -1294 0
-1293 -1295 0
-1294 -1295 0
-1296 276 0
-1296 -85 -216 -213 0
-1296 -85 -217 -214 0
-1296 -85 -218 -215 0
-1296 91 0
-1296 -91 -216 1573 678 0
-1296 -91 -217 1573 684 0
-1296 -91 -218 1573 690 0
-1296 -216 -702 0
-1296 -216 -726 0
-1296 -216 -750 0
-1296 -216 -708 0
-1296 -216 -732 0
-1296 -216 -756 0
-1296 -216 -714 0
-1296 -216 -738 0
-1296 -216 -762 0
-1296 -217 -708 0
-1296 -217 -732 0
-1296 -217 -756 0
-1296 -217 -714 0
-1296 -217 -738 0
-1296 -217 -762 0
-1296 -218 -714 0
-1296 -218 -738 0
-1296 -218 -762 0
-1296 -219 0
-1296 106 0
-1296 -216 229 0
-1296 -217 230 0
-1296 -218 231 0
-1296 -281 0
-1297 276 0
-1297 -86 -216 -213 0
-1297 -86 -217 -214 0
-1297 -86 -218 -215 0
-1297 92 0
-1297 -92 -216 1574 679 0
-1297 -92 -217 1574 685 0
-1297 -92 -218 1574 691 0
-1297 -216 -703 0
-1297 -216 -727 0
-1297 -216 -751 0
-1297 -216 -709 0
-1297 -216 -733 0
-1297 -216 -757 0
-1297 -216 -715 0
-1297 -216 -739 0
-1297 -216 -763 0
-1297 -217 -709 0
-1297 -217 -733 0
-1297 -217 -757 0
-1297 -217 -715 0
-1297 -217 -739 0
-1297 -217 -763 0
-1297 -218 -715 0
-1297 -218 -739 0
-1297 -218 -763 0
-1297 -219 0
-1297 107 0
-1297 -216 229 0
-1297 -217 230 0
-1297 -218 231 0
-1297 -281 0
-1298 276 0
-1298 -87 -216 -213 0
-1298 -87 -217 -214 0
-1298 -87 -218 -215 0
-1298 93 0
-1298 -93 -216 1575 680 0
-1298 -93 -217 1575 686 0
-1298 -93 -218 1575 692 0
-1298 -216 -704 0
-1298 -216 -728 0
-1298 -216 -752 0
-1298 -216 -710 0
-1298 -216 -734 0
-1298 -216 -758 0
-1298 -216 -716 0
-1298 -216 -740 0
-1298 -216 -764 0
-1298 -217 -710 0
-1298 -217 -734 0
-1298 -217 -758 0
-1298 -217 -716 0
-1298 -217 -740 0
-1298 -217 -764 0
-1298 -218 -716 0
-1298 -218 -740 0
-1298 -218 -764 0
-1298 -219 0
-1298 108 0
-1298 -216 229 0
-1298 -217 230 0
-1298 -218 231 0
-1298 -281 0
-1299 276 0
-1299 -88 -216 -213 0
-1299 -88 -217 -214 0
-1299 -88 -218 -215 0
-1299 94 0
-1299 -94 -216 1576 681 0
-1299 -94 -217 1576 687 0
-1299 -94 -218 1576 693 0
-1299 -216 -705 0
-1299 -216 -729 0
-1299 -216 -753 0
-1299 -216 -711 0
-1299 -216 -735 0
-1299 -216 -759 0
-1299 -216 -717 0
-1299 -216 -741 0
-1299 -216 -765 0
-1299 -217 -711 0
-1299 -217 -735 0
-1299 -217 -759 0
-1299 -217 -717 0
-1299 -217 -741 0
-1299 -217 -765 0
-1299 -218 -717 0
-1299 -218 -741 0
-1299 -218 -765 0
-1299 -219 0
-1299 109 0
-1299 -216 229 0
-1299 -217 230 0
-1299 -218 231 0
-1299 -281 0
-1300 276 0
-1300 -89 -216 -213 0
-1300 -89 -217 -214 0
-1300 -89 -218 -215 0
-1300 95 0
-1300 -95 -216 1577 682 0
-1300 -95 -217 1577 688 0
-1300 -95 -218 1577 694 0
-1300 -216 -706 0
-1300 -216 -730 0
-1300 -216 -754 0
-1300 -216 -712 0
-1300 -216 -736 0
-1300 -216 -760 0
-1300 -216 -718 0
-1300 -216 -742 0
-1300 -216 -766 0
-1300 -217 -712 0
-1300 -217 -736 0
-1300 -217 -760 0
-1300 -217 -718 0
-1300 -217 -742 0
-1300 -217 -766 0
-1300 -218 -718 0
-1300 -218 -742 0
-1300 -218 -766 0
-1300 -219 0
-1300 110 0
-1300 -216 229 0
-1300 -217 230 0
-1300 -218 231 0
-1300 -281 0
-1301 276 0
-1301 -90 -216 -213 0
-1301 -90 -217 -214 0
-1301 -90 -218 -215 0
-1301 96 0
-1301 -96 -216 1578 683 0
-1301 -96 -217 1578 689 0
-1301 -96 -218 1578 695 0
-1301 -216 -707 0
-1301 -216 -731 0
-1301 -216 -755 0
-1301 -216 -713 0
-1301 -216 -737 0
-1301 -216 -761 0
-1301 -216 -719 0
-1301 -216 -743 0
-1301 -216 -767 0
-1301 -217 -713 0
-1301 -217 -737 0
-1301 -217 -761 0
-1301 -217 -719 0
-1301 -217 -743 0
-1301 -217 -767 0
-1301 -218 -719 0
-1301 -218 -743 0
-1301 -218 -767 0
-1301 -219 0
-1301 111 0
-1301 -216 229 0
-1301 -217 230 0
-1301 -218 231 0
-1301 -281 0
-1302 276 0
-1302 -85 -220 -213 0
-1302 -85 -221 -214 0
-1302 -85 -222 -215 0
-1302 97 0
-1302 -97 -220 1579 678 0
-1302 -97 -221 1579 684 0
-1302 -97 -222 1579 690 0
-1302 -220 -702 0
-1302 -220 -726 0
-1302 -220 -750 0
-1302 -220 -708 0
-1302 -220 -732 0
-1302 -220 -756 0
-1302 -220 -714 0
-1302 -220 -738 0
-1302 -220 -762 0
-1302 -221 -708 0
-1302 -221 -732 0
-1302 -221 -756 0
-1302 -221 -714 0
-1302 -221 -738 0
-1302 -221 -762 0
-1302 -222 -714 0
-1302 -222 -738 0
-1302 -222 -762 0
-1302 -223 0
-1302 106 0
-1302 -220 229 0
-1302 -221 230 0
-1302 -222 231 0
-1302 -282 0
-1303 276 0
-1303 -86 -220 -213 0
-1303 -86 -221 -214 0
-1303 -86 -222 -215 0
-1303 97 98 0
-1303 -97 -220 1580 679 0
-1303 -97 -221 1580 685 0
-1303 -97 -222 1580 691 0
-1303 -98 -220 1580 679 0
-1303 -98 -221 1580 685 0
-1303 -98 -222 1580 691 0
-1303 -220 -703 0
-1303 -220 -727 0
-1303 -220 -751 0
-1303 -220 -709 0
-1303 -220 -733 0
-1303 -220 -757 0
-1303 -220 -715 0
-1303 -220 -739 0
-1303 -220 -763 0
-1303 -221 -709 0
-1303 -221 -733 0
-1303 -221 -757 0
-1303 -221 -715 0
-1303 -221 -739 0
-1303 -221 -763 0
-1303 -222 -715 0
-1303 -222 -739 0
-1303 -222 -763 0
-1303 -223 0
-1303 107 0
-1303 -220 229 0
-1303 -221 230 0
-1303 -222 231 0
-1303 -282 0
-1304 276 0
-1304 -87 -220 -213 0
-1304 -87 -221 -214 0
-1304 -87 -222 -215 0
-1304 98 99 0
-1304 -98 -220 1581 680 0
-1304 -98 -221 1581 686 0
-1304 -98 -222 1581 692 0
-1304 -99 -220 1581 680 0
-1304 -99 -221 1581 686 0
-1304 -99 -222 1581 692 0
-1304 -220 -704 0
-1304 -220 -728 0
-1304 -220 -752 0
-1304 -220 -710 0
-1304 -220 -734 0
-1304 -220 -758 0
-1304 -220 -716 0
-1304 -220 -740 0
-1304 -220 -764 0
-1304 -221 -710 0
-1304 -221 -734 0
-1304 -221 -758 0
-1304 -221 -716 0
-1304 -221 -740 0
-1304 -221 -764 0
-1304 -222 -716 0
-1304 -222 -740 0
-1304 -222 -764 0
-1304 -223 0
-1304 108 0
-1304 -220 229 0
-1304 -221 230 0
-1304 -222 231 0
-1304 -282 0
-1305 276 0
-1305 -88 -220 -213 0
-1305 -88 -221 -214 0
-1305 -88 -222 -215 0
-1305 99 100 0
-1305 -99 -220 1582 681 0
-1305 -99 -221 1582 687 0
-1305 -99 -222 1582 693 0
-1305 -100 -220 1582 681 0
-1305 -100 -221 1582 687 0
-1305 -100 -222 1582 693 0
-1305 -220 -705 0
-1305 -220 -729 0
-1305 -220 -753 0
-1305 -220 -711 0
-1305 -220 -735 0
-1305 -220 -759 0
-1305 -220 -717 0
-1305 -220 -741 0
-1305 -220 -765 0
-1305 -221 -711 0
-1305 -221 -735 0
-1305 -221 -759 0
-1305 -221 -717 0
-1305 -221 -741 0
-1305 -221 -765 0
-1305 -222 -717 0
-1305 -222 -741 0
-1305 -222 -765 0
-1305 -223 0
-1305 109 0
-1305 -220 229 0
-1305 -221 230 0
-1305 -222 231 0
-1305 -282 0
-1306 276 0
-1306 -89 -220 -213 0
-1306 -89 -221 -214 0
-1306 -89 -222 -215 0
-1306 100 101 0
-1306 -100 -220 1583 682 0
-1306 -100 -221 1583 688 0
-1306 -100 -222 1583 694 0
-1306 -101 -220 1583 682 0
-1306 -101 -221 1583 688 0
-1306 -101 -222 1583 694 0
-1306 -220 -706 0
-1306 -220 -730 0
-1306 -220 -754 0
-1306 -220 -712 0
-1306 -220 -736 0
-1306 -220 -760 0
-1306 -220 -718 0
-1306 -220 -742 0
-1306 -220 -766 0
-1306 -221 -712 0
-1306 -221 -736 0
-1306 -221 -760 0
-1306 -221 -718 0
-1306 -221 -742 0
-1306 -221 -766 0
-1306 -222 -718 0
-1306 -222 -742 0
-1306 -222 -766 0
-1306 -223 0
-1306 110 0
-1306 -220 229 0
-1306 -221 230 0
-1306 -222 231 0
-1306 -282 0
-1307 276 0
-1307 -90 -220 -213 0
-1307 -90 -221 -214 0
-1307 -90 -222 -215 0
-1307 101 0
-1307 -101 -220 1584 683 0
-1307 -101 -221 1584 689 0
-1307 -101 -222 1584 695 0
-1307 -220 -707 0
-1307 -220 -731 0
-1307 -220 -755 0
-1307 -220 -713 0
-1307 -220 -737 0
-1307 -220 -761 0
-1307 -220 -719 0
-1307 -220 -743 0
-1307 -220 -767 0
-1307 -221 -713 0
-1307 -221 -737 0
-1307 -221 -761 0
-1307 -221 -719 0
-1307 -221 -743 0
-1307 -221 -767 0
-1307 -222 -719 0
-1307 -222 -743 0
-1307 -222 -767 0
-1307 -223 0
-1307 111 0
-1307 -220 229 0
-1307 -221 230 0
-1307 -222 231 0
-1307 -282 0
-1308 276 0
-1308 -85 -224 -213 0
-1308 -85 -225 -214 0
-1308 -85 -226 -215 0
-1308 102 0
-1308 -102 -224 1585 678 0
-1308 -102 -225 1585 684 0
-1308 -102 -226 1585 690 0
-1308 -224 -702 0
-1308 -224 -726 0
-1308 -224 -750 0
-1308 -224 -708 0
-1308 -224 -732 0
-1308 -224 -756 0
-1308 -224 -714 0
-1308 -224 -738 0
-1308 -224 -762 0
-1308 -225 -708 0
-1308 -225 -732 0
-1308 -225 -756 0
-1308 -225 -714 0
-1308 -225 -738 0
-1308 -225 -762 0
-1308 -226 -714 0
-1308 -226 -738 0
-1308 -226 -762 0
-1308 -227 0
-1308 106 0
-1308 -224 229 0
-1308 -225 230 0
-1308 -226 231 0
-1308 -283 0
-1309 276 0
-1309 -86 -224 -213 0
-1309 -86 -225 -214 0
-1309 -86 -226 -215 0
-1309 102 103 0
-1309 -102 -224 1586 679 0
-1309 -102 -225 1586 685 0
-1309 -102 -226 1586 691 0
-1309 -103 -224 1586 679 0
-1309 -103 -225 1586 685 0
-1309 -103 -226 1586 691 0
-1309 -224 -703 0
-1309 -224 -727 0
-1309 -224 -751 0
-1309 -224 -709 0
-1309 -224 -733 0
-1309 -224 -757 0
-1309 -224 -715 0
-1309 -224 -739 0
-1309 -224 -763 0
-1309 -225 -709 0
-1309 -225 -733 0
-1309 -225 -757 0
-1309 -225 -715 0
-1309 -225 -739 0
-1309 -225 -763 0
-1309 -226 -715 0
-1309 -226 -739 0
-1309 -226 -763 0
-1309 -227 0
-1309 107 0
-1309 -224 229 0
-1309 -225 230 0
-1309 -226 231 0
-1309 -283 0
-1310 276 0
-1310 -87 -224 -213 0
-1310 -87 -225 -214 0
-1310 -87 -226 -215 0
-1310 102 103 104 0
-1310 -102 -224 1587 680 0
-1310 -102 -225 1587 686 0
-1310 -102 -226 1587 692 0
-1310 -103 -224 1587 680 0
-1310 -103 -225 1587 686 0
-1310 -103 -226 1587 692 0
-1310 -104 -224 1587 680 0
-1310 -104 -225 1587 686 0
-1310 -104 -226 1587 692 0
-1310 -224 -704 0
-1310 -224 -728 0
-1310 -224 -752 0
-1310 -224 -710 0
-1310 -224 -734 0
-1310 -224 -758 0
-1310 -224 -716 0
-1310 -224 -740 0
-1310 -224 -764 0
-1310 -225 -710 0
-1310 -225 -734 0
-1310 -225 -758 0
-1310 -225 -716 0
-1310 -225 -740 0
-1310 -225 -764 0
-1310 -226 -716 0
-1310 -226 -740 0
-1310 -226 -764 0
-1310 -227 0
-1310 108 0
-1310 -224 229 0
-1310 -225 230 0
-1310 -226 231 0
-1310 -283 0
-1311 276 0
-1311 -88 -224 -213 0
-1311 -88 -225 -214 0
-1311 -88 -226 -215 0
-1311 103 104 105 0
-1311 -103 -224 1588 681 0
-1311 -103 -225 1588 687 0
-1311 -103 -226 1588 693 0
-1311 -104 -224 1588 681 0
-1311 -104 -225 1588 687 0
-1311 -104 -226 1588 693 0
-1311 -105 -224 1588 681 0
-1311 -105 -225 1588 687 0
-1311 -105 -226 1588 693 0
-1311 -224 -705 0
-1311 -224 -729 0
-1311 -224 -753 0
-1311 -224 -711 0
-1311 -224 -735 0
-1311 -224 -759 0
-1311 -224 -717 0
-1311 -224 -741 0
-1311 -224 -765 0
-1311 -225 -711 0
-1311 -225 -735 0
-1311 -225 -759 0
-1311 -225 -717 0
-1311 -225 -741 0
-1311 -225 -765 0
-1311 -226 -717 0
-1311 -226 -741 0
-1311 -226 -765 0
-1311 -227 0
-1311 109 0
-1311 -224 229 0
-1311 -225 230 0
-1311 -226 231 0
-1311 -283 0
-1312 276 0
-1312 -89 -224 -213 0
-1312 -89 -225 -214 0
-1312 -89 -226 -215 0
-1312 104 105 0
-1312 -104 -224 1589 682 0
-1312 -104 -225 1589 688 0
-1312 -104 -226 1589 694 0
-1312 -105 -224 1589 682 0
-1312 -105 -225 1589 688 0
-1312 -105 -226 1589 694 0
-1312 -224 -706 0
-1312 -224 -730 0
-1312 -224 -754 0
-1312 -224 -712 0
-1312 -224 -736 0
-1312 -224 -760 0
-1312 -224 -718 0
-1312 -224 -742 0
-1312 -224 -766 0
-1312 -225 -712 0
-1312 -225 -736 0
-1312 -225 -760 0
-1312 -225 -718 0
-1312 -225 -742 0
-1312 -225 -766 0
-1312 -226 -718 0
-1312 -226 -742 0
-1312 -226 -766 0
-1312 -227 0
-1312 110 0
-1312 -224 229 0
-1312 -225 230 0
-1312 -226 231 0
-1312 -283 0
-1313 276 0
-1313 -90 -224 -213 0
-1313 -90 -225 -214 0
-1313 -90 -226 -215 0
-1313 105 0
-1313 -105 -224 1590 683 0
-1313 -105 -225 1590 689 0
-1313 -105 -226 1590 695 0
-1313 -224 -707 0
-1313 -224 -731 0
-1313 -224 -755 0
-1313 -224 -713 0
-1313 -224 -737 0
-1313 -224 -761 0
-1313 -224 -719 0
-1313 -224 -743 0
-1313 -224 -767 0
-1313 -225 -713 0
-1313 -225 -737 0
-1313 -225 -761 0
-1313 -225 -719 0
-1313 -225 -743 0
-1313 -225 -767 0
-1313 -226 -719 0
-1313 -226 -743 0
-1313 -226 -767 0
-1313 -227 0
-1313 111 0
-1313 -224 229 0
-1313 -225 230 0
-1313 -226 231 0
-1313 -283 0
-1314 276 0
-1314 -85 -212 0
-1314 -696 0
-1314 -720 0
-1314 -744 0
-1314 -702 0
-1314 -726 0
-1314 -750 0
-1314 -708 0
-1314 -732 0
-1314 -756 0
-1314 -714 0
-1314 -738 0
-1314 -762 0
-1314 106 0
-1314 228 0
-1315 276 0
-1315 -86 -212 0
-1315 -697 0
-1315 -721 0
-1315 -745 0
-1315 -703 0
-1315 -727 0
-1315 -751 0
-1315 -709 0
-1315 -733 0
-1315 -757 0
-1315 -715 0
-1315 -739 0
-1315 -763 0
-1315 107 0
-1315 228 0
-1316 276 0
-1316 -87 -212 0
-1316 -698 0
-1316 -722 0
-1316 -746 0
-1316 -704 0
-1316 -728 0
-1316 -752 0
-1316 -710 0
-1316 -734 0
-1316 -758 0
-1316 -716 0
-1316 -740 0
-1316 -764 0
-1316 108 0
-1316 228 0
-1317 276 0
-1317 -88 -212 0
-1317 -699 0
-1317 -723 0
-1317 -747 0
-1317 -705 0
-1317 -729 0
-1317 -753 0
-1317 -711 0
-1317 -735 0
-1317 -759 0
-1317 -717 0
-1317 -741 0
-1317 -765 0
-1317 109 0
-1317 228 0
-1318 276 0
-1318 -89 -212 0
-1318 -700 0
-1318 -724 0
-1318 -748 0
-1318 -706 0
-1318 -730 0
-1318 -754 0
-1318 -712 0
-1318 -736 0
-1318 -760 0
-1318 -718 0
-1318 -742 0
-1318 -766 0
-1318 110 0
-1318 228 0
-1319 276 0
-1319 -90 -212 0
-1319 -701 0
-1319 -725 0
-1319 -749 0
-1319 -707 0
-1319 -731 0
-1319 -755 0
-1319 -713 0
-1319 -737 0
-1319 -761 0
-1319 -719 0
-1319 -743 0
-1319 -767 0
-1319 111 0
-1319 228 0
-1320 277 0
-1320 -91 -212 -217 0
-1320 -91 -213 -218 0
-1320 -91 -214 -219 0
-1320 85 0
-1320 -85 -212 1567 702 0
-1320 -85 -213 1567 708 0
-1320 -85 -214 1567 714 0
-1320 -212 -678 0
-1320 -212 -726 0
-1320 -212 -750 0
-1320 -212 -684 0
-1320 -212 -732 0
-1320 -212 -756 0
-1320 -212 -690 0
-1320 -212 -738 0
-1320 -212 -762 0
-1320 -213 -684 0
-1320 -213 -732 0
-1320 -213 -756 0
-1320 -213 -690 0
-1320 -213 -738 0
-1320 -213 -762 0
-1320 -214 -690 0
-1320 -214 -738 0
-1320 -214 -762 0
-1320 -215 0
-1320 112 0
-1320 -212 233 0
-1320 -213 234 0
-1320 -214 235 0
-1320 -280 0
-1321 277 0
-1321 -92 -212 -217 0
-1321 -92 -213 -218 0
-1321 -92 -214 -219 0
-1321 86 0
-1321 -86 -212 1568 703 0
-1321 -86 -213 1568 709 0
-1321 -86 -214 1568 715 0
-1321 -212 -679 0
-1321 -212 -727 0
-1321 -212 -751 0
-1321 -212 -685 0
-1321 -212 -733 0
-1321 -212 -757 0
-1321 -212 -691 0
-1321 -212 -739 0
-1321 -212 -763 0
-1321 -213 -685 0
-1321 -213 -733 0
-1321 -213 -757 0
-1321 -213 -691 0
-1321 -213 -739 0
-1321 -213 -763 0
-1321 -214 -691 0
-1321 -214 -739 0
-1321 -214 -763 0
-1321 -215 0
-1321 113 0
-1321 -212 233 0
-1321 -213 234 0
-1321 -214 235 0
-1321 -280 0
-1322 277 0
-1322 -93 -212 -217 0
-1322 -93 -213 -218 0
-1322 -93 -214 -219 0
-1322 87 0
-1322 -87 -212 1569 704 0
-1322 -87 -213 1569 710 0
-1322 -87 -214 1569 716 0
-1322 -212 -680 0
-1322 -212 -728 0
-1322 -212 -752 0
-1322 -212 -686 0
-1322 -212 -734 0
-1322 -212 -758 0
-1322 -212 -692 0
-1322 -212 -740 0
-1322 -212 -764 0
-1322 -213 -686 0
-1322 -213 -734 0
-1322 -213 -758 0
-1322 -213 -692 0
-1322 -213 -740 0
-1322 -213 -764 0
-1322 -214 -692 0
-1322 -214 -740 0
-1322 -214 -764 0
-1322 -215 0
-1322 114 0
-1322 -212 233 0
-1322 -213 234 0
-1322 -214 235 0
-1322 -280 0
-1323 277 0
-1323 -94 -212 -217 0
-1323 -94 -213 -218 0
-1323 -94 -214 -219 0
-1323 88 0
-1323 -88 -212 1570 705 0
-1323 -88 -213 1570 711 0
-1323 -88 -214 1570 717 0
-1323 -212 -681 0
-1323 -212 -729 0
-1323 -212 -753 0
-1323 -212 -687 0
-1323 -212 -735 0
-1323 -212 -759 0
-1323 -212 -693 0
-1323 -212 -741 0
-1323 -212 -765 0
-1323 -213 -687 0
-1323 -213 -735 0
-1323 -213 -759 0
-1323 -213 -693 0
-1323 -213 -741 0
-1323 -213 -765 0
-1323 -214 -693 0
-1323 -214 -741 0
-1323 -214 -765 0
-1323 -215 0
-1323 115 0
-1323 -212 233 0
-1323 -213 234 0
-1323 -214 235 0
-1323 -280 0
-1324 277 0
-1324 -95 -212 -217 0
-1324 -95 -213 -218 0
-1324 -95 -214 -219 0
-1324 89 0
-1324 -89 -212 1571 706 0
-1324 -89 -213 1571 712 0
-1324 -89 -214 1571 718 0
-1324 -212 -682 0
-1324 -212 -730 0
-1324 -212 -754 0
-1324 -212 -688 0
-1324 -212 -736 0
-1324 -212 -760 0
-1324 -212 -694 0
-1324 -212 -742 0
-1324 -212 -766 0
-1324 -213 -688 0
-1324 -213 -736 0
-1324 -213 -760 0
-1324 -213 -694 0
-1324 -213 -742 0
-1324 -213 -766 0
-1324 -214 -694 0
-1324 -214 -742 0
-1324 -214 -766 0
-1324 -215 0
-1324 116 0
-1324 -212 233 0
-1324 -213 234 0
-1324 -214 235 0
-1324 -280 0
-1325 277 0
-1325 -96 -212 -217 0
-1325 -96 -213 -218 0
-1325 -96 -214 -219 0
-1325 90 0
-1325 -90 -212 1572 707 0
-1325 -90 -213 1572 713 0
-1325 -90 -214 1572 719 0
-1325 -212 -683 0
-1325 -212 -731 0
-1325 -212 -755 0
-1325 -212 -689 0
-1325 -212 -737 0
-1325 -212 -761 0
-1325 -212 -695 0
-1325 -212 -743 0
-1325 -212 -767 0
-1325 -213 -689 0
-1325 -213 -737 0
-1325 -213 -761 0
-1325 -213 -695 0
-1325 -213 -743 0
-1325 -213 -767 0
-1325 -214 -695 0
-1325 -214 -743 0
-1325 -214 -767 0
-1325 -215 0
-1325 117 0
-1325 -212 233 0
-1325 -213 234 0
-1325 -214 235 0
-1325 -280 0
-1326 277 0
-1326 -91 -220 -217 0
-1326 -91 -221 -218 0
-1326 -91 -222 -219 0
-1326 97 0
-1326 -97 -220 1579 702 0
-1326 -97 -221 1579 708 0
-1326 -97 -222 1579 714 0
-1326 -220 -678 0
-1326 -220 -726 0
-1326 -220 -750 0
-1326 -220 -684 0
-1326 -220 -732 0
-1326 -220 -756 0
-1326 -220 -690 0
-1326 -220 -738 0
-1326 -220 -762 0
-1326 -221 -684 0
-1326 -221 -732 0
-1326 -221 -756 0
-1326 -221 -690 0
-1326 -221 -738 0
-1326 -221 -762 0
-1326 -222 -690 0
-1326 -222 -738 0
-1326 -222 -762 0
-1326 -223 0
-1326 112 0
-1326 -220 233 0
-1326 -221 234 0
-1326 -222 235 0
-1326 -282 0
-1327 277 0
-1327 -92 -220 -217 0
-1327 -92 -221 -218 0
-1327 -92 -222 -219 0
-1327 97 98 0
-1327 -97 -220 1580 703 0
-1327 -97 -221 1580 709 0
-1327 -97 -222 1580 715 0
-1327 -98 -220 1580 703 0
-1327 -98 -221 1580 709 0
-1327 -98 -222 1580 715 0
-1327 -220 -679 0
-1327 -220 -727 0
-1327 -220 -751 0
-1327 -220 -685 0
-1327 -220 -733 0
-1327 -220 -757 0
-1327 -220 -691 0
-1327 -220 -739 0
-1327 -220 -763 0
-1327 -221 -685 0
-1327 -221 -733 0
-1327 -221 -757 0
-1327 -221 -691 0
-1327 -221 -739 0
-1327 -221 -763 0
-1327 -222 -691 0
-1327 -222 -739 0
-1327 -222 -763 0
-1327 -223 0
-1327 113 0
-1327 -220 233 0
-1327 -221 234 0
-1327 -222 235 0
-1327 -282 0
-1328 277 0
-1328 -93 -220 -217 0
-1328 -93 -221 -218 0
-1328 -93 -222 -219 0
-1328 98 99 0
-1328 -98 -220 1581 704 0
-1328 -98 -221 1581 710 0
-1328 -98 -222 1581 716 0
-1328 -99 -220 1581 704 0
-1328 -99 -221 1581 710 0
-1328 -99 -222 1581 716 0
-1328 -220 -680 0
-1328 -220 -728 0
-1328 -220 -752 0
-1328 -220 -686 0
-1328 -220 -734 0
-1328 -220 -758 0
-1328 -220 -692 0
-1328 -220 -740 0
-1328 -220 -764 0
-1328 -221 -686 0
-1328 -221 -734 0
-1328 -221 -758 0
-1328 -221 -692 0
-1328 -221 -740 0
-1328 -221 -764 0
-1328 -222 -692 0
-1328 -222 -740 0
-1328 -222 -764 0
-1328 -223 0
-1328 114 0
-1328 -220 233 0
-1328 -221 234 0
-1328 -222 235 0
-1328 -282 0
-1329 277 0
-1329 -94 -220 -217 0
-1329 -94 -221 -218 0
-1329 -94 -222 -219 0
-1329 99 100 0
-1329 -99 -220 1582 705 0
-1329 -99 -221 1582 711 0
-1329 -99 -222 1582 717 0
-1329 -100 -220 1582 705 0
-1329 -100 -221 1582 711 0
-1329 -100 -222 1582 717 0
-1329 -220 -681 0
-1329 -220 -729 0
-1329 -220 -753 0
-1329 -220 -687 0
-1329 -220 -735 0
-1329 -220 -759 0
-1329 -220 -693 0
-1329 -220 -741 0
-1329 -220 -765 0
-1329 -221 -687 0
-1329 -221 -735 0
-1329 -221 -759 0
-1329 -221 -693 0
-1329 -221 -741 0
-1329 -221 -765 0
-1329 -222 -693 0
-1329 -222 -741 0
-1329 -222 -765 0
-1329 -223 0
-1329 115 0
-1329 -220 233 0
-1329 -221 234 0
-1329 -222 235 0
-1329 -282 0
-1330 277 0
-1330 -95 -220 -217 0
-1330 -95 -221 -218 0
-1330 -95 -222 -219 0
-1330 100 101 0
-1330 -100 -220 1583 706 0
-1330 -100 -221 1583 712 0
-1330 -100 -222 1583 718 0
-1330 -101 -220 1583 706 0
-1330 -101 -221 1583 712 0
-1330 -101 -222 1583 718 0
-1330 -220 -682 0
-1330 -220 -730 0
-1330 -220 -754 0
-1330 -220 -688 0
-1330 -220 -736 0
-1330 -220 -760 0
-1330 -220 -694 0
-1330 -220 -742 0
-1330 -220 -766 0
-1330 -221 -688 0
-1330 -221 -736 0
-1330 -221 -760 0
-1330 -221 -694 0
-1330 -221 -742 0
-1330 -221 -766 0
-1330 -222 -694 0
-1330 -222 -742 0
-1330 -222 -766 0
-1330 -223 0
-1330 116 0
-1330 -220 233 0
-1330 -221 234 0
-1330 -222 235 0
-1330 -282 0
-1331 277 0
-1331 -96 -220 -217 0
-1331 -96 -221 -218 0
-1331 -96 -222 -219 0
-1331 101 0
-1331 -101 -220 1584 707 0
-1331 -101 -221 1584 713 0
-1331 -101 -222 1584 719 0
-1331 -220 -683 0
-1331 -220 -731 0
-1331 -220 -755 0
-1331 -220 -689 0
-1331 -220 -737 0
-1331 -220 -761 0
-1331 -220 -695 0
-1331 -220 -743 0
-1331 -220 -767 0
-1331 -221 -689 0
-1331 -221 -737 0
-1331 -221 -761 0
-1331 -221 -695 0
-1331 -221 -743 0
-1331 -221 -767 0
-1331 -222 -695 0
-1331 -222 -743 0
-1331 -222 -767 0
-1331 -223 0
-1331 117 0
-1331 -220 233 0
-1331 -221 234 0
-1331 -222 235 0
-1331 -282 0
-1332 277 0
-1332 -91 -224 -217 0
-1332 -91 -225 -218 0
-1332 -91 -226 -219 0
-1332 102 0
-1332 -102 -224 1585 702 0
-1332 -102 -225 1585 708 0
-1332 -102 -226 1585 714 0
-1332 -224 -678 0
-1332 -224 -726 0
-1332 -224 -750 0
-1332 -224 -684 0
-1332 -224 -732 0
-1332 -224 -756 0
-1332 -224 -690 0
-1332 -224 -738 0
-1332 -224 -762 0
-1332 -225 -684 0
-1332 -225 -732 0
-1332 -225 -756 0
-1332 -225 -690 0
-1332 -225 -738 0
-1332 -225 -762 0
-1332 -226 -690 0
-1332 -226 -738 0
-1332 -226 -762 0
-1332 -227 0
-1332 112 0
-1332 -224 233 0
-1332 -225 234 0
-1332 -226 235 0
-1332 -283 0
-1333 277 0
-1333 -92 -224 -217 0
-1333 -92 -225 -218 0
-1333 -92 -226 -219 0
-1333 102 103 0
-1333 -102 -224 1586 703 0
-1333 -102 -225 1586 709 0
-1333 -102 -226 1586 715 0
-1333 -103 -224 1586 703 0
-1333 -103 -225 1586 709 0
-1333 -103 -226 1586 715 0
-1333 -224 -679 0
-1333 -224 -727 0
-1333 -224 -751 0
-1333 -224 -685 0
-1333 -224 -733 0
-1333 -224 -757 0
-1333 -224 -691 0
-1333 -224 -739 0
-1333 -224 -763 0
-1333 -225 -685 0
-1333 -225 -733 0
-1333 -225 -757 0
-1333 -225 -691 0
-1333 -225 -739 0
-1333 -225 -763 0
-1333 -226 -691 0
-1333 -226 -739 0
-1333 -226 -763 0
-1333 -227 0
-1333 113 0
-1333 -224 233 0
-1333 -225 234 0
-1333 -226 235 0
-1333 -283 0
-1334 277 0
-1334 -93 -224 -217 0
-1334 -93 -225 -218 0
-1334 -93 -226 -219 0
-1334 102 103 104 0
-1334 -102 -224 1587 704 0
-1334 -102 -225 1587 710 0
-1334 -102 -226 1587 716 0
-1334 -103 -224 1587 704 0
-1334 -103 -225 1587 710 0
-1334 -103 -226 1587 716 0
-1334 -104 -224 1587 704 0
-1334 -104 -225 1587 710 0
-1334 -104 -226 1587 716 0
-1334 -224 -680 0
-1334 -224 -728 0
-1334 -224 -752 0
-1334 -224 -686 0
-1334 -224 -734 0
-1334 -224 -758 0
-1334 -224 -692 0
-1334 -224 -740 0
-1334 -224 -764 0
-1334 -225 -686 0
-1334 -225 -734 0
-1334 -225 -758 0
-1334 -225 -692 0
-1334 -225 -740 0
-1334 -225 -764 0
-1334 -226 -692 0
-1334 -226 -740 0
-1334 -226 -764 0
-1334 -227 0
-1334 114 0
-1334 -224 233 0
-1334 -225 234 0
-1334 -226 235 0
-1334 -283 0
-1335 277 0
-1335 -94 -224 -217 0
-1335 -94 -225 -218 0
-1335 -94 -226 -219 0
-1335 103 104 105 0
-1335 -103 -224 1588 705 0
-1335 -103 -225 1588 711 0
-1335 -103 -226 1588 717 0
-1335 -104 -224 1588 705 0
-1335 -104 -225 1588 711 0
-1335 -104 -226 1588 717 0
-1335 -105 -224 1588 705 0
-1335 -105 -225 1588 711 0
-1335 -105 -226 1588 717 0
-1335 -224 -681 0
-1335 -224 -729 0
-1335 -224 -753 0
-1335 -224 -687 0
-1335 -224 -735 0
-1335 -224 -759 0
-1335 -224 -693 0
-1335 -224 -741 0
-1335 -224 -765 0
-1335 -225 -687 0
-1335 -225 -735 0
-1335 -225 -759 0
-1335 -225 -693 0
-1335 -225 -741 0
-1335 -225 -765 0
-1335 -226 -693 0
-1335 -226 -741 0
-1335 -226 -765 0
-1335 -227 0
-1335 115 0
-1335 -224 233 0
-1335 -225 234 0
-1335 -226 235 0
-1335 -283 0
-1336 277 0
-1336 -95 -224 -217 0
-1336 -95 -225 -218 0
-1336 -95 -226 -219 0
-1336 104 105 0
-1336 -104 -224 1589 706 0
-1336 -104 -225 1589 712 0
-1336 -104 -226 1589 718 0
-1336 -105 -224 1589 706 0
-1336 -105 -225 1589 712 0
-1336 -105 -226 1589 718 0
-1336 -224 -682 0
-1336 -224 -730 0
-1336 -224 -754 0
-1336 -224 -688 0
-1336 -224 -736 0
-1336 -224 -760 0
-1336 -224 -694 0
-1336 -224 -742 0
-1336 -224 -766 0
-1336 -225 -688 0
-1336 -225 -736 0
-1336 -225 -760 0
-1336 -225 -694 0
-1336 -225 -742 0
-1336 -225 -766 0
-1336 -226 -694 0
-1336 -226 -742 0
-1336 -226 -766 0
-1336 -227 0
-1336 116 0
-1336 -224 233 0
-1336 -225 234 0
-1336 -226 235 0
-1336 -283 0
-1337 277 0
-1337 -96 -224 -217 0
-1337 -96 -225 -218 0
-1337 -96 -226 -219 0
-1337 105 0
-1337 -105 -224 1590 707 0
-1337 -105 -225 1590 713 0
-1337 -105 -226 1590 719 0
-1337 -224 -683 0
-1337 -224 -731 0
-1337 -224 -755 0
-1337 -224 -689 0
-1337 -224 -737 0
-1337 -224 -761 0
-1337 -224 -695 0
-1337 -224 -743 0
-1337 -224 -767 0
-1337 -225 -689 0
-1337 -225 -737 0
-1337 -225 -761 0
-1337 -225 -695 0
-1337 -225 -743 0
-1337 -225 -767 0
-1337 -226 -695 0
-1337 -226 -743 0
-1337 -226 -767 0
-1337 -227 0
-1337 117 0
-1337 -224 233 0
-1337 -225 234 0
-1337 -226 235 0
-1337 -283 0
-1338 277 0
-1338 -91 -216 0
-1338 -672 0
-1338 -720 0
-1338 -744 0
-1338 -678 0
-1338 -726 0
-1338 -750 0
-1338 -684 0
-1338 -732 0
-1338 -756 0
-1338 -690 0
-1338 -738 0
-1338 -762 0
-1338 112 0
-1338 232 0
-1339 277 0
-1339 -92 -216 0
-1339 -673 0
-1339 -721 0
-1339 -745 0
-1339 -679 0
-1339 -727 0
-1339 -751 0
-1339 -685 0
-1339 -733 0
-1339 -757 0
-1339 -691 0
-1339 -739 0
-1339 -763 0
-1339 113 0
-1339 232 0
-1340 277 0
-1340 -93 -216 0
-1340 -674 0
-1340 -722 0
-1340 -746 0
-1340 -680 0
-1340 -728 0
-1340 -752 0
-1340 -686 0
-1340 -734 0
-1340 -758 0
-1340 -692 0
-1340 -740 0
-1340 -764 0
-1340 114 0
-1340 232 0
-1341 277 0
-1341 -94 -216 0
-1341 -675 0
-1341 -723 0
-1341 -747 0
-1341 -681 0
-1341 -729 0
-1341 -753 0
-1341 -687 0
-1341 -735 0
-1341 -759 0
-1341 -693 0
-1341 -741 0
-1341 -765 0
-1341 115 0
-1341 232 0
-1342 277 0
-1342 -95 -216 0
-1342 -676 0
-1342 -724 0
-1342 -748 0
-1342 -682 0
-1342 -730 0
-1342 -754 0
-1342 -688 0
-1342 -736 0
-1342 -760 0
-1342 -694 0
-1342 -742 0
-1342 -766 0
-1342 116 0
-1342 232 0
-1343 277 0
-1343 -96 -216 0
-1343 -677 0
-1343 -725 0
-1343 -749 0
-1343 -683 0
-1343 -731 0
-1343 -755 0
-1343 -689 0
-1343 -737 0
-1343 -761 0
-1343 -695 0
-1343 -743 0
-1343 -767 0
-1343 117 0
-1343 232 0
-1344 278 0
-1344 -97 -212 -221 0
-1344 -97 -213 -222 0
-1344 -97 -214 -223 0
-1344 85 86 0
-1344 -85 -212 1567 726 0
-1344 -85 -213 1567 732 0
-1344 -85 -214 1567 738 0
-1344 -86 -212 1568 727 0
-1344 -86 -213 1568 733 0
-1344 -86 -214 1568 739 0
-1344 -212 -678 0
-1344 -212 -702 0
-1344 -212 -750 0
-1344 -212 -684 0
-1344 -212 -708 0
-1344 -212 -756 0
-1344 -212 -690 0
-1344 -212 -714 0
-1344 -212 -762 0
-1344 -212 -679 0
-1344 -212 -703 0
-1344 -212 -751 0
-1344 -212 -685 0
-1344 -212 -709 0
-1344 -212 -757 0
-1344 -212 -691 0
-1344 -212 -715 0
-1344 -212 -763 0
-1344 -213 -684 0
-1344 -213 -708 0
-1344 -213 -756 0
-1344 -213 -690 0
-1344 -213 -714 0
-1344 -213 -762 0
-1344 -213 -685 0
-1344 -213 -709 0
-1344 -213 -757 0
-1344 -213 -691 0
-1344 -213 -715 0
-1344 -213 -763 0
-1344 -214 -690 0
-1344 -214 -714 0
-1344 -214 -762 0
-1344 -214 -691 0
-1344 -214 -715 0
-1344 -214 -763 0
-1344 -215 0
-1344 118 0
-1344 -212 237 0
-1344 -213 238 0
-1344 -214 239 0
-1344 -280 0
-1345 278 0
-1345 -98 -212 -221 0
-1345 -98 -213 -222 0
-1345 -98 -214 -223 0
-1345 86 87 0
-1345 -86 -212 1568 727 0
-1345 -86 -213 1568 733 0
-1345 -86 -214 1568 739 0
-1345 -87 -212 1569 728 0
-1345 -87 -213 1569 734 0
-1345 -87 -214 1569 740 0
-1345 -212 -679 0
-1345 -212 -703 0
-1345 -212 -751 0
-1345 -212 -685 0
-1345 -212 -709 0
-1345 -212 -757 0
-1345 -212 -691 0
-1345 -212 -715 0
-1345 -212 -763 0
-1345 -212 -680 0
-1345 -212 -704 0
-1345 -212 -752 0
-1345 -212 -686 0
-1345 -212 -710 0
-1345 -212 -758 0
-1345 -212 -692 0
-1345 -212 -716 0
-1345 -212 -764 0
-1345 -213 -685 0
-1345 -213 -709 0
-1345 -213 -757 0
-1345 -213 -691 0
-1345 -213 -715 0
-1345 -213 -763 0
-1345 -213 -686 0
-1345 -213 -710 0
-1345 -213 -758 0
-1345 -213 -692 0
-1345 -213 -716 0
-1345 -213 -764 0
-1345 -214 -691 0
-1345 -214 -715 0
-1345 -214 -763 0
-1345 -214 -692 0
-1345 -214 -716 0
-1345 -214 -764 0
-1345 -215 0
-1345 119 0
-1345 -212 237 0
-1345 -213 238 0
-1345 -214 239 0
-1345 -280 0
-1346 278 0
-1346 -99 -212 -221 0
-1346 -99 -213 -222 0
-1346 -99 -214 -223 0
-1346 87 88 0
-1346 -87 -212 1569 728 0
-1346 -87 -213 1569 734 0
-1346 -87 -214 1569 740 0
-1346 -88 -212 1570 729 0
-1346 -88 -213 1570 735 0
-1346 -88 -214 1570 741 0
-1346 -212 -680 0
-1346 -212 -704 0
-1346 -212 -752 0
-1346 -212 -686 0
-1346 -212 -710 0
-1346 -212 -758 0
-1346 -212 -692 0
-1346 -212 -716 0
-1346 -212 -764 0
-1346 -212 -681 0
-1346 -212 -705 0
-1346 -212 -753 0
-1346 -212 -687 0
-1346 -212 -711 0
-1346 -212 -759 0
-1346 -212 -693 0
-1346 -212 -717 0
-1346 -212 -765 0
-1346 -213 -686 0
-1346 -213 -710 0
-1346 -213 -758 0
-1346 -213 -692 0
-1346 -213 -716 0
-1346 -213 -764 0
-1346 -213 -687 0
-1346 -213 -711 0
-1346 -213 -759 0
-1346 -213 -693 0
-1346 -213 -717 0
-1346 -213 -765 0
-1346 -214 -692 0
-1346 -214 -716 0
-1346 -214 -764 0
-1346 -214 -693 0
-1346 -214 -717 0
-1346 -214 -765 0
-1346 -215 0
-1346 120 0
-1346 -212 237 0
-1346 -213 238 0
-1346 -214 239 0
-1346 -280 0
-1347 278 0
-1347 -100 -212 -221 0
-1347 -100 -213 -222 0
-1347 -100 -214 -223 0
-1347 88 89 0
-1347 -88 -212 1570 729 0
-1347 -88 -213 1570 735 0
-1347 -88 -214 1570 741 0
-1347 -89 -212 1571 730 0
-1347 -89 -213 1571 736 0
-1347 -89 -214 1571 742 0
-1347 -212 -681 0
-1347 -212 -705 0
-1347 -212 -753 0
-1347 -212 -687 0
-1347 -212 -711 0
-1347 -212 -759 0
-1347 -212 -693 0
-1347 -212 -717 0
-1347 -212 -765 0
-1347 -212 -682 0
-1347 -212 -706 0
-1347 -212 -754 0
-1347 -212 -688 0
-1347 -212 -712 0
-1347 -212 -760 0
-1347 -212 -694 0
-1347 -212 -718 0
-1347 -212 -766 0
-1347 -213 -687 0
-1347 -213 -711 0
-1347 -213 -759 0
-1347 -213 -693 0
-1347 -213 -717 0
-1347 -213 -765 0
-1347 -213 -688 0
-1347 -213 -712 0
-1347 -213 -760 0
-1347 -213 -694 0
-1347 -213 -718 0
-1347 -213 -766 0
-1347 -214 -693 0
-1347 -214 -717 0
-1347 -214 -765 0
-1347 -214 -694 0
-1347 -214 -718 0
-1347 -214 -766 0
-1347 -215 0
-1347 121 0
-1347 -212 237 0
-1347 -213 238 0
-1347 -214 239 0
-1347 -280 0
-1348 278 0
-1348 -101 -212 -221 0
-1348 -101 -213 -222 0
-1348 -101 -214 -223 0
-1348 89 90 0
-1348 -89 -212 1571 730 0
-1348 -89 -213 1571 736 0
-1348 -89 -214 1571 742 0
-1348 -90 -212 1572 731 0
-1348 -90 -213 1572 737 0
-1348 -90 -214 1572 743 0
-1348 -212 -682 0
-1348 -212 -706 0
-1348 -212 -754 0
-1348 -212 -688 0
-1348 -212 -712 0
-1348 -212 -760 0
-1348 -212 -694 0
-1348 -212 -718 0
-1348 -212 -766 0
-1348 -212 -683 0
-1348 -212 -707 0
-1348 -212 -755 0
-1348 -212 -689 0
-1348 -212 -713 0
-1348 -212 -761 0
-1348 -212 -695 0
-1348 -212 -719 0
-1348 -212 -767 0
-1348 -213 -688 0
-1348 -213 -712 0
-1348 -213 -760 0
-1348 -213 -694 0
-1348 -213 -718 0
-1348 -213 -766 0
-1348 -213 -689 0
-1348 -213 -713 0
-1348 -213 -761 0
-1348 -213 -695 0
-1348 -213 -719 0
-1348 -213 -767 0
-1348 -214 -694 0
-1348 -214 -718 0
-1348 -214 -766 0
-1348 -214 -695 0
-1348 -214 -719 0
-1348 -214 -767 0
-1348 -215 0
-1348 122 0
-1348 -212 237 0
-1348 -213 238 0
-1348 -214 239 0
-1348 -280 0
-1349 278 0
-1349 -97 -216 -221 0
-1349 -97 -217 -222 0
-1349 -97 -218 -223 0
-1349 91 92 0
-1349 -91 -216 1573 726 0
-1349 -91 -217 1573 732 0
-1349 -91 -218 1573 738 0
-1349 -92 -216 1574 727 0
-1349 -92 -217 1574 733 0
-1349 -92 -218 1574 739 0
-1349 -216 -678 0
-1349 -216 -702 0
-1349 -216 -750 0
-1349 -216 -684 0
-1349 -216 -708 0
-1349 -216 -756 0
-1349 -216 -690 0
-1349 -216 -714 0
-1349 -216 -762 0
-1349 -216 -679 0
-1349 -216 -703 0
-1349 -216 -751 0
-1349 -216 -685 0
-1349 -216 -709 0
-1349 -216 -757 0
-1349 -216 -691 0
-1349 -216 -715 0
-1349 -216 -763 0
-1349 -217 -684 0
-1349 -217 -708 0
-1349 -217 -756 0
-1349 -217 -690 0
-1349 -217 -714 0
-1349 -217 -762 0
-1349 -217 -685 0
-1349 -217 -709 0
-1349 -217 -757 0
-1349 -217 -691 0
-1349 -217 -715 0
-1349 -217 -763 0
-1349 -218 -690 0
-1349 -218 -714 0
-1349 -218 -762 0
-1349 -218 -691 0
-1349 -218 -715 0
-1349 -218 -763 0
-1349 -219 0
-1349 118 0
-1349 -216 237 0
-1349 -217 238 0
-1349 -218 239 0
-1349 -281 0
-1350 278 0
-1350 -98 -216 -221 0
-1350 -98 -217 -222 0
-1350 -98 -218 -223 0
-1350 92 93 0
-1350 -92 -216 1574 727 0
-1350 -92 -217 1574 733 0
-1350 -92 -218 1574 739 0
-1350 -93 -216 1575 728 0
-1350 -93 -217 1575 734 0
-1350 -93 -218 1575 740 0
-1350 -216 -679 0
-1350 -216 -703 0
-1350 -216 -751 0
-1350 -216 -685 0
-1350 -216 -709 0
-1350 -216 -757 0
-1350 -216 -691 0
-1350 -216 -715 0
-1350 -216 -763 0
-1350 -216 -680 0
-1350 -216 -704 0
-1350 -216 -752 0
-1350 -216 -686 0
-1350 -216 -710 0
-1350 -216 -758 0
-1350 -216 -692 0
-1350 -216 -716 0
-1350 -216 -764 0
-1350 -217 -685 0
-1350 -217 -709 0
-1350 -217 -757 0
-1350 -217 -691 0
-1350 -217 -715 0
-1350 -217 -763 0
-1350 -217 -686 0
-1350 -217 -710 0
-1350 -217 -758 0
-1350 -217 -692 0
-1350 -217 -716 0
-1350 -217 -764 0
-1350 -218 -691 0
-1350 -218 -715 0
-1350 -218 -763 0
-1350 -218 -692 0
-1350 -218 -716 0
-1350 -218 -764 0
-1350 -219 0
-1350 119 0
-1350 -216 237 0
-1350 -217 238 0
-1350 -218 239 0
-1350 -281 0
-1351 278 0
-1351 -99 -216 -221 0
-1351 -99 -217 -222 0
-1351 -99 -218 -223 0
-1351 93 94 0
-1351 -93 -216 1575 728 0
-1351 -93 -217 1575 734 0
-1351 -93 -218 1575 740 0
-1351 -94 -216 1576 729 0
-1351 -94 -217 1576 735 0
-1351 -94 -218 1576 741 0
-1351 -216 -680 0
-1351 -216 -704 0
-1351 -216 -752 0
-1351 -216 -686 0
-1351 -216 -710 0
-1351 -216 -758 0
-1351 -216 -692 0
-1351 -216 -716 0
-1351 -216 -764 0
-1351 -216 -681 0
-1351 -216 -705 0
-1351 -216 -753 0
-1351 -216 -687 0
-1351 -216 -711 0
-1351 -216 -759 0
-1351 -216 -693 0
-1351 -216 -717 0
-1351 -216 -765 0
-1351 -217 -686 0
-1351 -217 -710 0
-1351 -217 -758 0
-1351 -217 -692 0
-1351 -217 -716 0
-1351 -217 -764 0
-1351 -217 -687 0
-1351 -217 -711 0
-1351 -217 -759 0
-1351 -217 -693 0
-1351 -217 -717 0
-1351 -217 -765 0
-1351 -218 -692 0
-1351 -218 -716 0
-1351 -218 -764 0
-1351 -218 -693 0
-1351 -218 -717 0
-1351 -218 -765 0
-1351 -219 0
-1351 120 0
-1351 -216 237 0
-1351 -217 238 0
-1351 -218 239 0
-1351 -281 0
-1352 278 0
-1352 -100 -216 -221 0
-1352 -100 -217 -222 0
-1352 -100 -218 -223 0
-1352 94 95 0
-1352 -94 -216 1576 729 0
-1352 -94 -217 1576 735 0
-1352 -94 -218 1576 741 0
-1352 -95 -216 1577 730 0
-1352 -95 -217 1577 736 0
-1352 -95 -218 1577 742 0
-1352 -216 -681 0
-1352 -216 -705 0
-1352 -216 -753 0
-1352 -216 -687 0
-1352 -216 -711 0
-1352 -216 -759 0
-1352 -216 -693 0
-1352 -216 -717 0
-1352 -216 -765 0
-1352 -216 -682 0
-1352 -216 -706 0
-1352 -216 -754 0
-1352 -216 -688 0
-1352 -216 -712 0
-1352 -216 -760 0
-1352 -216 -694 0
-1352 -216 -718 0
-1352 -216 -766 0
-1352 -217 -687 0
-1352 -217 -711 0
-1352 -217 -759 0
-1352 -217 -693 0
-1352 -217 -717 0
-1352 -217 -765 0
-1352 -217 -688 0
-1352 -217 -712 0
-1352 -217 -760 0
-1352 -217 -694 0
-1352 -217 -718 0
-1352 -217 -766 0
-1352 -218 -693 0
-1352 -218 -717 0
-1352 -218 -765 0
-1352 -218 -694 0
-1352 -218 -718 0
-1352 -218 -766 0
-1352 -219 0
-1352 121 0
-1352 -216 237 0
-1352 -217 238 0
-1352 -218 239 0
-1352 -281 0
-1353 278 0
-1353 -101 -216 -221 0
-1353 -101 -217 -222 0
-1353 -101 -218 -223 0
-1353 95 96 0
-1353 -95 -216 1577 730 0
-1353 -95 -217 1577 736 0
-1353 -95 -218 1577 742 0
-1353 -96 -216 1578 731 0
-1353 -96 -217 1578 737 0
-1353 -96 -218 1578 743 0
-1353 -216 -682 0
-1353 -216 -706 0
-1353 -216 -754 0
-1353 -216 -688 0
-1353 -216 -712 0
-1353 -216 -760 0
-1353 -216 -694 0
-1353 -216 -718 0
-1353 -216 -766 0
-1353 -216 -683 0
-1353 -216 -707 0
-1353 -216 -755 0
-1353 -216 -689 0
-1353 -216 -713 0
-1353 -216 -761 0
-1353 -216 -695 0
-1353 -216 -719 0
-1353 -216 -767 0
-1353 -217 -688 0
-1353 -217 -712 0
-1353 -217 -760 0
-1353 -217 -694 0
-1353 -217 -718 0
-1353 -217 -766 0
-1353 -217 -689 0
-1353 -217 -713 0
-1353 -217 -761 0
-1353 -217 -695 0
-1353 -217 -719 0
-1353 -217 -767 0
-1353 -218 -694 0
-1353 -218 -718 0
-1353 -218 -766 0
-1353 -218 -695 0
-1353 -218 -719 0
-1353 -218 -767 0
-1353 -219 0
-1353 122 0
-1353 -216 237 0
-1353 -217 238 0
-1353 -218 239 0
-1353 -281 0
-1354 278 0
-1354 -97 -224 -221 0
-1354 -97 -225 -222 0
-1354 -97 -226 -223 0
-1354 102 103 0
-1354 -102 -224 1585 726 0
-1354 -102 -225 1585 732 0
-1354 -102 -226 1585 738 0
-1354 -102 -224 1586 727 0
-1354 -102 -225 1586 733 0
-1354 -102 -226 1586 739 0
-1354 -103 -224 1586 727 0
-1354 -103 -225 1586 733 0
-1354 -103 -226 1586 739 0
-1354 -224 -678 0
-1354 -224 -702 0
-1354 -224 -750 0
-1354 -224 -684 0
-1354 -224 -708 0
-1354 -224 -756 0
-1354 -224 -690 0
-1354 -224 -714 0
-1354 -224 -762 0
-1354 -224 -679 0
-1354 -224 -703 0
-1354 -224 -751 0
-1354 -224 -685 0
-1354 -224 -709 0
-1354 -224 -757 0
-1354 -224 -691 0
-1354 -224 -715 0
-1354 -224 -763 0
-1354 -225 -684 0
-1354 -225 -708 0
-1354 -225 -756 0
-1354 -225 -690 0
-1354 -225 -714 0
-1354 -225 -762 0
-1354 -225 -685 0
-1354 -225 -709 0
-1354 -225 -757 0
-1354 -225 -691 0
-1354 -225 -715 0
-1354 -225 -763 0
-1354 -226 -690 0
-1354 -226 -714 0
-1354 -226 -762 0
-1354 -226 -691 0
-1354 -226 -715 0
-1354 -226 -763 0
-1354 -227 0
-1354 118 0
-1354 -224 237 0
-1354 -225 238 0
-1354 -226 239 0
-1354 -283 0
-1355 278 0
-1355 -98 -224 -221 0
-1355 -98 -225 -222 0
-1355 -98 -226 -223 0
-1355 102 103 104 0
-1355 -102 -224 1586 727 0
-1355 -102 -225 1586 733 0
-1355 -102 -226 1586 739 0
-1355 -102 -224 1587 728 0
-1355 -102 -225 1587 734 0
-1355 -102 -226 1587 740 0
-1355 -103 -224 1586 727 0
-1355 -103 -225 1586 733 0
-1355 -103 -226 1586 739 0
-1355 -103 -224 1587 728 0
-1355 -103 -225 1587 734 0
-1355 -103 -226 1587 740 0
-1355 -104 -224 1587 728 0
-1355 -104 -225 1587 734 0
-1355 -104 -226 1587 740 0
-1355 -224 -679 0
-1355 -224 -703 0
-1355 -224 -751 0
-1355 -224 -685 0
-1355 -224 -709 0
-1355 -224 -757 0
-1355 -224 -691 0
-1355 -224 -715 0
-1355 -224 -763 0
-1355 -224 -680 0
-1355 -224 -704 0
-1355 -224 -752 0
-1355 -224 -686 0
-1355 -224 -710 0
-1355 -224 -758 0
-1355 -224 -692 0
-1355 -224 -716 0
-1355 -224 -764 0
-1355 -225 -685 0
-1355 -225 -709 0
-1355 -225 -757 0
-1355 -225 -691 0
-1355 -225 -715 0
-1355 -225 -763 0
-1355 -225 -686 0
-1355 -225 -710 0
-1355 -225 -758 0
-1355 -225 -692 0
-1355 -225 -716 0
-1355 -225 -764 0
-1355 -226 -691 0
-1355 -226 -715 0
-1355 -226 -763 0
-1355 -226 -692 0
-1355 -226 -716 0
-1355 -226 -764 0
-1355 -227 0
-1355 119 0
-1355 -224 237 0
-1355 -225 238 0
-1355 -226 239 0
-1355 -283 0
-1356 278 0
-1356 -99 -224 -221 0
-1356 -99 -225 -222 0
-1356 -99 -226 -223 0
-1356 102 103 104 105 0
-1356 -102 -224 1587 728 0
-1356 -102 -225 1587 734 0
-1356 -102 -226 1587 740 0
-1356 -103 -224 1587 728 0
-1356 -103 -225 1587 734 0
-1356 -103 -226 1587 740 0
-1356 -103 -224 1588 729 0
-1356 -103 -225 1588 735 0
-1356 -103 -226 1588 741 0
-1356 -104 -224 1587 728 0
-1356 -104 -225 1587 734 0
-1356 -104 -226 1587 740 0
-1356 -104 -224 1588 729 0
-1356 -104 -225 1588 735 0
-1356 -104 -226 1588 741 0
-1356 -105 -224 1588 729 0
-1356 -105 -225 1588 735 0
-1356 -105 -226 1588 741 0
-1356 -224 -680 0
-1356 -224 -704 0
-1356 -224 -752 0
-1356 -224 -686 0
-1356 -224 -710 0
-1356 -224 -758 0
-1356 -224 -692 0
-1356 -224 -716 0
-1356 -224 -764 0
-1356 -224 -681 0
-1356 -224 -705 0
-1356 -224 -753 0
-1356 -224 -687 0
-1356 -224 -711 0
-1356 -224 -759 0
-1356 -224 -693 0
-1356 -224 -717 0
-1356 -224 -765 0
-1356 -225 -686 0
-1356 -225 -710 0
-1356 -225 -758 0
-1356 -225 -692 0
-1356 -225 -716 0
-1356 -225 -764 0
-1356 -225 -687 0
-1356 -225 -711 0
-1356 -225 -759 0
-1356 -225 -693 0
-1356 -225 -717 0
-1356 -225 -765 0
-1356 -226 -692 0
-1356 -226 -716 0
-1356 -226 -764 0
-1356 -226 -693 0
-1356 -226 -717 0
-1356 -226 -765 0
-1356 -227 0
-1356 120 0
-1356 -224 237 0
-1356 -225 238 0
-1356 -226 239 0
-1356 -283 0
-1357 278 0
-1357 -100 -224 -221 0
-1357 -100 -225 -222 0
-1357 -100 -226 -223 0
-1357 103 104 105 0
-1357 -103 -224 1588 729 0
-1357 -103 -225 1588 735 0
-1357 -103 -226 1588 741 0
-1357 -104 -224 1588 729 0
-1357 -104 -225 1588 735 0
-1357 -104 -226 1588 741 0
-1357 -104 -224 1589 730 0
-1357 -104 -225 1589 736 0
-1357 -104 -226 1589 742 0
-1357 -105 -224 1588 729 0
-1357 -105 -225 1588 735 0
-1357 -105 -226 1588 741 0
-1357 -105 -224 1589 730 0
-1357 -105 -225 1589 736 0
-1357 -105 -226 1589 742 0
-1357 -224 -681 0
-1357 -224 -705 0
-1357 -224 -753 0
-1357 -224 -687 0
-1357 -224 -711 0
-1357 -224 -759 0
-1357 -224 -693 0
-1357 -224 -717 0
-1357 -224 -765 0
-1357 -224 -682 0
-1357 -224 -706 0
-1357 -224 -754 0
-1357 -224 -688 0
-1357 -224 -712 0
-1357 -224 -760 0
-1357 -224 -694 0
-1357 -224 -718 0
-1357 -224 -766 0
-1357 -225 -687 0
-1357 -225 -711 0
-1357 -225 -759 0
-1357 -225 -693 0
-1357 -225 -717 0
-1357 -225 -765 0
-1357 -225 -688 0
-1357 -225 -712 0
-1357 -225 -760 0
-1357 -225 -694 0
-1357 -225 -718 0
-1357 -225 -766 0
-1357 -226 -693 0
-1357 -226 -717 0
-1357 -226 -765 0
-1357 -226 -694 0
-1357 -226 -718 0
-1357 -226 -766 0
-1357 -227 0
-1357 121 0
-1357 -224 237 0
-1357 -225 238 0
-1357 -226 239 0
-1357 -283 0
-1358 278 0
-1358 -101 -224 -221 0
-1358 -101 -225 -222 0
-1358 -101 -226 -223 0
-1358 104 105 0
-1358 -104 -224 1589 730 0
-1358 -104 -225 1589 736 0
-1358 -104 -226 1589 742 0
-1358 -105 -224 1589 730 0
-1358 -105 -225 1589 736 0
-1358 -105 -226 1589 742 0
-1358 -105 -224 1590 731 0
-1358 -105 -225 1590 737 0
-1358 -105 -226 1590 743 0
-1358 -224 -682 0
-1358 -224 -706 0
-1358 -224 -754 0
-1358 -224 -688 0
-1358 -224 -712 0
-1358 -224 -760 0
-1358 -224 -694 0
-1358 -224 -718 0
-1358 -224 -766 0
-1358 -224 -683 0
-1358 -224 -707 0
-1358 -224 -755 0
-1358 -224 -689 0
-1358 -224 -713 0
-1358 -224 -761 0
-1358 -224 -695 0
-1358 -224 -719 0
-1358 -224 -767 0
-1358 -225 -688 0
-1358 -225 -712 0
-1358 -225 -760 0
-1358 -225 -694 0
-1358 -225 -718 0
-1358 -225 -766 0
-1358 -225 -689 0
-1358 -225 -713 0
-1358 -225 -761 0
-1358 -225 -695 0
-1358 -225 -719 0
-1358 -225 -767 0
-1358 -226 -694 0
-1358 -226 -718 0
-1358 -226 -766 0
-1358 -226 -695 0
-1358 -226 -719 0
-1358 -226 -767 0
-1358 -227 0
-1358 122 0
-1358 -224 237 0
-1358 -225 238 0
-1358 -226 239 0
-1358 -283 0
-1359 278 0
-1359 -97 -220 0
-1359 -672 0
-1359 -696 0
-1359 -744 0
-1359 -678 0
-1359 -702 0
-1359 -750 0
-1359 -684 0
-1359 -708 0
-1359 -756 0
-1359 -690 0
-1359 -714 0
-1359 -762 0
-1359 -673 0
-1359 -697 0
-1359 -745 0
-1359 -679 0
-1359 -703 0
-1359 -751 0
-1359 -685 0
-1359 -709 0
-1359 -757 0
-1359 -691 0
-1359 -715 0
-1359 -763 0
-1359 118 0
-1359 236 0
-1360 278 0
-1360 -98 -220 0
-1360 -673 0
-1360 -697 0
-1360 -745 0
-1360 -679 0
-1360 -703 0
-1360 -751 0
-1360 -685 0
-1360 -709 0
-1360 -757 0
-1360 -691 0
-1360 -715 0
-1360 -763 0
-1360 -674 0
-1360 -698 0
-1360 -746 0
-1360 -680 0
-1360 -704 0
-1360 -752 0
-1360 -686 0
-1360 -710 0
-1360 -758 0
-1360 -692 0
-1360 -716 0
-1360 -764 0
-1360 119 0
-1360 236 0
-1361 278 0
-1361 -99 -220 0
-1361 -674 0
-1361 -698 0
-1361 -746 0
-1361 -680 0
-1361 -704 0
-1361 -752 0
-1361 -686 0
-1361 -710 0
-1361 -758 0
-1361 -692 0
-1361 -716 0
-1361 -764 0
-1361 -675 0
-1361 -699 0
-1361 -747 0
-1361 -681 0
-1361 -705 0
-1361 -753 0
-1361 -687 0
-1361 -711 0
-1361 -759 0
-1361 -693 0
-1361 -717 0
-1361 -765 0
-1361 120 0
-1361 236 0
-1362 278 0
-1362 -100 -220 0
-1362 -675 0
-1362 -699 0
-1362 -747 0
-1362 -681 0
-1362 -705 0
-1362 -753 0
-1362 -687 0
-1362 -711 0
-1362 -759 0
-1362 -693 0
-1362 -717 0
-1362 -765 0
-1362 -676 0
-1362 -700 0
-1362 -748 0
-1362 -682 0
-1362 -706 0
-1362 -754 0
-1362 -688 0
-1362 -712 0
-1362 -760 0
-1362 -694 0
-1362 -718 0
-1362 -766 0
-1362 121 0
-1362 236 0
-1363 278 0
-1363 -101 -220 0
-1363 -676 0
-1363 -700 0
-1363 -748 0
-1363 -682 0
-1363 -706 0
-1363 -754 0
-1363 -688 0
-1363 -712 0
-1363 -760 0
-1363 -694 0
-1363 -718 0
-1363 -766 0
-1363 -677 0
-1363 -701 0
-1363 -749 0
-1363 -683 0
-1363 -707 0
-1363 -755 0
-1363 -689 0
-1363 -713 0
-1363 -761 0
-1363 -695 0
-1363 -719 0
-1363 -767 0
-1363 122 0
-1363 236 0
-1364 279 0
-1364 -102 -212 -225 0
-1364 -102 -213 -226 0
-1364 -102 -214 -227 0
-1364 85 86 87 0
-1364 -85 -212 1567 750 0
-1364 -85 -213 1567 756 0
-1364 -85 -214 1567 762 0
-1364 -86 -212 1568 751 0
-1364 -86 -213 1568 757 0
-1364 -86 -214 1568 763 0
-1364 -87 -212 1569 752 0
-1364 -87 -213 1569 758 0
-1364 -87 -214 1569 764 0
-1364 -212 -678 0
-1364 -212 -702 0
-1364 -212 -726 0
-1364 -212 -684 0
-1364 -212 -708 0
-1364 -212 -732 0
-1364 -212 -690 0
-1364 -212 -714 0
-1364 -212 -738 0
-1364 -212 -679 0
-1364 -212 -703 0
-1364 -212 -727 0
-1364 -212 -685 0
-1364 -212 -709 0
-1364 -212 -733 0
-1364 -212 -691 0
-1364 -212 -715 0
-1364 -212 -739 0
-1364 -212 -680 0
-1364 -212 -704 0
-1364 -212 -728 0
-1364 -212 -686 0
-1364 -212 -710 0
-1364 -212 -734 0
-1364 -212 -692 0
-1364 -212 -716 0
-1364 -212 -740 0
-1364 -213 -684 0
-1364 -213 -708 0
-1364 -213 -732 0
-1364 -213 -690 0
-1364 -213 -714 0
-1364 -213 -738 0
-1364 -213 -685 0
-1364 -213 -709 0
-1364 -213 -733 0
-1364 -213 -691 0
-1364 -213 -715 0
-1364 -213 -739 0
-1364 -213 -686 0
-1364 -213 -710 0
-1364 -213 -734 0
-1364 -213 -692 0
-1364 -213 -716 0
-1364 -213 -740 0
-1364 -214 -690 0
-1364 -214 -714 0
-1364 -214 -738 0
-1364 -214 -691 0
-1364 -214 -715 0
-1364 -214 -739 0
-1364 -214 -692 0
-1364 -214 -716 0
-1364 -214 -740 0
-1364 -215 0
-1364 123 0
-1364 -212 241 0
-1364 -213 242 0
-1364 -214 243 0
-1364 -280 0
-1365 279 0
-1365 -103 -212 -225 0
-1365 -103 -213 -226 0
-1365 -103 -214 -227 0
-1365 86 87 88 0
-1365 -86 -212 1568 751 0
-1365 -86 -213 1568 757 0
-1365 -86 -214 1568 763 0
-1365 -87 -212 1569 752 0
-1365 -87 -213 1569 758 0
-1365 -87 -214 1569 764 0
-1365 -88 -212 1570 753 0
-1365 -88 -213 1570 759 0
-1365 -88 -214 1570 765 0
-1365 -212 -679 0
-1365 -212 -703 0
-1365 -212 -727 0
-1365 -212 -685 0
-1365 -212 -709 0
-1365 -212 -733 0
-1365 -212 -691 0
-1365 -212 -715 0
-1365 -212 -739 0
-1365 -212 -680 0
-1365 -212 -704 0
-1365 -212 -728 0
-1365 -212 -686 0
-1365 -212 -710 0
-1365 -212 -734 0
-1365 -212 -692 0
-1365 -212 -716 0
-1365 -212 -740 0
-1365 -212 -681 0
-1365 -212 -705 0
-1365 -212 -729 0
-1365 -212 -687 0
-1365 -212 -711 0
-1365 -212 -735 0
-1365 -212 -693 0
-1365 -212 -717 0
-1365 -212 -741 0
-1365 -213 -685 0
-1365 -213 -709 0
-1365 -213 -733 0
-1365 -213 -691 0
-1365 -213 -715 0
-1365 -213 -739 0
-1365 -213 -686 0
-1365 -213 -710 0
-1365 -213 -734 0
-1365 -213 -692 0
-1365 -213 -716 0
-1365 -213 -740 0
-1365 -213 -687 0
-1365 -213 -711 0
-1365 -213 -735 0
-1365 -213 -693 0
-1365 -213 -717 0
-1365 -213 -741 0
-1365 -214 -691 0
-1365 -214 -715 0
-1365 -214 -739 0
-1365 -214 -692 0
-1365 -214 -716 0
-1365 -214 -740 0
-1365 -214 -693 0
-1365 -214 -717 0
-1365 -214 -741 0
-1365 -215 0
-1365 124 0
-1365 -212 241 0
-1365 -213 242 0
-1365 -214 243 0
-1365 -280 0
-1366 279 0
-1366 -104 -212 -225 0
-1366 -104 -213 -226 0
-1366 -104 -214 -227 0
-1366 87 88 89 0
-1366 -87 -212 1569 752 0
-1366 -87 -213 1569 758 0
-1366 -87 -214 1569 764 0
-1366 -88 -212 1570 753 0
-1366 -88 -213 1570 759 0
-1366 -88 -214 1570 765 0
-1366 -89 -212 1571 754 0
-1366 -89 -213 1571 760 0
-1366 -89 -214 1571 766 0
-1366 -212 -680 0
-1366 -212 -704 0
-1366 -212 -728 0
-1366 -212 -686 0
-1366 -212 -710 0
-1366 -212 -734 0
-1366 -212 -692 0
-1366 -212 -716 0
-1366 -212 -740 0
-1366 -212 -681 0
-1366 -212 -705 0
-1366 -212 -729 0
-1366 -212 -687 0
-1366 -212 -711 0
-1366 -212 -735 0
-1366 -212 -693 0
-1366 -212 -717 0
-1366 -212 -741 0
-1366 -212 -682 0
-1366 -212 -706 0
-1366 -212 -730 0
-1366 -212 -688 0
-1366 -212 -712 0
-1366 -212 -736 0
-1366 -212 -694 0
-1366 -212 -718 0
-1366 -212 -742 0
-1366 -213 -686 0
-1366 -213 -710 0
-1366 -213 -734 0
-1366 -213 -692 0
-1366 -213 -716 0
-1366 -213 -740 0
-1366 -213 -687 0
-1366 -213 -711 0
-1366 -213 -735 0
-1366 -213 -693 0
-1366 -213 -717 0
-1366 -213 -741 0
-1366 -213 -688 0
-1366 -213 -712 0
-1366 -213 -736 0
-1366 -213 -694 0
-1366 -213 -718 0
-1366 -213 -742 0
-1366 -214 -692 0
-1366 -214 -716 0
-1366 -214 -740 0
-1366 -214 -693 0
-1366 -214 -717 0
-1366 -214 -741 0
-1366 -214 -694 0
-1366 -214 -718 0
-1366 -214 -742 0
-1366 -215 0
-1366 125 0
-1366 -212 241 0
-1366 -213 242 0
-1366 -214 243 0
-1366 -280 0
-1367 279 0
-1367 -105 -212 -225 0
-1367 -105 -213 -226 0
-1367 -105 -214 -227 0
-1367 88 89 90 0
-1367 -88 -212 1570 753 0
-1367 -88 -213 1570 759 0
-1367 -88 -214 1570 765 0
-1367 -89 -212 1571 754 0
-1367 -89 -213 1571 760 0
-1367 -89 -214 1571 766 0
-1367 -90 -212 1572 755 0
-1367 -90 -213 1572 761 0
-1367 -90 -214 1572 767 0
-1367 -212 -681 0
-1367 -212 -705 0
-1367 -212 -729 0
-1367 -212 -687 0
-1367 -212 -711 0
-1367 -212 -735 0
-1367 -212 -693 0
-1367 -212 -717 0
-1367 -212 -741 0
-1367 -212 -682 0
-1367 -212 -706 0
-1367 -212 -730 0
-1367 -212 -688 0
-1367 -212 -712 0
-1367 -212 -736 0
-1367 -212 -694 0
-1367 -212 -718 0
-1367 -212 -742 0
-1367 -212 -683 0
-1367 -212 -707 0
-1367 -212 -731 0
-1367 -212 -689 0
-1367 -212 -713 0
-1367 -212 -737 0
-1367 -212 -695 0
-1367 -212 -719 0
-1367 -212 -743 0
-1367 -213 -687 0
-1367 -213 -711 0
-1367 -213 -735 0
-1367 -213 -693 0
-1367 -213 -717 0
-1367 -213 -741 0
-1367 -213 -688 0
-1367 -213 -712 0
-1367 -213 -736 0
-1367 -213 -694 0
-1367 -213 -718 0
-1367 -213 -742 0
-1367 -213 -689 0
-1367 -213 -713 0
-1367 -213 -737 0
-1367 -213 -695 0
-1367 -213 -719 0
-1367 -213 -743 0
-1367 -214 -693 0
-1367 -214 -717 0
-1367 -214 -741 0
-1367 -214 -694 0
-1367 -214 -718 0
-1367 -214 -742 0
-1367 -214 -695 0
-1367 -214 -719 0
-1367 -214 -743 0
-1367 -215 0
-1367 126 0
-1367 -212 241 0
-1367 -213 242 0
-1367 -214 243 0
-1367 -280 0
-1368 279 0
-1368 -102 -216 -225 0
-1368 -102 -217 -226 0
-1368 -102 -218 -227 0
-1368 91 92 93 0
-1368 -91 -216 1573 750 0
-1368 -91 -217 1573 756 0
-1368 -91 -218 1573 762 0
-1368 -92 -216 1574 751 0
-1368 -92 -217 1574 757 0
-1368 -92 -218 1574 763 0
-1368 -93 -216 1575 752 0
-1368 -93 -217 1575 758 0
-1368 -93 -218 1575 764 0
-1368 -216 -678 0
-1368 -216 -702 0
-1368 -216 -726 0
-1368 -216 -684 0
-1368 -216 -708 0
-1368 -216 -732 0
-1368 -216 -690 0
-1368 -216 -714 0
-1368 -216 -738 0
-1368 -216 -679 0
-1368 -216 -703 0
-1368 -216 -727 0
-1368 -216 -685 0
-1368 -216 -709 0
-1368 -216 -733 0
-1368 -216 -691 0
-1368 -216 -715 0
-1368 -216 -739 0
-1368 -216 -680 0
-1368 -216 -704 0
-1368 -216 -728 0
-1368 -216 -686 0
-1368 -216 -710 0
-1368 -216 -734 0
-1368 -216 -692 0
-1368 -216 -716 0
-1368 -216 -740 0
-1368 -217 -684 0
-1368 -217 -708 0
-1368 -217 -732 0
-1368 -217 -690 0
-1368 -217 -714 0
-1368 -217 -738 0
-1368 -217 -685 0
-1368 -217 -709 0
-1368 -217 -733 0
-1368 -217 -691 0
-1368 -217 -715 0
-1368 -217 -739 0
-1368 -217 -686 0
-1368 -217 -710 0
-1368 -217 -734 0
-1368 -217 -692 0
-1368 -217 -716 0
-1368 -217 -740 0
-1368 -218 -690 0
-1368 -218 -714 0
-1368 -218 -738 0
-1368 -218 -691 0
-1368 -218 -715 0
-1368 -218 -739 0
-1368 -218 -692 0
-1368 -218 -716 0
-1368 -218 -740 0
-1368 -219 0
-1368 123 0
-1368 -216 241 0
-1368 -217 242 0
-1368 -218 243 0
-1368 -281 0
-1369 279 0
-1369 -103 -216 -225 0
-1369 -103 -217 -226 0
-1369 -103 -218 -227 0
-1369 92 93 94 0
-1369 -92 -216 1574 751 0
-1369 -92 -217 1574 757 0
-1369 -92 -218 1574 763 0
-1369 -93 -216 1575 752 0
-1369 -93 -217 1575 758 0
-1369 -93 -218 1575 764 0
-1369 -94 -216 1576 753 0
-1369 -94 -217 1576 759 0
-1369 -94 -218 1576 765 0
-1369 -216 -679 0
-1369 -216 -703 0
-1369 -216 -727 0
-1369 -216 -685 0
-1369 -216 -709 0
-1369 -216 -733 0
-1369 -216 -691 0
-1369 -216 -715 0
-1369 -216 -739 0
-1369 -216 -680 0
-1369 -216 -704 0
-1369 -216 -728 0
-1369 -216 -686 0
-1369 -216 -710 0
-1369 -216 -734 0
-1369 -216 -692 0
-1369 -216 -716 0
-1369 -216 -740 0
-1369 -216 -681 0
-1369 -216 -705 0
-1369 -216 -729 0
-1369 -216 -687 0
-1369 -216 -711 0
-1369 -216 -735 0
-1369 -216 -693 0
-1369 -216 -717 0
-1369 -216 -741 0
-1369 -217 -685 0
-1369 -217 -709 0
-1369 -217 -733 0
-1369 -217 -691 0
-1369 -217 -715 0
-1369 -217 -739 0
-1369 -217 -686 0
-1369 -217 -710 0
-1369 -217 -734 0
-1369 -217 -692 0
-1369 -217 -716 0
-1369 -217 -740 0
-1369 -217 -687 0
-1369 -217 -711 0
-1369 -217 -735 0
-1369 -217 -693 0
-1369 -217 -717 0
-1369 -217 -741 0
-1369 -218 -691 0
-1369 -218 -715 0
-1369 -218 -739 0
-1369 -218 -692 0
-1369 -218 -716 0
-1369 -218 -740 0
-1369 -218 -693 0
-1369 -218 -717 0
-1369 -218 -741 0
-1369 -219 0
-1369 124 0
-1369 -216 241 0
-1369 -217 242 0
-1369 -218 243 0
-1369 -281 0
-1370 279 0
-1370 -104 -216 -225 0
-1370 -104 -217 -226 0
-1370 -104 -218 -227 0
-1370 93 94 95 0
-1370 -93 -216 1575 752 0
-1370 -93 -217 1575 758 0
-1370 -93 -218 1575 764 0
-1370 -94 -216 1576 753 0
-1370 -94 -217 1576 759 0
-1370 -94 -218 1576 765 0
-1370 -95 -216 1577 754 0
-1370 -95 -217 1577 760 0
-1370 -95 -218 1577 766 0
-1370 -216 -680 0
-1370 -216 -704 0
-1370 -216 -728 0
-1370 -216 -686 0
-1370 -216 -710 0
-1370 -216 -734 0
-1370 -216 -692 0
-1370 -216 -716 0
-1370 -216 -740 0
-1370 -216 -681 0
-1370 -216 -705 0
-1370 -216 -729 0
-1370 -216 -687 0
-1370 -216 -711 0
-1370 -216 -735 0
-1370 -216 -693 0
-1370 -216 -717 0
-1370 -216 -741 0
-1370 -216 -682 0
-1370 -216 -706 0
-1370 -216 -730 0
-1370 -216 -688 0
-1370 -216 -712 0
-1370 -216 -736 0
-1370 -216 -694 0
-1370 -216 -718 0
-1370 -216 -742 0
-1370 -217 -686 0
-1370 -217 -710 0
-1370 -217 -734 0
-1370 -217 -692 0
-1370 -217 -716 0
-1370 -217 -740 0
-1370 -217 -687 0
-1370 -217 -711 0
-1370 -217 -735 0
-1370 -217 -693 0
-1370 -217 -717 0
-1370 -217 -741 0
-1370 -217 -688 0
-1370 -217 -712 0
-1370 -217 -736 0
-1370 -217 -694 0
-1370 -217 -718 0
-1370 -217 -742 0
-1370 -218 -692 0
-1370 -218 -716 0
-1370 -218 -740 0
-1370 -218 -693 0
-1370 -218 -717 0
-1370 -218 -741 0
-1370 -218 -694 0
-1370 -218 -718 0
-1370 -218 -742 0
-1370 -219 0
-1370 125 0
-1370 -216 241 0
-1370 -217 242 0
-1370 -218 243 0
-1370 -281 0
-1371 279 0
-1371 -105 -216 -225 0
-1371 -105 -217 -226 0
-1371 -105 -218 -227 0
-1371 94 95 96 0
-1371 -94 -216 1576 753 0
-1371 -94 -217 1576 759 0
-1371 -94 -218 1576 765 0
-1371 -95 -216 1577 754 0
-1371 -95 -217 1577 760 0
-1371 -95 -218 1577 766 0
-1371 -96 -216 1578 755 0
-1371 -96 -217 1578 761 0
-1371 -96 -218 1578 767 0
-1371 -216 -681 0
-1371 -216 -705 0
-1371 -216 -729 0
-1371 -216 -687 0
-1371 -216 -711 0
-1371 -216 -735 0
-1371 -216 -693 0
-1371 -216 -717 0
-1371 -216 -741 0
-1371 -216 -682 0
-1371 -216 -706 0
-1371 -216 -730 0
-1371 -216 -688 0
-1371 -216 -712 0
-1371 -216 -736 0
-1371 -216 -694 0
-1371 -216 -718 0
-1371 -216 -742 0
-1371 -216 -683 0
-1371 -216 -707 0
-1371 -216 -731 0
-1371 -216 -689 0
-1371 -216 -713 0
-1371 -216 -737 0
-1371 -216 -695 0
-1371 -216 -719 0
-1371 -216 -743 0
-1371 -217 -687 0
-1371 -217 -711 0
-1371 -217 -735 0
-1371 -217 -693 0
-1371 -217 -717 0
-1371 -217 -741 0
-1371 -217 -688 0
-1371 -217 -712 0
-1371 -217 -736 0
-1371 -217 -694 0
-1371 -217 -718 0
-1371 -217 -742 0
-1371 -217 -689 0
-1371 -217 -713 0
-1371 -217 -737 0
-1371 -217 -695 0
-1371 -217 -719 0
-1371 -217 -743 0
-1371 -218 -693 0
-1371 -218 -717 0
-1371 -218 -741 0
-1371 -218 -694 0
-1371 -218 -718 0
-1371 -218 -742 0
-1371 -218 -695 0
-1371 -218 -719 0
-1371 -218 -743 0
-1371 -219 0
-1371 126 0
-1371 -216 241 0
-1371 -217 242 0
-1371 -218 243 0
-1371 -281 0
-1372 279 0
-1372 -102 -220 -225 0
-1372 -102 -221 -226 0
-1372 -102 -222 -227 0
-1372 97 98 99 0
-1372 -97 -220 1579 750 0
-1372 -97 -221 1579 756 0
-1372 -97 -222 1579 762 0
-1372 -97 -220 1580 751 0
-1372 -97 -221 1580 757 0
-1372 -97 -222 1580 763 0
-1372 -98 -220 1580 751 0
-1372 -98 -221 1580 757 0
-1372 -98 -222 1580 763 0
-1372 -98 -220 1581 752 0
-1372 -98 -221 1581 758 0
-1372 -98 -222 1581 764 0
-1372 -99 -220 1581 752 0
-1372 -99 -221 1581 758 0
-1372 -99 -222 1581 764 0
-1372 -220 -678 0
-1372 -220 -702 0
-1372 -220 -726 0
-1372 -220 -684 0
-1372 -220 -708 0
-1372 -220 -732 0
-1372 -220 -690 0
-1372 -220 -714 0
-1372 -220 -738 0
-1372 -220 -679 0
-1372 -220 -703 0
-1372 -220 -727 0
-1372 -220 -685 0
-1372 -220 -709 0
-1372 -220 -733 0
-1372 -220 -691 0
-1372 -220 -715 0
-1372 -220 -739 0
-1372 -220 -680 0
-1372 -220 -704 0
-1372 -220 -728 0
-1372 -220 -686 0
-1372 -220 -710 0
-1372 -220 -734 0
-1372 -220 -692 0
-1372 -220 -716 0
-1372 -220 -740 0
-1372 -221 -684 0
-1372 -221 -708 0
-1372 -221 -732 0
-1372 -221 -690 0
-1372 -221 -714 0
-1372 -221 -738 0
-1372 -221 -685 0
-1372 -221 -709 0
-1372 -221 -733 0
-1372 -221 -691 0
-1372 -221 -715 0
-1372 -221 -739 0
-1372 -221 -686 0
-1372 -221 -710 0
-1372 -221 -734 0
-1372 -221 -692 0
-1372 -221 -716 0
-1372 -221 -740 0
-1372 -222 -690 0
-1372 -222 -714 0
-1372 -222 -738 0
-1372 -222 -691 0
-1372 -222 -715 0
-1372 -222 -739 0
-1372 -222 -692 0
-1372 -222 -716 0
-1372 -222 -740 0
-1372 -223 0
-1372 123 0
-1372 -220 241 0
-1372 -221 242 0
-1372 -222 243 0
-1372 -282 0
-1373 279 0
-1373 -103 -220 -225 0
-1373 -103 -221 -226 0
-1373 -103 -222 -227 0
-1373 97 98 99 100 0
-1373 -97 -220 1580 751 0
-1373 -97 -221 1580 757 0
-1373 -97 -222 1580 763 0
-1373 -98 -220 1580 751 0
-1373 -98 -221 1580 757 0
-1373 -98 -222 1580 763 0
-1373 -98 -220 1581 752 0
-1373 -98 -221 1581 758 0
-1373 -98 -222 1581 764 0
-1373 -99 -220 1581 752 0
-1373 -99 -221 1581 758 0
-1373 -99 -222 1581 764 0
-1373 -99 -220 1582 753 0
-1373 -99 -221 1582 759 0
-1373 -99 -222 1582 765 0
-1373 -100 -220 1582 753 0
-1373 -100 -221 1582 759 0
-1373 -100 -222 1582 765 0
-1373 -220 -679 0
-1373 -220 -703 0
-1373 -220 -727 0
-1373 -220 -685 0
-1373 -220 -709 0
-1373 -220 -733 0
-1373 -220 -691 0
-1373 -220 -715 0
-1373 -220 -739 0
-1373 -220 -680 0
-1373 -220 -704 0
-1373 -220 -728 0
-1373 -220 -686 0
-1373 -220 -710 0
-1373 -220 -734 0
-1373 -220 -692 0
-1373 -220 -716 0
-1373 -220 -740 0
-1373 -220 -681 0
-1373 -220 -705 0
-1373 -220 -729 0
-1373 -220 -687 0
-1373 -220 -711 0
-1373 -220 -735 0
-1373 -220 -693 0
-1373 -220 -717 0
-1373 -220 -741 0
-1373 -221 -685 0
-1373 -221 -709 0
-1373 -221 -733 0
-1373 -221 -691 0
-1373 -221 -715 0
-1373 -221 -739 0
-1373 -221 -686 0
-1373 -221 -710 0
-1373 -221 -734 0
-1373 -221 -692 0
-1373 -221 -716 0
-1373 -221 -740 0
-1373 -221 -687 0
-1373 -221 -711 0
-1373 -221 -735 0
-1373 -221 -693 0
-1373 -221 -717 0
-1373 -221 -741 0
-1373 -222 -691 0
-1373 -222 -715 0
-1373 -222 -739 0
-1373 -222 -692 0
-1373 -222 -716 0
-1373 -222 -740 0
-1373 -222 -693 0
-1373 -222 -717 0
-1373 -222 -741 0
-1373 -223 0
-1373 124 0
-1373 -220 241 0
-1373 -221 242 0
-1373 -222 243 0
-1373 -282 0
-1374 279 0
-1374 -104 -220 -225 0
-1374 -104 -221 -226 0
-1374 -104 -222 -227 0
-1374 98 99 100 101 0
-1374 -98 -220 1581 752 0
-1374 -98 -221 1581 758 0
-1374 -98 -222 1581 764 0
-1374 -99 -220 1581 752 0
-1374 -99 -221 1581 758 0
-1374 -99 -222 1581 764 0
-1374 -99 -220 1582 753 0
-1374 -99 -221 1582 759 0
-1374 -99 -222 1582 765 0
-1374 -100 -220 1582 753 0
-1374 -100 -221 1582 759 0
-1374 -100 -222 1582 765 0
-1374 -100 -220 1583 754 0
-1374 -100 -221 1583 760 0
-1374 -100 -222 1583 766 0
-1374 -101 -220 1583 754 0
-1374 -101 -221 1583 760 0
-1374 -101 -222 1583 766 0
-1374 -220 -680 0
-1374 -220 -704 0
-1374 -220 -728 0
-1374 -220 -686 0
-1374 -220 -710 0
-1374 -220 -734 0
-1374 -220 -692 0
-1374 -220 -716 0
-1374 -220 -740 0
-1374 -220 -681 0
-1374 -220 -705 0
-1374 -220 -729 0
-1374 -220 -687 0
-1374 -220 -711 0
-1374 -220 -735 0
-1374 -220 -693 0
-1374 -220 -717 0
-1374 -220 -741 0
-1374 -220 -682 0
-1374 -220 -706 0
-1374 -220 -730 0
-1374 -220 -688 0
-1374 -220 -712 0
-1374 -220 -736 0
-1374 -220 -694 0
-1374 -220 -718 0
-1374 -220 -742 0
-1374 -221 -686 0
-1374 -221 -710 0
-1374 -221 -734 0
-1374 -221 -692 0
-1374 -221 -716 0
-1374 -221 -740 0
-1374 -221 -687 0
-1374 -221 -711 0
-1374 -221 -735 0
-1374 -221 -693 0
-1374 -221 -717 0
-1374 -221 -741 0
-1374 -221 -688 0
-1374 -221 -712 0
-1374 -221 -736 0
-1374 -221 -694 0
-1374 -221 -718 0
-1374 -221 -742 0
-1374 -222 -692 0
-1374 -222 -716 0
-1374 -222 -740 0
-1374 -222 -693 0
-1374 -222 -717 0
-1374 -222 -741 0
-1374 -222 -694 0
-1374 -222 -718 0
-1374 -222 -742 0
-1374 -223 0
-1374 125 0
-1374 -220 241 0
-1374 -221 242 0
-1374 -222 243 0
-1374 -282 0
-1375 279 0
-1375 -105 -220 -225 0
-1375 -105 -221 -226 0
-1375 -105 -222 -227 0
-1375 99 100 101 0
-1375 -99 -220 1582 753 0
-1375 -99 -221 1582 759 0
-1375 -99 -222 1582 765 0
-1375 -100 -220 1582 753 0
-1375 -100 -221 1582 759 0
-1375 -100 -222 1582 765 0
-1375 -100 -220 1583 754 0
-1375 -100 -221 1583 760 0
-1375 -100 -222 1583 766 0
-1375 -101 -220 1583 754 0
-1375 -101 -221 1583 760 0
-1375 -101 -222 1583 766 0
-1375 -101 -220 1584 755 0
-1375 -101 -221 1584 761 0
-1375 -101 -222 1584 767 0
-1375 -220 -681 0
-1375 -220 -705 0
-1375 -220 -729 0
-1375 -220 -687 0
-1375 -220 -711 0
-1375 -220 -735 0
-1375 -220 -693 0
-1375 -220 -717 0
-1375 -220 -741 0
-1375 -220 -682 0
-1375 -220 -706 0
-1375 -220 -730 0
-1375 -220 -688 0
-1375 -220 -712 0
-1375 -220 -736 0
-1375 -220 -694 0
-1375 -220 -718 0
-1375 -220 -742 0
-1375 -220 -683 0
-1375 -220 -707 0
-1375 -220 -731 0
-1375 -220 -689 0
-1375 -220 -713 0
-1375 -220 -737 0
-1375 -220 -695 0
-1375 -220 -719 0
-1375 -220 -743 0
-1375 -221 -687 0
-1375 -221 -711 0
-1375 -221 -735 0
-1375 -221 -693 0
-1375 -221 -717 0
-1375 -221 -741 0
-1375 -221 -688 0
-1375 -221 -712 0
-1375 -221 -736 0
-1375 -221 -694 0
-1375 -221 -718 0
-1375 -221 -742 0
-1375 -221 -689 0
-1375 -221 -713 0
-1375 -221 -737 0
-1375 -221 -695 0
-1375 -221 -719 0
-1375 -221 -743 0
-1375 -222 -693 0
-1375 -222 -717 0
-1375 -222 -741 0
-1375 -222 -694 0
-1375 -222 -718 0
-1375 -222 -742 0
-1375 -222 -695 0
-1375 -222 -719 0
-1375 -222 -743 0
-1375 -223 0
-1375 126 0
-1375 -220 241 0
-1375 -221 242 0
-1375 -222 243 0
-1375 -282 0
-1376 279 0
-1376 -102 -224 0
-1376 -672 0
-1376 -696 0
-1376 -720 0
-1376 -678 0
-1376 -702 0
-1376 -726 0
-1376 -684 0
-1376 -708 0
-1376 -732 0
-1376 -690 0
-1376 -714 0
-1376 -738 0
-1376 -673 0
-1376 -697 0
-1376 -721 0
-1376 -679 0
-1376 -703 0
-1376 -727 0
-1376 -685 0
-1376 -709 0
-1376 -733 0
-1376 -691 0
-1376 -715 0
-1376 -739 0
-1376 -674 0
-1376 -698 0
-1376 -722 0
-1376 -680 0
-1376 -704 0
-1376 -728 0
-1376 -686 0
-1376 -710 0
-1376 -734 0
-1376 -692 0
-1376 -716 0
-1376 -740 0
-1376 123 0
-1376 240 0
-1377 279 0
-1377 -103 -224 0
-1377 -673 0
-1377 -697 0
-1377 -721 0
-1377 -679 0
-1377 -703 0
-1377 -727 0
-1377 -685 0
-1377 -709 0
-1377 -733 0
-1377 -691 0
-1377 -715 0
-1377 -739 0
-1377 -674 0
-1377 -698 0
-1377 -722 0
-1377 -680 0
-1377 -704 0
-1377 -728 0
-1377 -686 0
-1377 -710 0
-1377 -734 0
-1377 -692 0
-1377 -716 0
-1377 -740 0
-1377 -675 0
-1377 -699 0
-1377 -723 0
-1377 -681 0
-1377 -705 0
-1377 -729 0
-1377 -687 0
-1377 -711 0
-1377 -735 0
-1377 -693 0
-1377 -717 0
-1377 -741 0
-1377 124 0
-1377 240 0
-1378 279 0
-1378 -104 -224 0
-1378 -674 0
-1378 -698 0
-1378 -722 0
-1378 -680 0
-1378 -704 0
-1378 -728 0
-1378 -686 0
-1378 -710 0
-1378 -734 0
-1378 -692 0
-1378 -716 0
-1378 -740 0
-1378 -675 0
-1378 -699 0
-1378 -723 0
-1378 -681 0
-1378 -705 0
-1378 -729 0
-1378 -687 0
-1378 -711 0
-1378 -735 0
-1378 -693 0
-1378 -717 0
-1378 -741 0
-1378 -676 0
-1378 -700 0
-1378 -724 0
-1378 -682 0
-1378 -706 0
-1378 -730 0
-1378 -688 0
-1378 -712 0
-1378 -736 0
-1378 -694 0
-1378 -718 0
-1378 -742 0
-1378 125 0
-1378 240 0
-1379 279 0
-1379 -105 -224 0
-1379 -675 0
-1379 -699 0
-1379 -723 0
-1379 -681 0
-1379 -705 0
-1379 -729 0
-1379 -687 0
-1379 -711 0
-1379 -735 0
-1379 -693 0
-1379 -717 0
-1379 -741 0
-1379 -676 0
-1379 -700 0
-1379 -724 0
-1379 -682 0
-1379 -706 0
-1379 -730 0
-1379 -688 0
-1379 -712 0
-1379 -736 0
-1379 -694 0
-1379 -718 0
-1379 -742 0
-1379 -677 0
-1379 -701 0
-1379 -725 0
-1379 -683 0
-1379 -707 0
-1379 -731 0
-1379 -689 0
-1379 -713 0
-1379 -737 0
-1379 -695 0
-1379 -719 0
-1379 -743 0
-1379 126 0
-1379 240 0
85 -106 1296 1297 1298 1299 1300 1301 1302 1303 1304 1305 1306 1307 1308 1309 1310 1311 1312 1313 1314 1315 1316 1317 1318 1319 0
-85 106 1296 1297 1298 1299 1300 1301 1302 1303 1304 1305 1306 1307 1308 1309 1310 1311 1312 1313 1314 1315 1316 1317 1318 1319 0
86 -107 1296 1297 1298 1299 1300 1301 1302 1303 1304 1305 1306 1307 1308 1309 1310 1311 1312 1313 1314 1315 1316 1317 1318 1319 0
-86 107 1296 1297 1298 1299 1300 1301 1302 1303 1304 1305 1306 1307 1308 1309 1310 1311 1312 1313 1314 1315 1316 1317 1318 1319 0
87 -108 1296 1297 1298 1299 1300 1301 1302 1303 1304 1305 1306 1307 1308 1309 1310 1311 1312 1313 1314 1315 1316 1317 1318 1319 0
-87 108 1296 1297 1298 1299 1300 1301 1302 1303 1304 1305 1306 1307 1308 1309 1310 1311 1312 1313 1314 1315 1316 1317 1318 1319 0
88 -109 1296 1297 1298 1299 1300 1301 1302 1303 1304 1305 1306 1307 1308 1309 1310 1311 1312 1313 1314 1315 1316 1317 1318 1319 0
-88 109 1296 1297 1298 1299 1300 1301 1302 1303 1304 1305 1306 1307 1308 1309 1310 1311 1312 1313 1314 1315 1316 1317 1318 1319 0
89 -110 1296 1297 1298 1299 1300 1301 1302 1303 1304 1305 1306 1307 1308 1309 1310 1311 1312 1313 1314 1315 1316 1317 1318 1319 0
-89 110 1296 1297 1298 1299 1300 1301 1302 1303 1304 1305 1306 1307 1308 1309 1310 1311 1312 1313 1314 1315 1316 1317 1318 1319 0
90 -111 1296 1297 1298 1299 1300 1301 1302 1303 1304 1305 1306 1307 1308 1309 1310 1311 1312 1313 1314 1315 1316 1317 1318 1319 0
-90 111 1296 1297 1298 1299 1300 1301 1302 1303 1304 1305 1306 1307 1308 1309 1310 1311 1312 1313 1314 1315 1316 1317 1318 1319 0
212 -228 1296 1297 1298 1299 1300 1301 1302 1303 1304 1305 1306 1307 1308 1309 1310 1311 1312 1313 1314 1315 1316 1317 1318 1319 0
-212 228 1296 1297 1298 1299 1300 1301 1302 1303 1304 1305 1306 1307 1308 1309 1310 1311 1312 1313 1314 1315 1316 1317 1318 1319 0
213 -229 1296 1297 1298 1299 1300 1301 1302 1303 1304 1305 1306 1307 1308 1309 1310 1311 1312 1313 1314 1315 1316 1317 1318 1319 0
-213 229 1296 1297 1298 1299 1300 1301 1302 1303 1304 1305 1306 1307 1308 1309 1310 1311 1312 1313 1314 1315 1316 1317 1318 1319 0
214 -230 1296 1297 1298 1299 1300 1301 1302 1303 1304 1305 1306 1307 1308 1309 1310 1311 1312 1313 1314 1315 1316 1317 1318 1319 0
-214 230 1296 1297 1298 1299 1300 1301 1302 1303 1304 1305 1306 1307 1308 1309 1310 1311 1312 1313 1314 1315 1316 1317 1318 1319 0
215 -231 1296 1297 1298 1299 1300 1301 1302 1303 1304 1305 1306 1307 1308 1309 1310 1311 1312 1313 1314 1315 1316 1317 1318 1319 0
-215 231 1296 1297 1298 1299 1300 1301 1302 1303 1304 1305 1306 1307 1308 1309 1310 1311 1312 1313 1314 1315 1316 1317 1318 1319 0
91 -112 1320 1321 1322 1323 1324 1325 1326 1327 1328 1329 1330 1331 1332 1333 1334 1335 1336 1337 1338 1339 1340 1341 1342 1343 0
-91 112 1320 1321 1322 1323 1324 1325 1326 1327 1328 1329 1330 1331 1332 1333 1334 1335 1336 1337 1338 1339 1340 1341 1342 1343 0
92 -113 1320 1321 1322 1323 1324 1325 1326 1327 1328 1329 1330 1331 1332 1333 1334 1335 1336 1337 1338 1339 1340 1341 1342 1343 0
-92 113 1320 1321 1322 1323 1324 1325 1326 1327 1328 1329 1330 1331 1332 1333 1334 1335 1336 1337 1338 1339 1340 1341 1342 1343 0
93 -114 1320 1321 1322 1323 1324 1325 1326 1327 1328 1329 1330 1331 1332 1333 1334 1335 1336 1337 1338 1339 1340 1341 1342 1343 0
-93 114 1320 1321 1322 1323 1324 1325 1326 1327 1328 1329 1330 1331 1332 1333 1334 1335 1336 1337 1338 1339 1340 1341 1342 1343 0
94 -115 1320 1321 1322 1323 1324 1325 1326 1327 1328 1329 1330 1331 1332 1333 1334 1335 1336 1337 1338 1339 1340 1341 1342 1343 0
-94 115 1320 1321 1322 1323 1324 1325 1326 1327 1328 1329 1330 1331 1332 1333 1334 1335 1336 1337 1338 1339 1340 1341 1342 1343 0
95 -116 1320 1321 1322 1323 1324 1325 1326 1327 1328 1329 1330 1331 1332 1333 1334 1335 1336 1337 1338 1339 1340 1341 1342 1343 0
-95 116 1320 1321 1322 1323 1324 1325 1326 1327 1328 1329 1330 1331 1332 1333 1334 1335 1336 1337 1338 1339 1340 1341 1342 1343 0
96 -117 1320 1321 1322 1323 1324 1325 1326 1327 1328 1329 1330 1331 1332 1333 1334 1335 1336 1337 1338 1339 1340 1341 1342 1343 0
-96 117 1320 1321 1322 1323 1324 1325 1326 1327 1328 1329 1330 1331 1332 1333 1334 1335 1336 1337 1338 1339 1340 1341 1342 1343 0
216 -232 1320 1321 1322 1323 1324 1325 1326 1327 1328 1329 1330 1331 1332 1333 1334 1335 1336 1337 1338 1339 1340 1341 1342 1343 0
-216 232 1320 1321 1322 1323 1324 1325 1326 1327 1328 1329 1330 1331 1332 1333 1334 1335 1336 1337 1338 1339 1340 1341 1342 1343 0
217 -233 1320 1321 1322 1323 1324 1325 1326 1327 1328 1329 1330 1331 1332 1333 1334 1335 1336 1337 1338 1339 1340 1341 1342 1343 0
-217 233 1320 1321 1322 1323 1324 1325 1326 1327 1328 1329 1330 1331 1332 1333 1334 1335 1336 1337 1338 1339 1340 1341 1342 1343 0
218 -234 1320 1321 1322 1323 1324 1325 1326 1327 1328 1329 1330 1331 1332 1333 1334 1335 1336 1337 1338 1339 1340 1341 1342 1343 0
-218 234 1320 1321 1322 1323 1324 1325 1326 1327 1328 1329 1330 1331 1332 1333 1334 1335 1336 1337 1338 1339 1340 1341 1342 1343 0
219 -235 1320 1321 1322 1323 1324 1325 1326 1327 1328 1329 1330 1331 1332 1333 1334 1335 1336 1337 1338 1339 1340 1341 1342 1343 0
-219 235 1320 1321 1322 1323 1324 1325 1326 1327 1328 1329 1330 1331 1332 1333 1334 1335 1336 1337 1338 1339 1340 1341 1342 1343 0
97 -118 1344 1345 1346 1347 1348 1349 1350 1351 1352 1353 1354 1355 1356 1357 1358 1359 1360 1361 1362 1363 0
-97 118 1344 1345 1346 1347 1348 1349 1350 1351 1352 1353 1354 1355 1356 1357 1358 1359 1360 1361 1362 1363 0
98 -119 1344 1345 1346 1347 1348 1349 1350 1351 1352 1353 1354 1355 1356 1357 1358 1359 1360 1361 1362 1363 0
-98 119 1344 1345 1346 1347 1348 1349 1350 1351 1352 1353 1354 1355 1356 1357 1358 1359 1360 1361 1362 1363 0
99 -120 1344 1345 1346 1347 1348 1349 1350 1351 1352 1353 1354 1355 1356 1357 1358 1359 1360 1361 1362 1363 0
-99 120 1344 1345 1346 1347 1348 1349 1350 1351 1352 1353 1354 1355 1356 1357 1358 1359 1360 1361 1362 1363 0
100 -121 1344 1345 1346 1347 1348 1349 1350 1351 1352 1353 1354 1355 1356 1357 1358 1359 1360 1361 1362 1363 0
-100 121 1344 1345 1346 1347 1348 1349 1350 1351 1352 1353 1354 1355 1356 1357 1358 1359 1360 1361 1362 1363 0
101 -122 1344 1345 1346 1347 1348 1349 1350 1351 1352 1353 1354 1355 1356 1357 1358 1359 1360 1361 1362 1363 0
-101 122 1344 1345 1346 1347 1348 1349 1350 1351 1352 1353 1354 1355 1356 1357 1358 1359 1360 1361 1362 1363 0
220 -236 1344 1345 1346 1347 1348 1349 1350 1351 1352 1353 1354 1355 1356 1357 1358 1359 1360 1361 1362 1363 0
-220 236 1344 1345 1346 1347 1348 1349 1350 1351 1352 1353 1354 1355 1356 1357 1358 1359 1360 1361 1362 1363 0
221 -237 1344 1345 1346 1347 1348 1349 1350 1351 1352 1353 1354 1355 1356 1357 1358 1359 1360 1361 1362 1363 0
-221 237 1344 1345 1346 1347 1348 1349 1350 1351 1352 1353 1354 1355 1356 1357 1358 1359 1360 1361 1362 1363 0
222 -238 1344 1345 1346 1347 1348 1349 1350 1351 1352 1353 1354 1355 1356 1357 1358 1359 1360 1361 1362 1363 0
-222 238 1344 1345 1346 1347 1348 1349 1350 1351 1352 1353 1354 1355 1356 1357 1358 1359 1360 1361 1362 1363 0
223 -239 1344 1345 1346 1347 1348 1349 1350 1351 1352 1353 1354 1355 1356 1357 1358 1359 1360 1361 1362 1363 0
-223 239 1344 1345 1346 1347 1348 1349 1350 1351 1352 1353 1354 1355 1356 1357 1358 1359 1360 1361 1362 1363 0
102 -123 1364 1365 1366 1367 1368 1369 1370 1371 1372 1373 1374 1375 1376 1377 1378 1379 0
-102 123 1364 1365 1366 1367 1368 1369 1370 1371 1372 1373 1374 1375 1376 1377 1378 1379 0
103 -124 1364 1365 1366 1367 1368 1369 1370 1371 1372 1373 1374 1375 1376 1377 1378 1379 0
-103 124 1364 1365 1366 1367 1368 1369 1370 1371 1372 1373 1374 1375 1376 1377 1378 1379 0
104 -125 1364 1365 1366 1367 1368 1369 1370 1371 1372 1373 1374 1375 1376 1377 1378 1379 0
-104 125 1364 1365 1366 1367 1368 1369 1370 1371 1372 1373 1374 1375 1376 1377 1378 1379 0
105 -126 1364 1365 1366 1367 1368 1369 1370 1371 1372 1373 1374 1375 1376 1377 1378 1379 0
-105 126 1364 1365 1366 1367 1368 1369 1370 1371 1372 1373 1374 1375 1376 1377 1378 1379 0
224 -240 1364 1365 1366 1367 1368 1369 1370 1371 1372 1373 1374 1375 1376 1377 1378 1379 0
-224 240 1364 1365 1366 1367 1368 1369 1370 1371 1372 1373 1374 1375 1376 1377 1378 1379 0
225 -241 1364 1365 1366 1367 1368 1369 1370 1371 1372 1373 1374 1375 1376 1377 1378 1379 0
-225 241 1364 1365 1366 1367 1368 1369 1370 1371 1372 1373 1374 1375 1376 1377 1378 1379 0
226 -242 1364 1365 1366 1367 1368 1369 1370 1371 1372 1373 1374 1375 1376 1377 1378 1379 0
-226 242 1364 1365 1366 1367 1368 1369 1370 1371 1372 1373 1374 1375 1376 1377 1378 1379 0
227 -243 1364 1365 1366 1367 1368 1369 1370 1371 1372 1373 1374 1375 1376 1377 1378 1379 0
-227 243 1364 1365 1366 1367 1368 1369 1370 1371 1372 1373 1374 1375 1376 1377 1378 1379 0
1296 1297 1298 1299 1300 1301 1302 1303 1304 1305 1306 1307 1308 1309 1310 1311 1312 1313 1314 1315 1316 1317 1318 1319 1320 1321 1322 1323 1324 1325 1326 1327 1328 1329 1330 1331 1332 1333 1334 1335 1336 1337 1338 1339 1340 1341 1342 1343 1344 1345 1346 1347 1348 1349 1350 1351 1352 1353 1354 1355 1356 1357 1358 1359 1360 1361 1362 1363 1364 1365 1366 1367 1368 1369 1370 1371 1372 1373 1374 1375 1376 1377 1378 1379 0
-1296 -1297 0
-1296 -1298 0
-1296 -1299 0
-1296 -1300 0
-1296 -1301 0
-1296 -1302 0
-1296 -1303 0
-1296 -1304 0
-1296 -1305 0
-1296 -1306 0
-1296 -1307 0
-1296 -1308 0
-1296 -1309 0
-1296 -1310 0
-1296 -1311 0
-1296 -1312 0
-1296 -1313 0
-1296 -1314 0
-1296 -1315 0
-1296 -1316 0
-1296 -1317 0
-1296 -1318 0
-1296 -1319 0
-1296 -1320 0
-1296 -1321 0
-1296 -1322 0
-1296 -1323 0
-1296 -1324 0
-1296 -1325 0
-1296 -1326 0
-1296 -1327 0
-1296 -1328 0
-1296 -1329 0
-1296 -1330 0
-1296 -1331 0
-1296 -1332 0
-1296 -1333 0
-1296 -1334 0
-1296 -1335 0
-1296 -1336 0
-1296 -1337 0
-1296 -1338 0
-1296 -1339 0
-1296 -1340 0
-1296 -1341 0
-1296 -1342 0
-1296 -1343 0
-1296 -1344 0
-1296 -1345 0
-1296 -1346 0
-1296 -1347 0
-1296 -1348 0
-1296 -1349 0
-1296 -1350 0
-1296 -1351 0
-1296 -1352 0
-1296 -1353 0
-1296 -1354 0
-1296 -1355 0
-1296 -1356 0
-1296 -1357 0
-1296 -1358 0
-1296 -1359 0
-1296 -1360 0
-1296 -1361 0
-1296 -1362 0
-1296 -1363 0
-1296 -1364 0
-1296 -1365 0
-1296 -1366 0
-1296 -1367 0
-1296 -1368 0
-1296 -1369 0
-1296 -1370 0
-1296 -1371 0
-1296 -1372 0
-1296 -1373 0
-1296 -1374 0
-1296 -1375 0
-1296 -1376 0
-1296 -1377 0
-1296 -1378 0
-1296 -1379 0
-1297 -1298 0
-1297 -1299 0
-1297 -1300 0
-1297 -1301 0
-1297 -1302 0
-1297 -1303 0
-1297 -1304 0
-1297 -1305 0
-1297 -1306 0
-1297 -1307 0
-1297 -1308 0
-1297 -1309 0
-1297 -1310 0
-1297 -1311 0
-1297 -1312 0
-1297 -1313 0
-1297 -1314 0
-1297 -1315 0
-1297 -1316 0
-1297 -1317 0
-1297 -1318 0
-1297 -1319 0
-1297 -1320 0
-1297 -1321 0
-1297 -1322 0
-1297 -1323 0
-1297 -1324 0
-1297 -1325 0
-1297 -1326 0
-1297 -1327 0
-1297 -1328 0
-1297 -1329 0
-1297 -1330 0
-1297 -1331 0
-1297 -1332 0
-1297 -1333 0
-1297 -1334 0
-1297 -1335 0
-1297 -1336 0
-1297 -1337 0
-1297 -1338 0
-1297 -1339 0
-1297 -1340 0
-1297 -1341 0
-1297 -1342 0
-1297 -1343 0
-1297 -1344 0
-1297 -1345 0
-1297 -1346 0
-1297 -1347 0
-1297 -1348 0
-1297 -1349 0
-1297 -1350 0
-1297 -1351 0
-1297 -1352 0
-1297 -1353 0
-1297 -1354 0
-1297 -1355 0
-1297 -1356 0
-1297 -1357 0
-1297 -1358 0
-1297 -1359 0
-1297 -1360 0
-1297 -1361 0
-1297 -1362 0
-1297 -1363 0
-1297 -1364 0
-1297 -1365 0
-1297 -1366 0
-1297 -1367 0
-1297 -1368 0
-1297 -1369 0
-1297 -1370 0
-1297 -1371 0
-1297 -1372 0
-1297 -1373 0
-1297 -1374 0
-1297 -1375 0
-1297 -1376 0
-1297 -1377 0
-1297 -1378 0
-1297 -1379 0
-1298 -1299 0
-1298 -1300 0
-1298 -1301 0
-1298 -1302 0
-1298 -1303 0
-1298 -1304 0
-1298 -1305 0
-1298 -1306 0
-1298 -1307 0
-1298 -1308 0
-1298 -1309 0
-1298 -1310 0
-1298 -1311 0
-1298 -1312 0
-1298 -1313 0
-1298 -1314 0
-1298 -1315 0
-1298 -1316 0
-1298 -1317 0
-1298 -1318 0
-1298 -1319 0
-1298 -1320 0
-1298 -1321 0
-1298 -1322 0
-1298 -1323 0
-1298 -1324 0
-1298 -1325 0
-1298 -1326 0
-1298 -1327 0
-1298 -1328 0
-1298 -1329 0
-1298 -1330 0
-1298 -1331 0
-1298 -1332 0
-1298 -1333 0
-1298 -1334 0
-1298 -1335 0
-1298 -1336 0
-1298 -1337 0
-1298 -1338 0
-1298 -1339 0
-1298 -1340 0
-1298 -1341 0
-1298 -1342 0
-1298 -1343 0
-1298 -1344 0
-1298 -1345 0
-1298 -1346 0
-1298 -1347 0
-1298 -1348 0
-1298 -1349 0
-1298 -1350 0
-1298 -1351 0
-1298 -1352 0
-1298 -1353 0
-1298 -1354 0
-1298 -1355 0
-1298 -1356 0
-1298 -1357 0
-1298 -1358 0
-1298 -1359 0
-1298 -1360 0
-1298 -1361 0
-1298 -1362 0
-1298 -1363 0
-1298 -1364 0
-1298 -1365 0
-1298 -1366 0
-1298 -1367 0
-1298 -1368 0
-1298 -1369 0
-1298 -1370 0
-1298 -1371 0
-1298 -1372 0
-1298 -1373 0
-1298 -1374 0
-1298 -1375 0
-1298 -1376 0
-1298 -1377 0
-1298 -1378 0
-1298 -1379 0
-1299 -1300 0
-1299 -1301 0
-1299 -1302 0
-1299 -1303 0
-1299 -1304 0
-1299 -1305 0
-1299 -1306 0
-1299 -1307 0
-1299 -1308 0
-1299 -1309 0
-1299 -1310 0
-1299 -1311 0
-1299 -1312 0
-1299 -1313 0
-1299 -1314 0
-1299 -1315 0
-1299 -1316 0
-1299 -1317 0
-1299 -1318 0
-1299 -1319 0
-1299 -1320 0
-1299 -1321 0
-1299 -1322 0
-1299 -1323 0
-1299 -1324 0
-1299 -1325 0
-1299 -1326 0
-1299 -1327 0
-1299 -1328 0
-1299 -1329 0
-1299 -1330 0
-1299 -1331 0
-1299 -1332 0
-1299 -1333 0
-1299 -1334 0
-1299 -1335 0
-1299 -1336 0
-1299 -1337 0
-1299 -1338 0
-1299 -1339 0
-1299 -1340 0
-1299 -1341 0
-1299 -1342 0
-1299 -1343 0
-1299 -1344 0
-1299 -1345 0
-1299 -1346 0
-1299 -1347 0
-1299 -1348 0
-1299 -1349 0
-1299 -1350 0
-1299 -1351 0
-1299 -1352 0
-1299 -1353 0
-1299 -1354 0
-1299 -1355 0
-1299 -1356 0
-1299 -1357 0
-1299 -1358 0
-1299 -1359 0
-1299 -1360 0
-1299 -1361 0
-1299 -1362 0
-1299 -1363 0
-1299 -1364 0
-1299 -1365 0
-1299 -1366 0
-1299 -1367 0
-1299 -1368 0
-1299 -1369 0
-1299 -1370 0
-1299 -1371 0
-1299 -1372 0
-1299 -1373 0
-1299 -1374 0
-1299 -1375 0
-1299 -1376 0
-1299 -1377 0
-1299 -1378 0
-1299 -1379 0
-1300 -1301 0
-1300 -1302 0
-1300 -1303 0
-1300 -1304 0
-1300 -1305 0
-1300 -1306 0
-1300 -1307 0
-1300 -1308 0
-1300 -1309 0
-1300 -1310 0
-1300 -1311 0
-1300 -1312 0
-1300 -1313 0
-1300 -1314 0
-1300 -1315 0
-1300 -1316 0
-1300 -1317 0
-1300 -1318 0
-1300 -1319 0
-1300 -1320 0
-1300 -1321 0
-1300 -1322 0
-1300 -1323 0
-1300 -1324 0
-1300 -1325 0
-1300 -1326 0
-1300 -1327 0
-1300 -1328 0
-1300 -1329 0
-1300 -1330 0
-1300 -1331 0
-1300 -1332 0
-1300 -1333 0
-1300 -1334 0
-1300 -1335 0
-1300 -1336 0
-1300 -1337 0
-1300 -1338 0
-1300 -1339 0
-1300 -1340 0
-1300 -1341 0
-1300 -1342 0
-1300 -1343 0
-1300 -1344 0
-1300 -1345 0
-1300 -1346 0
-1300 -1347 0
-1300 -1348 0
-1300 -1349 0
-1300 -1350 0
-1300 -1351 0
-1300 -1352 0
-1300 -1353 0
-1300 -1354 0
-1300 -1355 0
-1300 -1356 0
-1300 -1357 0
-1300 -1358 0
-1300 -1359 0
-1300 -1360 0
-1300 -1361 0
-1300 -1362 0
-1300 -1363 0
-1300 -1364 0
-1300 -1365 0
-1300 -1366 0
-1300 -1367 0
-1300 -1368 0
-1300 -1369 0
-1300 -1370 0
-1300 -1371 0
-1300 -1372 0
-1300 -1373 0
-1300 -1374 0
-1300 -1375 0
-1300 -1376 0
-1300 -1377 0
-1300 -1378 0
-1300 -1379 0
-1301 -1302 0
-1301 -1303 0
-1301 -1304 0
-1301 -1305 0
-1301 -1306 0
-1301 -1307 0
-1301 -1308 0
-1301 -1309 0
-1301 -1310 0
-1301 -1311 0
-1301 -1312 0
-1301 -1313 0
-1301 -1314 0
-1301 -1315 0
-1301 -1316 0
-1301 -1317 0
-1301 -1318 0
-1301 -1319 0
-1301 -1320 0
-1301 -1321 0
-1301 -1322 0
-1301 -1323 0
-1301 -1324 0
-1301 -1325 0
-1301 -1326 0
-1301 -1327 0
-1301 -1328 0
-1301 -1329 0
-1301 -1330 0
-1301 -1331 0
-1301 -1332 0
-1301 -1333 0
-1301 -1334 0
-1301 -1335 0
-1301 -1336 0
-1301 -1337 0
-1301 -1338 0
-1301 -1339 0
-1301 -1340 0
-1301 -1341 0
-1301 -1342 0
-1301 -1343 0
-1301 -1344 0
-1301 -1345 0
-1301 -1346 0
-1301 -1347 0
-1301 -1348 0
-1301 -1349 0
-1301 -1350 0
-1301 -1351 0
-1301 -1352 0
-1301 -1353 0
-1301 -1354 0
-1301 -1355 0
-1301 -1356 0
-1301 -1357 0
-1301 -1358 0
-1301 -1359 0
-1301 -1360 0
-1301 -1361 0
-1301 -1362 0
-1301 -1363 0
-1301 -1364 0
-1301 -1365 0
-1301 -1366 0
-1301 -1367 0
-1301 -1368 0
-1301 -1369 0
-1301 -1370 0
-1301 -1371 0
-1301 -1372 0
-1301 -1373 0
-1301 -1374 0
-1301 -1375 0
-1301 -1376 0
-1301 -1377 0
-1301 -1378 0
-1301 -1379 0
-1302 -1303 0
-1302 -1304 0
-1302 -1305 0
-1302 -1306 0
-1302 -1307 0
-1302 -1308 0
-1302 -1309 0
-1302 -1310 0
-1302 -1311 0
-1302 -1312 0
-1302 -1313 0
-1302 -1314 0
-1302 -1315 0
-1302 -1316 0
-1302 -1317 0
-1302 -1318 0
-1302 -1319 0
-1302 -1320 0
-1302 -1321 0
-1302 -1322 0
-1302 -1323 0
-1302 -1324 0
-1302 -1325 0
-1302 -1326 0
-1302 -1327 0
-1302 -1328 0
-1302 -1329 0
-1302 -1330 0
-1302 -1331 0
-1302 -1332 0
-1302 -1333 0
-1302 -1334 0
-1302 -1335 0
-1302 -1336 0
-1302 -1337 0
-1302 -1338 0
-1302 -1339 0
-1302 -1340 0
-1302 -1341 0
-1302 -1342 0
-1302 -1343 0
-1302 -1344 0
-1302 -1345 0
-1302 -1346 0
-1302 -1347 0
-1302 -1348 0
-1302 -1349 0
-1302 -1350 0
-1302 -1351 0
-1302 -1352 0
-1302 -1353 0
-1302 -1354 0
-1302 -1355 0
-1302 -1356 0
-1302 -1357 0
-1302 -1358 0
-1302 -1359 0
-1302 -1360 0
-1302 -1361 0
-1302 -1362 0
-1302 -1363 0
-1302 -1364 0
-1302 -1365 0
-1302 -1366 0
-1302 -1367 0
-1302 -1368 0
-1302 -1369 0
-1302 -1370 0
-1302 -1371 0
-1302 -1372 0
-1302 -1373 0
-1302 -1374 0
-1302 -1375 0
-1302 -1376 0
-1302 -1377 0
-1302 -1378 0
-1302 -1379 0
-1303 -1304 0
-1303 -1305 0
-1303 -1306 0
-1303 -1307 0
-1303 -1308 0
-1303 -1309 0
-1303 -1310 0
-1303 -1311 0
-1303 -1312 0
-1303 -1313 0
-1303 -1314 0
-1303 -1315 0
-1303 -1316 0
-1303 -1317 0
-1303 -1318 0
-1303 -1319 0
-1303 -1320 0
-1303 -1321 0
-1303 -1322 0
-1303 -1323 0
-1303 -1324 0
-1303 -1325 0
-1303 -1326 0
-1303 -1327 0
-1303 -1328 0
-1303 -1329 0
-1303 -1330 0
-1303 -1331 0
-1303 -1332 0
-1303 -1333 0
-1303 -1334 0
-1303 -1335 0
-1303 -1336 0
-1303 -1337 0
-1303 -1338 0
-1303 -1339 0
-1303 -1340 0
-1303 -1341 0
-1303 -1342 0
-1303 -1343 0
-1303 -1344 0
-1303 -1345 0
-1303 -1346 0
-1303 -1347 0
-1303 -1348 0
-1303 -1349 0
-1303 -1350 0
-1303 -1351 0
-1303 -1352 0
-1303 -1353 0
-1303 -1354 0
-1303 -1355 0
-1303 -1356 0
-1303 -1357 0
-1303 -1358 0
-1303 -1359 0
-1303 -1360 0
-1303 -1361 0
-1303 -1362 0
-1303 -1363 0
-1303 -1364 0
-1303 -1365 0
-1303 -1366 0
-1303 -1367 0
-1303 -1368 0
-1303 -1369 0
-1303 -1370 0
-1303 -1371 0
-1303 -1372 0
-1303 -1373 0
-1303 -1374 0
-1303 -1375 0
-1303 -1376 0
-1303 -1377 0
-1303 -1378 0
-1303 -1379 0
-1304 -1305 0
-1304 -1306 0
-1304 -1307 0
-1304 -1308 0
-1304 -1309 0
-1304 -1310 0
-1304 -1311 0
-1304 -1312 0
-1304 -1313 0
-1304 -1314 0
-1304 -1315 0
-1304 -1316 0
-1304 -1317 0
-1304 -1318 0
-1304 -1319 0
-1304 -1320 0
-1304 -1321 0
-1304 -1322 0
-1304 -1323 0
-1304 -1324 0
-1304 -1325 0
-1304 -1326 0
-1304 -1327 0
-1304 -1328 0
-1304 -1329 0
-1304 -1330 0
-1304 -1331 0
-1304 -1332 0
-1304 -1333 0
-1304 -1334 0
-1304 -1335 0
-1304 -1336 0
-1304 -1337 0
-1304 -1338 0
-1304 -1339 0
-1304 -1340 0
-1304 -1341 0
-1304 -1342 0
-1304 -1343 0
-1304 -1344 0
-1304 -1345 0
-1304 -1346 0
-1304 -1347 0
-1304 -1348 0
-1304 -1349 0
-1304 -1350 0
-1304 -1351 0
-1304 -1352 0
-1304 -1353 0
-1304 -1354 0
-1304 -1355 0
-1304 -1356 0
-1304 -1357 0
-1304 -1358 0
-1304 -1359 0
-1304 -1360 0
-1304 -1361 0
-1304 -1362 0
-1304 -1363 0
-1304 -1364 0
-1304 -1365 0
-1304 -1366 0
-1304 -1367 0
-1304 -1368 0
-1304 -1369 0
-1304 -1370 0
-1304 -1371 0
-1304 -1372 0
-1304 -1373 0
-1304 -1374 0
-1304 -1375 0
-1304 -1376 0
-1304 -1377 0
-1304 -1378 0
-1304 -1379 0
-1305 -1306 0
-1305 -1307 0
-1305 -1308 0
-1305 -1309 0
-1305 -1310 0
-1305 -1311 0
-1305 -1312 0
-1305 -1313 0
-1305 -1314 0
-1305 -1315 0
-1305 -1316 0
-1305 -1317 0
-1305 -1318 0
-1305 -1319 0
-1305 -1320 0
-1305 -1321 0
-1305 -1322 0
-1305 -1323 0
-1305 -1324 0
-1305 -1325 0
-1305 -1326 0
-1305 -1327 0
-1305 -1328 0
-1305 -1329 0
-1305 -1330 0
-1305 -1331 0
-1305 -1332 0
-1305 -1333 0
-1305 -1334 0
-1305 -1335 0
-1305 -1336 0
-1305 -1337 0
-1305 -1338 0
-1305 -1339 0
-1305 -1340 0
-1305 -1341 0
-1305 -1342 0
-1305 -1343 0
-1305 -1344 0
-1305 -1345 0
-1305 -1346 0
-1305 -1347 0
-1305 -1348 0
-1305 -1349 0
-1305 -1350 0
-1305 -1351 0
-1305 -1352 0
-1305 -1353 0
-1305 -1354 0
-1305 -1355 0
-1305 -1356 0
-1305 -1357 0
-1305 -1358 0
-1305 -1359 0
-1305 -1360 0
-1305 -1361 0
-1305 -1362 0
-1305 -1363 0
-1305 -1364 0
-1305 -1365 0
-1305 -1366 0
-1305 -1367 0
-1305 -1368 0
-1305 -1369 0
-1305 -1370 0
-1305 -1371 0
-1305 -1372 0
-1305 -1373 0
-1305 -1374 0
-1305 -1375 0
-1305 -1376 0
-1305 -1377 0
-1305 -1378 0
-1305 -1379 0
-1306 -1307 0
-1306 -1308 0
-1306 -1309 0
-1306 -1310 0
-1306 -1311 0
-1306 -1312 0
-1306 -1313 0
-1306 -1314 0
-1306 -1315 0
-1306 -1316 0
-1306 -1317 0
-1306 -1318 0
-1306 -1319 0
-1306 -1320 0
-1306 -1321 0
-1306 -1322 0
-1306 -1323 0
-1306 -1324 0
-1306 -1325 0
-1306 -1326 0
-1306 -1327 0
-1306 -1328 0
-1306 -1329 0
-1306 -1330 0
-1306 -1331 0
-1306 -1332 0
-1306 -1333 0
-1306 -1334 0
-1306 -1335 0
-1306 -1336 0
-1306 -1337 0
-1306 -1338 0
-1306 -1339 0
-1306 -1340 0
-1306 -1341 0
-1306 -1342 0
-1306 -1343 0
-1306 -1344 0
-1306 -1345 0
-1306 -1346 0
-1306 -1347 0
-1306 -1348 0
-1306 -1349 0
-1306 -1350 0
-1306 -1351 0
-1306 -1352 0
-1306 -1353 0
-1306 -1354 0
-1306 -1355 0
-1306 -1356 0
-1306 -1357 0
-1306 -1358 0
-1306 -1359 0
-1306 -1360 0
-1306 -1361 0
-1306 -1362 0
-1306 -1363 0
-1306 -1364 0
-1306 -1365 0
-1306 -1366 0
-1306 -1367 0
-1306 -1368 0
-1306 -1369 0
-1306 -1370 0
-1306 -1371 0
-1306 -1372 0
-1306 -1373 0
-1306 -1374 0
-1306 -1375 0
-1306 -1376 0
-1306 -1377 0
-1306 -1378 0
-1306 -1379 0
-1307 -1308 0
-1307 -1309 0
-1307 -1310 0
-1307 -1311 0
-1307 -1312 0
-1307 -1313 0
-1307 -1314 0
-1307 -1315 0
-1307 -1316 0
-1307 -1317 0
-1307 -1318 0
-1307 -1319 0
-1307 -1320 0
-1307 -1321 0
-1307 -1322 0
-1307 -1323 0
-1307 -1324 0
-1307 -1325 0
-1307 -1326 0
-1307 -1327 0
-1307 -1328 0
-1307 -1329 0
-1307 -1330 0
-1307 -1331 0
-1307 -1332 0
-1307 -1333 0
-1307 -1334 0
-1307 -1335 0
-1307 -1336 0
-1307 -1337 0
-1307 -1338 0
-1307 -1339 0
-1307 -1340 0
-1307 -1341 0
-1307 -1342 0
-1307 -1343 0
-1307 -1344 0
-1307 -1345 0
-1307 -1346 0
-1307 -1347 0
-1307 -1348 0
-1307 -1349 0
-1307 -1350 0
-1307 -1351 0
-1307 -1352 0
-1307 -1353 0
-1307 -1354 0
-1307 -1355 0
-1307 -1356 0
-1307 -1357 0
-1307 -1358 0
-1307 -1359 0
-1307 -1360 0
-1307 -1361 0
-1307 -1362 0
-1307 -1363 0
-1307 -1364 0
-1307 -1365 0
-1307 -1366 0
-1307 -1367 0
-1307 -1368 0
-1307 -1369 0
-1307 -1370 0
-1307 -1371 0
-1307 -1372 0
-1307 -1373 0
-1307 -1374 0
-1307 -1375 0
-1307 -1376 0
-1307 -1377 0
-1307 -1378 0
-1307 -1379 0
-1308 -1309 0
-1308 -1310 0
-1308 -1311 0
-1308 -1312 0
-1308 -1313 0
-1308 -1314 0
-1308 -1315 0
-1308 -1316 0
-1308 -1317 0
-1308 -1318 0
-1308 -1319 0
-1308 -1320 0
-1308 -1321 0
-1308 -1322 0
-1308 -1323 0
-1308 -1324 0
-1308 -1325 0
-1308 -1326 0
-1308 -1327 0
-1308 -1328 0
-1308 -1329 0
-1308 -1330 0
-1308 -1331 0
-1308 -1332 0
-1308 -1333 0
-1308 -1334 0
-1308 -1335 0
-1308 -1336 0
-1308 -1337 0
-1308 -1338 0
-1308 -1339 0
-1308 -1340 0
-1308 -1341 0
-1308 -1342 0
-1308 -1343 0
-1308 -1344 0
-1308 -1345 0
-1308 -1346 0
-1308 -1347 0
-1308 -1348 0
-1308 -1349 0
-1308 -1350 0
-1308 -1351 0
-1308 -1352 0
-1308 -1353 0
-1308 -1354 0
-1308 -1355 0
-1308 -1356 0
-1308 -1357 0
-1308 -1358 0
-1308 -1359 0
-1308 -1360 0
-1308 -1361 0
-1308 -1362 0
-1308 -1363 0
-1308 -1364 0
-1308 -1365 0
-1308 -1366 0
-1308 -1367 0
-1308 -1368 0
-1308 -1369 0
-1308 -1370 0
-1308 -1371 0
-1308 -1372 0
-1308 -1373 0
-1308 -1374 0
-1308 -1375 0
-1308 -1376 0
-1308 -1377 0
-1308 -1378 0
-1308 -1379 0
-1309 -1310 0
-1309 -1311 0
-1309 -1312 0
-1309 -1313 0
-1309 -1314 0
-1309 -1315 0
-1309 -1316 0
-1309 -1317 0
-1309 -1318 0
-1309 -1319 0
-1309 -1320 0
-1309 -1321 0
-1309 -1322 0
-1309 -1323 0
-1309 -1324 0
-1309 -1325 0
-1309 -1326 0
-1309 -1327 0
-1309 -1328 0
-1309 -1329 0
-1309 -1330 0
-1309 -1331 0
-1309 -1332 0
-1309 -1333 0
-1309 -1334 0
-1309 -1335 0
-1309 -1336 0
-1309 -1337 0
-1309 -1338 0
-1309 -1339 0
-1309 -1340 0
-1309 -1341 0
-1309 -1342 0
-1309 -1343 0
-1309 -1344 0
-1309 -1345 0
-1309 -1346 0
-1309 -1347 0
-1309 -1348 0
-1309 -1349 0
-1309 -1350 0
-1309 -1351 0
-1309 -1352 0
-1309 -1353 0
-1309 -1354 0
-1309 -1355 0
-1309 -1356 0
-1309 -1357 0
-1309 -1358 0
-1309 -1359 0
-1309 -1360 0
-1309 -1361 0
-1309 -1362 0
-1309 -1363 0
-1309 -1364 0
-1309 -1365 0
-1309 -1366 0
-1309 -1367 0
-1309 -1368 0
-1309 -1369 0
-1309 -1370 0
-1309 -1371 0
-1309 -1372 0
-1309 -1373 0
-1309 -1374 0
-1309 -1375 0
-1309 -1376 0
-1309 -1377 0
-1309 -1378 0
-1309 -1379 0
-1310 -1311 0
-1310 -1312 0
-1310 -1313 0
-1310 -1314 0
-1310 -1315 0
-1310 -1316 0
-1310 -1317 0
-1310 -1318 0
-1310 -1319 0
-1310 -1320 0
-1310 -1321 0
-1310 -1322 0
-1310 -1323 0
-1310 -1324 0
-1310 -1325 0
-1310 -1326 0
-1310 -1327 0
-1310 -1328 0
-1310 -1329 0
-1310 -1330 0
-1310 -1331 0
-1310 -1332 0
-1310 -1333 0
-1310 -1334 0
-1310 -1335 0
-1310 -1336 0
-1310 -1337 0
-1310 -1338 0
-1310 -1339 0
-1310 -1340 0
-1310 -1341 0
-1310 -1342 0
-1310 -1343 0
-1310 -1344 0
-1310 -1345 0
-1310 -1346 0
-1310 -1347 0
-1310 -1348 0
-1310 -1349 0
-1310 -1350 0
-1310 -1351 0
-1310 -1352 0
-1310 -1353 0
-1310 -1354 0
-1310 -1355 0
-1310 -1356 0
-1310 -1357 0
-1310 -1358 0
-1310 -1359 0
-1310 -1360 0
-1310 -1361 0
-1310 -1362 0
-1310 -1363 0
-1310 -1364 0
-1310 -1365 0
-1310 -1366 0
-1310 -1367 0
-1310 -1368 0
-1310 -1369 0
-1310 -1370 0
-1310 -1371 0
-1310 -1372 0
-1310 -1373 0
-1310 -1374 0
-1310 -1375 0
-1310 -1376 0
-1310 -1377 0
-1310 -1378 0
-1310 -1379 0
-1311 -1312 0
-1311 -1313 0
-1311 -1314 0
-1311 -1315 0
-1311 -1316 0
-1311 -1317 0
-1311 -1318 0
-1311 -1319 0
-1311 -1320 0
-1311 -1321 0
-1311 -1322 0
-1311 -1323 0
-1311 -1324 0
-1311 -1325 0
-1311 -1326 0
-1311 -1327 0
-1311 -1328 0
-1311 -1329 0
-1311 -1330 0
-1311 -1331 0
-1311 -1332 0
-1311 -1333 0
-1311 -1334 0
-1311 -1335 0
-1311 -1336 0
-1311 -1337 0
-1311 -1338 0
-1311 -1339 0
-1311 -1340 0
-1311 -1341 0
-1311 -1342 0
-1311 -1343 0
-1311 -1344 0
-1311 -1345 0
-1311 -1346 0
-1311 -1347 0
-1311 -1348 0
-1311 -1349 0
-1311 -1350 0
-1311 -1351 0
-1311 -1352 0
-1311 -1353 0
-1311 -1354 0
-1311 -1355 0
-1311 -1356 0
-1311 -1357 0
-1311 -1358 0
-1311 -1359 0
-1311 -1360 0
-1311 -1361 0
-1311 -1362 0
-1311 -1363 0
-1311 -1364 0
-1311 -1365 0
-1311 -1366 0
-1311 -1367 0
-1311 -1368 0
-1311 -1369 0
-1311 -1370 0
-1311 -1371 0
-1311 -1372 0
-1311 -1373 0
-1311 -1374 0
-1311 -1375 0
-1311 -1376 0
-1311 -1377 0
-1311 -1378 0
-1311 -1379 0
-1312 -1313 0
-1312 -1314 0
-1312 -1315 0
-1312 -1316 0
-1312 -1317 0
-1312 -1318 0
-1312 -1319 0
-1312 -1320 0
-1312 -1321 0
-1312 -1322 0
-1312 -1323 0
-1312 -1324 0
-1312 -1325 0
-1312 -1326 0
-1312 -1327 0
-1312 -1328 0
-1312 -1329 0
-1312 -1330 0
-1312 -1331 0
-1312 -1332 0
-1312 -1333 0
-1312 -1334 0
-1312 -1335 0
-1312 -1336 0
-1312 -1337 0
-1312 -1338 0
-1312 -1339 0
-1312 -1340 0
-1312 -1341 0
-1312 -1342 0
-1312 -1343 0
-1312 -1344 0
-1312 -1345 0
-1312 -1346 0
-1312 -1347 0
-1312 -1348 0
-1312 -1349 0
-1312 -1350 0
-1312 -1351 0
-1312 -1352 0
-1312 -1353 0
-1312 -1354 0
-1312 -1355 0
-1312 -1356 0
-1312 -1357 0
-1312 -1358 0
-1312 -1359 0
-1312 -1360 0
-1312 -1361 0
-1312 -1362 0
-1312 -1363 0
-1312 -1364 0
-1312 -1365 0
-1312 -1366 0
-1312 -1367 0
-1312 -1368 0
-1312 -1369 0
-1312 -1370 0
-1312 -1371 0
-1312 -1372 0
-1312 -1373 0
-1312 -1374 0
-1312 -1375 0
-1312 -1376 0
-1312 -1377 0
-1312 -1378 0
-1312 -1379 0
-1313 -1314 0
-1313 -1315 0
-1313 -1316 0
-1313 -1317 0
-1313 -1318 0
-1313 -1319 0
-1313 -1320 0
-1313 -1321 0
-1313 -1322 0
-1313 -1323 0
-1313 -1324 0
-1313 -1325 0
-1313 -1326 0
-1313 -1327 0
-1313 -1328 0
-1313 -1329 0
-1313 -1330 0
-1313 -1331 0
-1313 -1332 0
-1313 -1333 0
-1313 -1334 0
-1313 -1335 0
-1313 -1336 0
-1313 -1337 0
-1313 -1338 0
-1313 -1339 0
-1313 -1340 0
-1313 -1341 0
-1313 -1342 0
-1313 -1343 0
-1313 -1344 0
-1313 -1345 0
-1313 -1346 0
-1313 -1347 0
-1313 -1348 0
-1313 -1349 0
-1313 -1350 0
-1313 -1351 0
-1313 -1352 0
-1313 -1353 0
-1313 -1354 0
-1313 -1355 0
-1313 -1356 0
-1313 -1357 0
-1313 -1358 0
-1313 -1359 0
-1313 -1360 0
-1313 -1361 0
-1313 -1362 0
-1313 -1363 0
-1313 -1364 0
-1313 -1365 0
-1313 -1366 0
-1313 -1367 0
-1313 -1368 0
-1313 -1369 0
-1313 -1370 0
-1313 -1371 0
-1313 -1372 0
-1313 -1373 0
-1313 -1374 0
-1313 -1375 0
-1313 -1376 0
-1313 -1377 0
-1313 -1378 0
-1313 -1379 0
-1314 -1315 0
-1314 -1316 0
-1314 -1317 0
-1314 -1318 0
-1314 -1319 0
-1314 -1320 0
-1314 -1321 0
-1314 -1322 0
-1314 -1323 0
-1314 -1324 0
-1314 -1325 0
-1314 -1326 0
-1314 -1327 0
-1314 -1328 0
-1314 -1329 0
-1314 -1330 0
-1314 -1331 0
-1314 -1332 0
-1314 -1333 0
-1314 -1334 0
-1314 -1335 0
-1314 -1336 0
-1314 -1337 0
-1314 -1338 0
-1314 -1339 0
-1314 -1340 0
-1314 -1341 0
-1314 -1342 0
-1314 -1343 0
-1314 -1344 0
-1314 -1345 0
-1314 -1346 0
-1314 -1347 0
-1314 -1348 0
-1314 -1349 0
-1314 -1350 0
-1314 -1351 0
-1314 -1352 0
-1314 -1353 0
-1314 -1354 0
-1314 -1355 0
-1314 -1356 0
-1314 -1357 0
-1314 -1358 0
-1314 -1359 0
-1314 -1360 0
-1314 -1361 0
-1314 -1362 0
-1314 -1363 0
-1314 -1364 0
-1314 -1365 0
-1314 -1366 0
-1314 -1367 0
-1314 -1368 0
-1314 -1369 0
-1314 -1370 0
-1314 -1371 0
-1314 -1372 0
-1314 -1373 0
-1314 -1374 0
-1314 -1375 0
-1314 -1376 0
-1314 -1377 0
-1314 -1378 0
-1314 -1379 0
-1315 -1316 0
-1315 -1317 0
-1315 -1318 0
-1315 -1319 0
-1315 -1320 0
-1315 -1321 0
-1315 -1322 0
-1315 -1323 0
-1315 -1324 0
-1315 -1325 0
-1315 -1326 0
-1315 -1327 0
-1315 -1328 0
-1315 -1329 0
-1315 -1330 0
-1315 -1331 0
-1315 -1332 0
-1315 -1333 0
-1315 -1334 0
-1315 -1335 0
-1315 -1336 0
-1315 -1337 0
-1315 -1338 0
-1315 -1339 0
-1315 -1340 0
-1315 -1341 0
-1315 -1342 0
-1315 -1343 0
-1315 -1344 0
-1315 -1345 0
-1315 -1346 0
-1315 -1347 0
-1315 -1348 0
-1315 -1349 0
-1315 -1350 0
-1315 -1351 0
-1315 -1352 0
-1315 -1353 0
-1315 -1354 0
-1315 -1355 0
-1315 -1356 0
-1315 -1357 0
-1315 -1358 0
-1315 -1359 0
-1315 -1360 0
-1315 -1361 0
-1315 -1362 0
-1315 -1363 0
-1315 -1364 0
-1315 -1365 0
-1315 -1366 0
-1315 -1367 0
-1315 -1368 0
-1315 -1369 0
-1315 -1370 0
-1315 -1371 0
-1315 -1372 0
-1315 -1373 0
-1315 -1374 0
-1315 -1375 0
-1315 -1376 0
-1315 -1377 0
-1315 -1378 0
-1315 -1379 0
-1316 -1317 0
-1316 -1318 0
-1316 -1319 0
-1316 -1320 0
-1316 -1321 0
-1316 -1322 0
-1316 -1323 0
-1316 -1324 0
-1316 -1325 0
-1316 -1326 0
-1316 -1327 0
-1316 -1328 0
-1316 -1329 0
-1316 -1330 0
-1316 -1331 0
-1316 -1332 0
-1316 -1333 0
-1316 -1334 0
-1316 -1335 0
-1316 -1336 0
-1316 -1337 0
-1316 -1338 0
-1316 -1339 0
-1316 -1340 0
-1316 -1341 0
-1316 -1342 0
-1316 -1343 0
-1316 -1344 0
-1316 -1345 0
-1316 -1346 0
-1316 -1347 0
-1316 -1348 0
-1316 -1349 0
-1316 -1350 0
-1316 -1351 0
-1316 -1352 0
-1316 -1353 0
-1316 -1354 0
-1316 -1355 0
-1316 -1356 0
-1316 -1357 0
-1316 -1358 0
-1316 -1359 0
-1316 -1360 0
-1316 -1361 0
-1316 -1362 0
-1316 -1363 0
-1316 -1364 0
-1316 -1365 0
-1316 -1366 0
-1316 -1367 0
-1316 -1368 0
-1316 -1369 0
-1316 -1370 0
-1316 -1371 0
-1316 -1372 0
-1316 -1373 0
-1316 -1374 0
-1316 -1375 0
-1316 -1376 0
-1316 -1377 0
-1316 -1378 0
-1316 -1379 0
-1317 -1318 0
-1317 -1319 0
-1317 -1320 0
-1317 -1321 0
-1317 -1322 0
-1317 -1323 0
-1317 -1324 0
-1317 -1325 0
-1317 -1326 0
-1317 -1327 0
-1317 -1328 0
-1317 -1329 0
-1317 -1330 0
-1317 -1331 0
-1317 -1332 0
-1317 -1333 0
-1317 -1334 0
-1317 -1335 0
-1317 -1336 0
-1317 -1337 0
-1317 -1338 0
-1317 -1339 0
-1317 -1340 0
-1317 -1341 0
-1317 -1342 0
-1317 -1343 0
-1317 -1344 0
-1317 -1345 0
-1317 -1346 0
-1317 -1347 0
-1317 -1348 0
-1317 -1349 0
-1317 -1350 0
-1317 -1351 0
-1317 -1352 0
-1317 -1353 0
-1317 -1354 0
-1317 -1355 0
-1317 -1356 0
-1317 -1357 0
-1317 -1358 0
-1317 -1359 0
-1317 -1360 0
-1317 -1361 0
-1317 -1362 0
-1317 -1363 0
-1317 -1364 0
-1317 -1365 0
-1317 -1366 0
-1317 -1367 0
-1317 -1368 0
-1317 -1369 0
-1317 -1370 0
-1317 -1371 0
-1317 -1372 0
-1317 -1373 0
-1317 -1374 0
-1317 -1375 0
-1317 -1376 0
-1317 -1377 0
-1317 -1378 0
-1317 -1379 0
-1318 -1319 0
-1318 -1320 0
-1318 -1321 0
-1318 -1322 0
-1318 -1323 0
-1318 -1324 0
-1318 -1325 0
-1318 -1326 0
-1318 -1327 0
-1318 -1328 0
-1318 -1329 0
-1318 -1330 0
-1318 -1331 0
-1318 -1332 0
-1318 -1333 0
-1318 -1334 0
-1318 -1335 0
-1318 -1336 0
-1318 -1337 0
-1318 -1338 0
-1318 -1339 0
-1318 -1340 0
-1318 -1341 0
-1318 -1342 0
-1318 -1343 0
-1318 -1344 0
-1318 -1345 0
-1318 -1346 0
-1318 -1347 0
-1318 -1348 0
-1318 -1349 0
-1318 -1350 0
-1318 -1351 0
-1318 -1352 0
-1318 -1353 0
-1318 -1354 0
-1318 -1355 0
-1318 -1356 0
-1318 -1357 0
-1318 -1358 0
-1318 -1359 0
-1318 -1360 0
-1318 -1361 0
-1318 -1362 0
-1318 -1363 0
-1318 -1364 0
-1318 -1365 0
-1318 -1366 0
-1318 -1367 0
-1318 -1368 0
-1318 -1369 0
-1318 -1370 0
-1318 -1371 0
-1318 -1372 0
-1318 -1373 0
-1318 -1374 0
-1318 -1375 0
-1318 -1376 0
-1318 -1377 0
-1318 -1378 0
-1318 -1379 0
-1319 -1320 0
-1319 -1321 0
-1319 -1322 0
-1319 -1323 0
-1319 -1324 0
-1319 -1325 0
-1319 -1326 0
-1319 -1327 0
-1319 -1328 0
-1319 -1329 0
-1319 -1330 0
-1319 -1331 0
-1319 -1332 0
-1319 -1333 0
-1319 -1334 0
-1319 -1335 0
-1319 -1336 0
-1319 -1337 0
-1319 -1338 0
-1319 -1339 0
-1319 -1340 0
-1319 -1341 0
-1319 -1342 0
-1319 -1343 0
-1319 -1344 0
-1319 -1345 0
-1319 -1346 0
-1319 -1347 0
-1319 -1348 0
-1319 -1349 0
-1319 -1350 0
-1319 -1351 0
-1319 -1352 0
-1319 -1353 0
-1319 -1354 0
-1319 -1355 0
-1319 -1356 0
-1319 -1357 0
-1319 -1358 0
-1319 -1359 0
-1319 -1360 0
-1319 -1361 0
-1319 -1362 0
-1319 -1363 0
-1319 -1364 0
-1319 -1365 0
-1319 -1366 0
-1319 -1367 0
-1319 -1368 0
-1319 -1369 0
-1319 -1370 0
-1319 -1371 0
-1319 -1372 0
-1319 -1373 0
-1319 -1374 0
-1319 -1375 0
-1319 -1376 0
-1319 -1377 0
-1319 -1378 0
-1319 -1379 0
-1320 -1321 0
-1320 -1322 0
-1320 -1323 0
-1320 -1324 0
-1320 -1325 0
-1320 -1326 0
-1320 -1327 0
-1320 -1328 0
-1320 -1329 0
-1320 -1330 0
-1320 -1331 0
-1320 -1332 0
-1320 -1333 0
-1320 -1334 0
-1320 -1335 0
-1320 -1336 0
-1320 -1337 0
-1320 -1338 0
-1320 -1339 0
-1320 -1340 0
-1320 -1341 0
-1320 -1342 0
-1320 -1343 0
-1320 -1344 0
-1320 -1345 0
-1320 -1346 0
-1320 -1347 0
-1320 -1348 0
-1320 -1349 0
-1320 -1350 0
-1320 -1351 0
-1320 -1352 0
-1320 -1353 0
-1320 -1354 0
-1320 -1355 0
-1320 -1356 0
-1320 -1357 0
-1320 -1358 0
-1320 -1359 0
-1320 -1360 0
-1320 -1361 0
-1320 -1362 0
-1320 -1363 0
-1320 -1364 0
-1320 -1365 0
-1320 -1366 0
-1320 -1367 0
-1320 -1368 0
-1320 -1369 0
-1320 -1370 0
-1320 -1371 0
-1320 -1372 0
-1320 -1373 0
-1320 -1374 0
-1320 -1375 0
-1320 -1376 0
-1320 -1377 0
-1320 -1378 0
-1320 -1379 0
-1321 -1322 0
-1321 -1323 0
-1321 -1324 0
-1321 -1325 0
-1321 -1326 0
-1321 -1327 0
-1321 -1328 0
-1321 -1329 0
-1321 -1330 0
-1321 -1331 0
-1321 -1332 0
-1321 -1333 0
-1321 -1334 0
-1321 -1335 0
-1321 -1336 0
-1321 -1337 0
-1321 -1338 0
-1321 -1339 0
-1321 -1340 0
-1321 -1341 0
-1321 -1342 0
-1321 -1343 0
-1321 -1344 0
-1321 -1345 0
-1321 -1346 0
-1321 -1347 0
-1321 -1348 0
-1321 -1349 0
-1321 -1350 0
-1321 -1351 0
-1321 -1352 0
-1321 -1353 0
-1321 -1354 0
-1321 -1355 0
-1321 -1356 0
-1321 -1357 0
-1321 -1358 0
-1321 -1359 0
-1321 -1360 0
-1321 -1361 0
-1321 -1362 0
-1321 -1363 0
-1321 -1364 0
-1321 -1365 0
-1321 -1366 0
-1321 -1367 0
-1321 -1368 0
-1321 -1369 0
-1321 -1370 0
-1321 -1371 0
-1321 -1372 0
-1321 -1373 0
-1321 -1374 0
-1321 -1375 0
-1321 -1376 0
-1321 -1377 0
-1321 -1378 0
-1321 -1379 0
-1322 -1323 0
-1322 -1324 0
-1322 -1325 0
-1322 -1326 0
-1322 -1327 0
-1322 -1328 0
-1322 -1329 0
-1322 -1330 0
-1322 -1331 0
-1322 -1332 0
-1322 -1333 0
-1322 -1334 0
-1322 -1335 0
-1322 -1336 0
-1322 -1337 0
-1322 -1338 0
-1322 -1339 0
-1322 -1340 0
-1322 -1341 0
-1322 -1342 0
-1322 -1343 0
-1322 -1344 0
-1322 -1345 0
-1322 -1346 0
-1322 -1347 0
-1322 -1348 0
-1322 -1349 0
-1322 -1350 0
-1322 -1351 0
-1322 -1352 0
-1322 -1353 0
-1322 -1354 0
-1322 -1355 0
-1322 -1356 0
-1322 -1357 0
-1322 -1358 0
-1322 -1359 0
-1322 -1360 0
-1322 -1361 0
-1322 -1362 0
-1322 -1363 0
-1322 -1364 0
-1322 -1365 0
-1322 -1366 0
-1322 -1367 0
-1322 -1368 0
-1322 -1369 0
-1322 -1370 0
-1322 -1371 0
-1322 -1372 0
-1322 -1373 0
-1322 -1374 0
-1322 -1375 0
-1322 -1376 0
-1322 -1377 0
-1322 -1378 0
-1322 -1379 0
-1323 -1324 0
-1323 -1325 0
-1323 -1326 0
-1323 -1327 0
-1323 -1328 0
-1323 -1329 0
-1323 -1330 0
-1323 -1331 0
-1323 -1332 0
-1323 -1333 0
-1323 -1334 0
-1323 -1335 0
-1323 -1336 0
-1323 -1337 0
-1323 -1338 0
-1323 -1339 0
-1323 -1340 0
-1323 -1341 0
-1323 -1342 0
-1323 -1343 0
-1323 -1344 0
-1323 -1345 0
-1323 -1346 0
-1323 -1347 0
-1323 -1348 0
-1323 -1349 0
-1323 -1350 0
-1323 -1351 0
-1323 -1352 0
-1323 -1353 0
-1323 -1354 0
-1323 -1355 0
-1323 -1356 0
-1323 -1357 0
-1323 -1358 0
-1323 -1359 0
-1323 -1360 0
-1323 -1361 0
-1323 -1362 0
-1323 -1363 0
-1323 -1364 0
-1323 -1365 0
-1323 -1366 0
-1323 -1367 0
-1323 -1368 0
-1323 -1369 0
-1323 -1370 0
-1323 -1371 0
-1323 -1372 0
-1323 -1373 0
-1323 -1374 0
-1323 -1375 0
-1323 -1376 0
-1323 -1377 0
-1323 -1378 0
-1323 -1379 0
-1324 -1325 0
-1324 -1326 0
-1324 -1327 0
-1324 -1328 0
-1324 -1329 0
-1324 -1330 0
-1324 -1331 0
-1324 -1332 0
-1324 -1333 0
-1324 -1334 0
-1324 -1335 0
-1324 -1336 0
-1324 -1337 0
-1324 -1338 0
-1324 -1339 0
-1324 -1340 0
-1324 -1341 0
-1324 -1342 0
-1324 -1343 0
-1324 -1344 0
-1324 -1345 0
-1324 -1346 0
-1324 -1347 0
-1324 -1348 0
-1324 -1349 0
-1324 -1350 0
-1324 -1351 0
-1324 -1352 0
-1324 -1353 0
-1324 -1354 0
-1324 -1355 0
-1324 -1356 0
-1324 -1357 0
-1324 -1358 0
-1324 -1359 0
-1324 -1360 0
-1324 -1361 0
-1324 -1362 0
-1324 -1363 0
-1324 -1364 0
-1324 -1365 0
-1324 -1366 0
-1324 -1367 0
-1324 -1368 0
-1324 -1369 0
-1324 -1370 0
-1324 -1371 0
-1324 -1372 0
-1324 -1373 0
-1324 -1374 0
-1324 -1375 0
-1324 -1376 0
-1324 -1377 0
-1324 -1378 0
-1324 -1379 0
-1325 -1326 0
-1325 -1327 0
-1325 -1328 0
-1325 -1329 0
-1325 -1330 0
-1325 -1331 0
-1325 -1332 0
-1325 -1333 0
-1325 -1334 0
-1325 -1335 0
-1325 -1336 0
-1325 -1337 0
-1325 -1338 0
-1325 -1339 0
-1325 -1340 0
-1325 -1341 0
-1325 -1342 0
-1325 -1343 0
-1325 -1344 0
-1325 -1345 0
-1325 -1346 0
-1325 -1347 0
-1325 -1348 0
-1325 -1349 0
-1325 -1350 0
-1325 -1351 0
-1325 -1352 0
-1325 -1353 0
-1325 -1354 0
-1325 -1355 0
-1325 -1356 0
-1325 -1357 0
-1325 -1358 0
-1325 -1359 0
-1325 -1360 0
-1325 -1361 0
-1325 -1362 0
-1325 -1363 0
-1325 -1364 0
-1325 -1365 0
-1325 -1366 0
-1325 -1367 0
-1325 -1368 0
-1325 -1369 0
-1325 -1370 0
-1325 -1371 0
-1325 -1372 0
-1325 -1373 0
-1325 -1374 0
-1325 -1375 0
-1325 -1376 0
-1325 -1377 0
-1325 -1378 0
-1325 -1379 0
-1326 -1327 0
-1326 -1328 0
-1326 -1329 0
-1326 -1330 0
-1326 -1331 0
-1326 -1332 0
-1326 -1333 0
-1326 -1334 0
-1326 -1335 0
-1326 -1336 0
-1326 -1337 0
-1326 -1338 0
-1326 -1339 0
-1326 -1340 0
-1326 -1341 0
-1326 -1342 0
-1326 -1343 0
-1326 -1344 0
-1326 -1345 0
-1326 -1346 0
-1326 -1347 0
-1326 -1348 0
-1326 -1349 0
-1326 -1350 0
-1326 -1351 0
-1326 -1352 0
-1326 -1353 0
-1326 -1354 0
-1326 -1355 0
-1326 -1356 0
-1326 -1357 0
-1326 -1358 0
-1326 -1359 0
-1326 -1360 0
-1326 -1361 0
-1326 -1362 0
-1326 -1363 0
-1326 -1364 0
-1326 -1365 0
-1326 -1366 0
-1326 -1367 0
-1326 -1368 0
-1326 -1369 0
-1326 -1370 0
-1326 -1371 0
-1326 -1372 0
-1326 -1373 0
-1326 -1374 0
-1326 -1375 0
-1326 -1376 0
-1326 -1377 0
-1326 -1378 0
-1326 -1379 0
-1327 -1328 0
-1327 -1329 0
-1327 -1330 0
-1327 -1331 0
-1327 -1332 0
-1327 -1333 0
-1327 -1334 0
-1327 -1335 0
-1327 -1336 0
-1327 -1337 0
-1327 -1338 0
-1327 -1339 0
-1327 -1340 0
-1327 -1341 0
-1327 -1342 0
-1327 -1343 0
-1327 -1344 0
-1327 -1345 0
-1327 -1346 0
-1327 -1347 0
-1327 -1348 0
-1327 -1349 0
-1327 -1350 0
-1327 -1351 0
-1327 -1352 0
-1327 -1353 0
-1327 -1354 0
-1327 -1355 0
-1327 -1356 0
-1327 -1357 0
-1327 -1358 0
-1327 -1359 0
-1327 -1360 0
-1327 -1361 0
-1327 -1362 0
-1327 -1363 0
-1327 -1364 0
-1327 -1365 0
-1327 -1366 0
-1327 -1367 0
-1327 -1368 0
-1327 -1369 0
-1327 -1370 0
-1327 -1371 0
-1327 -1372 0
-1327 -1373 0
-1327 -1374 0
-1327 -1375 0
-1327 -1376 0
-1327 -1377 0
-1327 -1378 0
-1327 -1379 0
-1328 -1329 0
-1328 -1330 0
-1328 -1331 0
-1328 -1332 0
-1328 -1333 0
-1328 -1334 0
-1328 -1335 0
-1328 -1336 0
-1328 -1337 0
-1328 -1338 0
-1328 -1339 0
-1328 -1340 0
-1328 -1341 0
-1328 -1342 0
-1328 -1343 0
-1328 -1344 0
-1328 -1345 0
-1328 -1346 0
-1328 -1347 0
-1328 -1348 0
-1328 -1349 0
-1328 -1350 0
-1328 -1351 0
-1328 -1352 0
-1328 -1353 0
-1328 -1354 0
-1328 -1355 0
-1328 -1356 0
-1328 -1357 0
-1328 -1358 0
-1328 -1359 0
-1328 -1360 0
-1328 -1361 0
-1328 -1362 0
-1328 -1363 0
-1328 -1364 0
-1328 -1365 0
-1328 -1366 0
-1328 -1367 0
-1328 -1368 0
-1328 -1369 0
-1328 -1370 0
-1328 -1371 0
-1328 -1372 0
-1328 -1373 0
-1328 -1374 0
-1328 -1375 0
-1328 -1376 0
-1328 -1377 0
-1328 -1378 0
-1328 -1379 0
-1329 -1330 0
-1329 -1331 0
-1329 -1332 0
-1329 -1333 0
-1329 -1334 0
-1329 -1335 0
-1329 -1336 0
-1329 -1337 0
-1329 -1338 0
-1329 -1339 0
-1329 -1340 0
-1329 -1341 0
-1329 -1342 0
-1329 -1343 0
-1329 -1344 0
-1329 -1345 0
-1329 -1346 0
-1329 -1347 0
-1329 -1348 0
-1329 -1349 0
-1329 -1350 0
-1329 -1351 0
-1329 -1352 0
-1329 -1353 0
-1329 -1354 0
-1329 -1355 0
-1329 -1356 0
-1329 -1357 0
-1329 -1358 0
-1329 -1359 0
-1329 -1360 0
-1329 -1361 0
-1329 -1362 0
-1329 -1363 0
-1329 -1364 0
-1329 -1365 0
-1329 -1366 0
-1329 -1367 0
-1329 -1368 0
-1329 -1369 0
-1329 -1370 0
-1329 -1371 0
-1329 -1372 0
-1329 -1373 0
-1329 -1374 0
-1329 -1375 0
-1329 -1376 0
-1329 -1377 0
-1329 -1378 0
-1329 -1379 0
-1330 -1331 0
-1330 -1332 0
-1330 -1333 0
-1330 -1334 0
-1330 -1335 0
-1330 -1336 0
-1330 -1337 0
-1330 -1338 0
-1330 -1339 0
-1330 -1340 0
-1330 -1341 0
-1330 -1342 0
-1330 -1343 0
-1330 -1344 0
-1330 -1345 0
-1330 -1346 0
-1330 -1347 0
-1330 -1348 0
-1330 -1349 0
-1330 -1350 0
-1330 -1351 0
-1330 -1352 0
-1330 -1353 0
-1330 -1354 0
-1330 -1355 0
-1330 -1356 0
-1330 -1357 0
-1330 -1358 0
-1330 -1359 0
-1330 -1360 0
-1330 -1361 0
-1330 -1362 0
-1330 -1363 0
-1330 -1364 0
-1330 -1365 0
-1330 -1366 0
-1330 -1367 0
-1330 -1368 0
-1330 -1369 0
-1330 -1370 0
-1330 -1371 0
-1330 -1372 0
-1330 -1373 0
-1330 -1374 0
-1330 -1375 0
-1330 -1376 0
-1330 -1377 0
-1330 -1378 0
-1330 -1379 0
-1331 -1332 0
-1331 -1333 0
-1331 -1334 0
-1331 -1335 0
-1331 -1336 0
-1331 -1337 0
-1331 -1338 0
-1331 -1339 0
-1331 -1340 0
-1331 -1341 0
-1331 -1342 0
-1331 -1343 0
-1331 -1344 0
-1331 -1345 0
-1331 -1346 0
-1331 -1347 0
-1331 -1348 0
-1331 -1349 0
-1331 -1350 0
-1331 -1351 0
-1331 -1352 0
-1331 -1353 0
-1331 -1354 0
-1331 -1355 0
-1331 -1356 0
-1331 -1357 0
-1331 -1358 0
-1331 -1359 0
-1331 -1360 0
-1331 -1361 0
-1331 -1362 0
-1331 -1363 0
-1331 -1364 0
-1331 -1365 0
-1331 -1366 0
-1331 -1367 0
-1331 -1368 0
-1331 -1369 0
-1331 -1370 0
-1331 -1371 0
-1331 -1372 0
-1331 -1373 0
-1331 -1374 0
-1331 -1375 0
-1331 -1376 0
-1331 -1377 0
-1331 -1378 0
-1331 -1379 0
-1332 -1333 0
-1332 -1334 0
-1332 -1335 0
-1332 -1336 0
-1332 -1337 0
-1332 -1338 0
-1332 -1339 0
-1332 -1340 0
-1332 -1341 0
-1332 -1342 0
-1332 -1343 0
-1332 -1344 0
-1332 -1345 0
-1332 -1346 0
-1332 -1347 0
-1332 -1348 0
-1332 -1349 0
-1332 -1350 0
-1332 -1351 0
-1332 -1352 0
-1332 -1353 0
-1332 -1354 0
-1332 -1355 0
-1332 -1356 0
-1332 -1357 0
-1332 -1358 0
-1332 -1359 0
-1332 -1360 0
-1332 -1361 0
-1332 -1362 0
-1332 -1363 0
-1332 -1364 0
-1332 -1365 0
-1332 -1366 0
-1332 -1367 0
-1332 -1368 0
-1332 -1369 0
-1332 -1370 0
-1332 -1371 0
-1332 -1372 0
-1332 -1373 0
-1332 -1374 0
-1332 -1375 0
-1332 -1376 0
-1332 -1377 0
-1332 -1378 0
-1332 -1379 0
-1333 -1334 0
-1333 -1335 0
-1333 -1336 0
-1333 -1337 0
-1333 -1338 0
-1333 -1339 0
-1333 -1340 0
-1333 -1341 0
-1333 -1342 0
-1333 -1343 0
-1333 -1344 0
-1333 -1345 0
-1333 -1346 0
-1333 -1347 0
-1333 -1348 0
-1333 -1349 0
-1333 -1350 0
-1333 -1351 0
-1333 -1352 0
-1333 -1353 0
-1333 -1354 0
-1333 -1355 0
-1333 -1356 0
-1333 -1357 0
-1333 -1358 0
-1333 -1359 0
-1333 -1360 0
-1333 -1361 0
-1333 -1362 0
-1333 -1363 0
-1333 -1364 0
-1333 -1365 0
-1333 -1366 0
-1333 -1367 0
-1333 -1368 0
-1333 -1369 0
-1333 -1370 0
-1333 -1371 0
-1333 -1372 0
-1333 -1373 0
-1333 -1374 0
-1333 -1375 0
-1333 -1376 0
-1333 -1377 0
-1333 -1378 0
-1333 -1379 0
-1334 -1335 0
-1334 -1336 0
-1334 -1337 0
-1334 -1338 0
-1334 -1339 0
-1334 -1340 0
-1334 -1341 0
-1334 -1342 0
-1334 -1343 0
-1334 -1344 0
-1334 -1345 0
-1334 -1346 0
-1334 -1347 0
-1334 -1348 0
-1334 -1349 0
-1334 -1350 0
-1334 -1351 0
-1334 -1352 0
-1334 -1353 0
-1334 -1354 0
-1334 -1355 0
-1334 -1356 0
-1334 -1357 0
-1334 -1358 0
-1334 -1359 0
-1334 -1360 0
-1334 -1361 0
-1334 -1362 0
-1334 -1363 0
-1334 -1364 0
-1334 -1365 0
-1334 -1366 0
-1334 -1367 0
-1334 -1368 0
-1334 -1369 0
-1334 -1370 0
-1334 -1371 0
-1334 -1372 0
-1334 -1373 0
-1334 -1374 0
-1334 -1375 0
-1334 -1376 0
-1334 -1377 0
-1334 -1378 0
-1334 -1379 0
-1335 -1336 0
-1335 -1337 0
-1335 -1338 0
-1335 -1339 0
-1335 -1340 0
-1335 -1341 0
-1335 -1342 0
-1335 -1343 0
-1335 -1344 0
-1335 -1345 0
-1335 -1346 0
-1335 -1347 0
-1335 -1348 0
-1335 -1349 0
-1335 -1350 0
-1335 -1351 0
-1335 -1352 0
-1335 -1353 0
-1335 -1354 0
-1335 -1355 0
-1335 -1356 0
-1335 -1357 0
-1335 -1358 0
-1335 -1359 0
-1335 -1360 0
-1335 -1361 0
-1335 -1362 0
-1335 -1363 0
-1335 -1364 0
-1335 -1365 0
-1335 -1366 0
-1335 -1367 0
-1335 -1368 0
-1335 -1369 0
-1335 -1370 0
-1335 -1371 0
-1335 -1372 0
-1335 -1373 0
-1335 -1374 0
-1335 -1375 0
-1335 -1376 0
-1335 -1377 0
-1335 -1378 0
-1335 -1379 0
-1336 -1337 0
-1336 -1338 0
-1336 -1339 0
-1336 -1340 0
-1336 -1341 0
-1336 -1342 0
-1336 -1343 0
-1336 -1344 0
-1336 -1345 0
-1336 -1346 0
-1336 -1347 0
-1336 -1348 0
-1336 -1349 0
-1336 -1350 0
-1336 -1351 0
-1336 -1352 0
-1336 -1353 0
-1336 -1354 0
-1336 -1355 0
-1336 -1356 0
-1336 -1357 0
-1336 -1358 0
-1336 -1359 0
-1336 -1360 0
-1336 -1361 0
-1336 -1362 0
-1336 -1363 0
-1336 -1364 0
-1336 -1365 0
-1336 -1366 0
-1336 -1367 0
-1336 -1368 0
-1336 -1369 0
-1336 -1370 0
-1336 -1371 0
-1336 -1372 0
-1336 -1373 0
-1336 -1374 0
-1336 -1375 0
-1336 -1376 0
-1336 -1377 0
-1336 -1378 0
-1336 -1379 0
-1337 -1338 0
-1337 -1339 0
-1337 -1340 0
-1337 -1341 0
-1337 -1342 0
-1337 -1343 0
-1337 -1344 0
-1337 -1345 0
-1337 -1346 0
-1337 -1347 0
-1337 -1348 0
-1337 -1349 0
-1337 -1350 0
-1337 -1351 0
-1337 -1352 0
-1337 -1353 0
-1337 -1354 0
-1337 -1355 0
-1337 -1356 0
-1337 -1357 0
-1337 -1358 0
-1337 -1359 0
-1337 -1360 0
-1337 -1361 0
-1337 -1362 0
-1337 -1363 0
-1337 -1364 0
-1337 -1365 0
-1337 -1366 0
-1337 -1367 0
-1337 -1368 0
-1337 -1369 0
-1337 -1370 0
-1337 -1371 0
-1337 -1372 0
-1337 -1373 0
-1337 -1374 0
-1337 -1375 0
-1337 -1376 0
-1337 -1377 0
-1337 -1378 0
-1337 -1379 0
-1338 -1339 0
-1338 -1340 0
-1338 -1341 0
-1338 -1342 0
-1338 -1343 0
-1338 -1344 0
-1338 -1345 0
-1338 -1346 0
-1338 -1347 0
-1338 -1348 0
-1338 -1349 0
-1338 -1350 0
-1338 -1351 0
-1338 -1352 0
-1338 -1353 0
-1338 -1354 0
-1338 -1355 0
-1338 -1356 0
-1338 -1357 0
-1338 -1358 0
-1338 -1359 0
-1338 -1360 0
-1338 -1361 0
-1338 -1362 0
-1338 -1363 0
-1338 -1364 0
-1338 -1365 0
-1338 -1366 0
-1338 -1367 0
-1338 -1368 0
-1338 -1369 0
-1338 -1370 0
-1338 -1371 0
-1338 -1372 0
-1338 -1373 0
-1338 -1374 0
-1338 -1375 0
-1338 -1376 0
-1338 -1377 0
-1338 -1378 0
-1338 -1379 0
-1339 -1340 0
-1339 -1341 0
-1339 -1342 0
-1339 -1343 0
-1339 -1344 0
-1339 -1345 0
-1339 -1346 0
-1339 -1347 0
-1339 -1348 0
-1339 -1349 0
-1339 -1350 0
-1339 -1351 0
-1339 -1352 0
-1339 -1353 0
-1339 -1354 0
-1339 -1355 0
-1339 -1356 0
-1339 -1357 0
-1339 -1358 0
-1339 -1359 0
-1339 -1360 0
-1339 -1361 0
-1339 -1362 0
-1339 -1363 0
-1339 -1364 0
-1339 -1365 0
-1339 -1366 0
-1339 -1367 0
-1339 -1368 0
-1339 -1369 0
-1339 -1370 0
-1339 -1371 0
-1339 -1372 0
-1339 -1373 0
-1339 -1374 0
-1339 -1375 0
-1339 -1376 0
-1339 -1377 0
-1339 -1378 0
-1339 -1379 0
-1340 -1341 0
-1340 -1342 0
-1340 -1343 0
-1340 -1344 0
-1340 -1345 0
-1340 -1346 0
-1340 -1347 0
-1340 -1348 0
-1340 -1349 0
-1340 -1350 0
-1340 -1351 0
-1340 -1352 0
-1340 -1353 0
-1340 -1354 0
-1340 -1355 0
-1340 -1356 0
-1340 -1357 0
-1340 -1358 0
-1340 -1359 0
-1340 -1360 0
-1340 -1361 0
-1340 -1362 0
-1340 -1363 0
-1340 -1364 0
-1340 -1365 0
-1340 -1366 0
-1340 -1367 0
-1340 -1368 0
-1340 -1369 0
-1340 -1370 0
-1340 -1371 0
-1340 -1372 0
-1340 -1373 0
-1340 -1374 0
-1340 -1375 0
-1340 -1376 0
-1340 -1377 0
-1340 -1378 0
-1340 -1379 0
-1341 -1342 0
-1341 -1343 0
-1341 -1344 0
-1341 -1345 0
-1341 -1346 0
-1341 -1347 0
-1341 -1348 0
-1341 -1349 0
-1341 -1350 0
-1341 -1351 0
-1341 -1352 0
-1341 -1353 0
-1341 -1354 0
-1341 -1355 0
-1341 -1356 0
-1341 -1357 0
-1341 -1358 0
-1341 -1359 0
-1341 -1360 0
-1341 -1361 0
-1341 -1362 0
-1341 -1363 0
-1341 -1364 0
-1341 -1365 0
-1341 -1366 0
-1341 -1367 0
-1341 -1368 0
-1341 -1369 0
-1341 -1370 0
-1341 -1371 0
-1341 -1372 0
-1341 -1373 0
-1341 -1374 0
-1341 -1375 0
-1341 -1376 0
-1341 -1377 0
-1341 -1378 0
-1341 -1379 0
-1342 -1343 0
-1342 -1344 0
-1342 -1345 0
-1342 -1346 0
-1342 -1347 0
-1342 -1348 0
-1342 -1349 0
-1342 -1350 0
-1342 -1351 0
-1342 -1352 0
-1342 -1353 0
-1342 -1354 0
-1342 -1355 0
-1342 -1356 0
-1342 -1357 0
-1342 -1358 0
-1342 -1359 0
-1342 -1360 0
-1342 -1361 0
-1342 -1362 0
-1342 -1363 0
-1342 -1364 0
-1342 -1365 0
-1342 -1366 0
-1342 -1367 0
-1342 -1368 0
-1342 -1369 0
-1342 -1370 0
-1342 -1371 0
-1342 -1372 0
-1342 -1373 0
-1342 -1374 0
-1342 -1375 0
-1342 -1376 0
-1342 -1377 0
-1342 -1378 0
-1342 -1379 0
-1343 -1344 0
-1343 -1345 0
-1343 -1346 0
-1343 -1347 0
-1343 -1348 0
-1343 -1349 0
-1343 -1350 0
-1343 -1351 0
-1343 -1352 0
-1343 -1353 0
-1343 -1354 0
-1343 -1355 0
-1343 -1356 0
-1343 -1357 0
-1343 -1358 0
-1343 -1359 0
-1343 -1360 0
-1343 -1361 0
-1343 -1362 0
-1343 -1363 0
-1343 -1364 0
-1343 -1365 0
-1343 -1366 0
-1343 -1367 0
-1343 -1368 0
-1343 -1369 0
-1343 -1370 0
-1343 -1371 0
-1343 -1372 0
-1343 -1373 0
-1343 -1374 0
-1343 -1375 0
-1343 -1376 0
-1343 -1377 0
-1343 -1378 0
-1343 -1379 0
-1344 -1345 0
-1344 -1346 0
-1344 -1347 0
-1344 -1348 0
-1344 -1349 0
-1344 -1350 0
-1344 -1351 0
-1344 -1352 0
-1344 -1353 0
-1344 -1354 0
-1344 -1355 0
-1344 -1356 0
-1344 -1357 0
-1344 -1358 0
-1344 -1359 0
-1344 -1360 0
-1344 -1361 0
-1344 -1362 0
-1344 -1363 0
-1344 -1364 0
-1344 -1365 0
-1344 -1366 0
-1344 -1367 0
-1344 -1368 0
-1344 -1369 0
-1344 -1370 0
-1344 -1371 0
-1344 -1372 0
-1344 -1373 0
-1344 -1374 0
-1344 -1375 0
-1344 -1376 0
-1344 -1377 0
-1344 -1378 0
-1344 -1379 0
-1345 -1346 0
-1345 -1347 0
-1345 -1348 0
-1345 -1349 0
-1345 -1350 0
-1345 -1351 0
-1345 -1352 0
-1345 -1353 0
-1345 -1354 0
-1345 -1355 0
-1345 -1356 0
-1345 -1357 0
-1345 -1358 0
-1345 -1359 0
-1345 -1360 0
-1345 -1361 0
-1345 -1362 0
-1345 -1363 0
-1345 -1364 0
-1345 -1365 0
-1345 -1366 0
-1345 -1367 0
-1345 -1368 0
-1345 -1369 0
-1345 -1370 0
-1345 -1371 0
-1345 -1372 0
-1345 -1373 0
-1345 -1374 0
-1345 -1375 0
-1345 -1376 0
-1345 -1377 0
-1345 -1378 0
-1345 -1379 0
-1346 -1347 0
-1346 -1348 0
-1346 -1349 0
-1346 -1350 0
-1346 -1351 0
-1346 -1352 0
-1346 -1353 0
-1346 -1354 0
-1346 -1355 0
-1346 -1356 0
-1346 -1357 0
-1346 -1358 0
-1346 -1359 0
-1346 -1360 0
-1346 -1361 0
-1346 -1362 0
-1346 -1363 0
-1346 -1364 0
-1346 -1365 0
-1346 -1366 0
-1346 -1367 0
-1346 -1368 0
-1346 -1369 0
-1346 -1370 0
-1346 -1371 0
-1346 -1372 0
-1346 -1373 0
-1346 -1374 0
-1346 -1375 0
-1346 -1376 0
-1346 -1377 0
-1346 -1378 0
-1346 -1379 0
-1347 -1348 0
-1347 -1349 0
-1347 -1350 0
-1347 -1351 0
-1347 -1352 0
-1347 -1353 0
-1347 -1354 0
-1347 -1355 0
-1347 -1356 0
-1347 -1357 0
-1347 -1358 0
-1347 -1359 0
-1347 -1360 0
-1347 -1361 0
-1347 -1362 0
-1347 -1363 0
-1347 -1364 0
-1347 -1365 0
-1347 -1366 0
-1347 -1367 0
-1347 -1368 0
-1347 -1369 0
-1347 -1370 0
-1347 -1371 0
-1347 -1372 0
-1347 -1373 0
-1347 -1374 0
-1347 -1375 0
-1347 -1376 0
-1347 -1377 0
-1347 -1378 0
-1347 -1379 0
-1348 -1349 0
-1348 -1350 0
-1348 -1351 0
-1348 -1352 0
-1348 -1353 0
-1348 -1354 0
-1348 -1355 0
-1348 -1356 0
-1348 -1357 0
-1348 -1358 0
-1348 -1359 0
-1348 -1360 0
-1348 -1361 0
-1348 -1362 0
-1348 -1363 0
-1348 -1364 0
-1348 -1365 0
-1348 -1366 0
-1348 -1367 0
-1348 -1368 0
-1348 -1369 0
-1348 -1370 0
-1348 -1371 0
-1348 -1372 0
-1348 -1373 0
-1348 -1374 0
-1348 -1375 0
-1348 -1376 0
-1348 -1377 0
-1348 -1378 0
-1348 -1379 0
-1349 -1350 0
-1349 -1351 0
-1349 -1352 0
-1349 -1353 0
-1349 -1354 0
-1349 -1355 0
-1349 -1356 0
-1349 -1357 0
-1349 -1358 0
-1349 -1359 0
-1349 -1360 0
-1349 -1361 0
-1349 -1362 0
-1349 -1363 0
-1349 -1364 0
-1349 -1365 0
-1349 -1366 0
-1349 -1367 0
-1349 -1368 0
-1349 -1369 0
-1349 -1370 0
-1349 -1371 0
-1349 -1372 0
-1349 -1373 0
-1349 -1374 0
-1349 -1375 0
-1349 -1376 0
-1349 -1377 0
-1349 -1378 0
-1349 -1379 0
-1350 -1351 0
-1350 -1352 0
-1350 -1353 0
-1350 -1354 0
-1350 -1355 0
-1350 -1356 0
-1350 -1357 0
-1350 -1358 0
-1350 -1359 0
-1350 -1360 0
-1350 -1361 0
-1350 -1362 0
-1350 -1363 0
-1350 -1364 0
-1350 -1365 0
-1350 -1366 0
-1350 -1367 0
-1350 -1368 0
-1350 -1369 0
-1350 -1370 0
-1350 -1371 0
-1350 -1372 0
-1350 -1373 0
-1350 -1374 0
-1350 -1375 0
-1350 -1376 0
-1350 -1377 0
-1350 -1378 0
-1350 -1379 0
-1351 -1352 0
-1351 -1353 0
-1351 -1354 0
-1351 -1355 0
-1351 -1356 0
-1351 -1357 0
-1351 -1358 0
-1351 -1359 0
-1351 -1360 0
-1351 -1361 0
-1351 -1362 0
-1351 -1363 0
-1351 -1364 0
-1351 -1365 0
-1351 -1366 0
-1351 -1367 0
-1351 -1368 0
-1351 -1369 0
-1351 -1370 0
-1351 -1371 0
-1351 -1372 0
-1351 -1373 0
-1351 -1374 0
-1351 -1375 0
-1351 -1376 0
-1351 -1377 0
-1351 -1378 0
-1351 -1379 0
-1352 -1353 0
-1352 -1354 0
-1352 -1355 0
-1352 -1356 0
-1352 -1357 0
-1352 -1358 0
-1352 -1359 0
-1352 -1360 0
-1352 -1361 0
-1352 -1362 0
-1352 -1363 0
-1352 -1364 0
-1352 -1365 0
-1352 -1366 0
-1352 -1367 0
-1352 -1368 0
-1352 -1369 0
-1352 -1370 0
-1352 -1371 0
-1352 -1372 0
-1352 -1373 0
-1352 -1374 0
-1352 -1375 0
-1352 -1376 0
-1352 -1377 0
-1352 -1378 0
-1352 -1379 0
-1353 -1354 0
-1353 -1355 0
-1353 -1356 0
-1353 -1357 0
-1353 -1358 0
-1353 -1359 0
-1353 -1360 0
-1353 -1361 0
-1353 -1362 0
-1353 -1363 0
-1353 -1364 0
-1353 -1365 0
-1353 -1366 0
-1353 -1367 0
-1353 -1368 0
-1353 -1369 0
-1353 -1370 0
-1353 -1371 0
-1353 -1372 0
-1353 -1373 0
-1353 -1374 0
-1353 -1375 0
-1353 -1376 0
-1353 -1377 0
-1353 -1378 0
-1353 -1379 0
-1354 -1355 0
-1354 -1356 0
-1354 -1357 0
-1354 -1358 0
-1354 -1359 0
-1354 -1360 0
-1354 -1361 0
-1354 -1362 0
-1354 -1363 0
-1354 -1364 0
-1354 -1365 0
-1354 -1366 0
-1354 -1367 0
-1354 -1368 0
-1354 -1369 0
-1354 -1370 0
-1354 -1371 0
-1354 -1372 0
-1354 -1373 0
-1354 -1374 0
-1354 -1375 0
-1354 -1376 0
-1354 -1377 0
-1354 -1378 0
-1354 -1379 0
-1355 -1356 0
-1355 -1357 0
-1355 -1358 0
-1355 -1359 0
-1355 -1360 0
-1355 -1361 0
-1355 -1362 0
-1355 -1363 0
-1355 -1364 0
-1355 -1365 0
-1355 -1366 0
-1355 -1367 0
-1355 -1368 0
-1355 -1369 0
-1355 -1370 0
-1355 -1371 0
-1355 -1372 0
-1355 -1373 0
-1355 -1374 0
-1355 -1375 0
-1355 -1376 0
-1355 -1377 0
-1355 -1378 0
-1355 -1379 0
-1356 -1357 0
-1356 -1358 0
-1356 -1359 0
-1356 -1360 0
-1356 -1361 0
-1356 -1362 0
-1356 -1363 0
-1356 -1364 0
-1356 -1365 0
-1356 -1366 0
-1356 -1367 0
-1356 -1368 0
-1356 -1369 0
-1356 -1370 0
-1356 -1371 0
-1356 -1372 0
-1356 -1373 0
-1356 -1374 0
-1356 -1375 0
-1356 -1376 0
-1356 -1377 0
-1356 -1378 0
-1356 -1379 0
-1357 -1358 0
-1357 -1359 0
-1357 -1360 0
-1357 -1361 0
-1357 -1362 0
-1357 -1363 0
-1357 -1364 0
-1357 -1365 0
-1357 -1366 0
-1357 -1367 0
-1357 -1368 0
-1357 -1369 0
-1357 -1370 0
-1357 -1371 0
-1357 -1372 0
-1357 -1373 0
-1357 -1374 0
-1357 -1375 0
-1357 -1376 0
-1357 -1377 0
-1357 -1378 0
-1357 -1379 0
-1358 -1359 0
-1358 -1360 0
-1358 -1361 0
-1358 -1362 0
-1358 -1363 0
-1358 -1364 0
-1358 -1365 0
-1358 -1366 0
-1358 -1367 0
-1358 -1368 0
-1358 -1369 0
-1358 -1370 0
-1358 -1371 0
-1358 -1372 0
-1358 -1373 0
-1358 -1374 0
-1358 -1375 0
-1358 -1376 0
-1358 -1377 0
-1358 -1378 0
-1358 -1379 0
-1359 -1360 0
-1359 -1361 0
-1359 -1362 0
-1359 -1363 0
-1359 -1364 0
-1359 -1365 0
-1359 -1366 0
-1359 -1367 0
-1359 -1368 0
-1359 -1369 0
-1359 -1370 0
-1359 -1371 0
-1359 -1372 0
-1359 -1373 0
-1359 -1374 0
-1359 -1375 0
-1359 -1376 0
-1359 -1377 0
-1359 -1378 0
-1359 -1379 0
-1360 -1361 0
-1360 -1362 0
-1360 -1363 0
-1360 -1364 0
-1360 -1365 0
-1360 -1366 0
-1360 -1367 0
-1360 -1368 0
-1360 -1369 0
-1360 -1370 0
-1360 -1371 0
-1360 -1372 0
-1360 -1373 0
-1360 -1374 0
-1360 -1375 0
-1360 -1376 0
-1360 -1377 0
-1360 -1378 0
-1360 -1379 0
-1361 -1362 0
-1361 -1363 0
-1361 -1364 0
-1361 -1365 0
-1361 -1366 0
-1361 -1367 0
-1361 -1368 0
-1361 -1369 0
-1361 -1370 0
-1361 -1371 0
-1361 -1372 0
-1361 -1373 0
-1361 -1374 0
-1361 -1375 0
-1361 -1376 0
-1361 -1377 0
-1361 -1378 0
-1361 -1379 0
-1362 -1363 0
-1362 -1364 0
-1362 -1365 0
-1362 -1366 0
-1362 -1367 0
-1362 -1368 0
-1362 -1369 0
-1362 -1370 0
-1362 -1371 0
-1362 -1372 0
-1362 -1373 0
-1362 -1374 0
-1362 -1375 0
-1362 -1376 0
-1362 -1377 0
-1362 -1378 0
-1362 -1379 0
-1363 -1364 0
-1363 -1365 0
-1363 -1366 0
-1363 -1367 0
-1363 -1368 0
-1363 -1369 0
-1363 -1370 0
-1363 -1371 0
-1363 -1372 0
-1363 -1373 0
-1363 -1374 0
-1363 -1375 0
-1363 -1376 0
-1363 -1377 0
-1363 -1378 0
-1363 -1379 0
-1364 -1365 0
-1364 -1366 0
-1364 -1367 0
-1364 -1368 0
-1364 -1369 0
-1364 -1370 0
-1364 -1371 0
-1364 -1372 0
-1364 -1373 0
-1364 -1374 0
-1364 -1375 0
-1364 -1376 0
-1364 -1377 0
-1364 -1378 0
-1364 -1379 0
-1365 -1366 0
-1365 -1367 0
-1365 -1368 0
-1365 -1369 0
-1365 -1370 0
-1365 -1371 0
-1365 -1372 0
-1365 -1373 0
-1365 -1374 0
-1365 -1375 0
-1365 -1376 0
-1365 -1377 0
-1365 -1378 0
-1365 -1379 0
-1366 -1367 0
-1366 -1368 0
-1366 -1369 0
-1366 -1370 0
-1366 -1371 0
-1366 -1372 0
-1366 -1373 0
-1366 -1374 0
-1366 -1375 0
-1366 -1376 0
-1366 -1377 0
-1366 -1378 0
-1366 -1379 0
-1367 -1368 0
-1367 -1369 0
-1367 -1370 0
-1367 -1371 0
-1367 -1372 0
-1367 -1373 0
-1367 -1374 0
-1367 -1375 0
-1367 -1376 0
-1367 -1377 0
-1367 -1378 0
-1367 -1379 0
-1368 -1369 0
-1368 -1370 0
-1368 -1371 0
-1368 -1372 0
-1368 -1373 0
-1368 -1374 0
-1368 -1375 0
-1368 -1376 0
-1368 -1377 0
-1368 -1378 0
-1368 -1379 0
-1369 -1370 0
-1369 -1371 0
-1369 -1372 0
-1369 -1373 0
-1369 -1374 0
-1369 -1375 0
-1369 -1376 0
-1369 -1377 0
-1369 -1378 0
-1369 -1379 0
-1370 -1371 0
-1370 -1372 0
-1370 -1373 0
-1370 -1374 0
-1370 -1375 0
-1370 -1376 0
-1370 -1377 0
-1370 -1378 0
-1370 -1379 0
-1371 -1372 0
-1371 -1373 0
-1371 -1374 0
-1371 -1375 0
-1371 -1376 0
-1371 -1377 0
-1371 -1378 0
-1371 -1379 0
-1372 -1373 0
-1372 -1374 0
-1372 -1375 0
-1372 -1376 0
-1372 -1377 0
-1372 -1378 0
-1372 -1379 0
-1373 -1374 0
-1373 -1375 0
-1373 -1376 0
-1373 -1377 0
-1373 -1378 0
-1373 -1379 0
-1374 -1375 0
-1374 -1376 0
-1374 -1377 0
-1374 -1378 0
-1374 -1379 0
-1375 -1376 0
-1375 -1377 0
-1375 -1378 0
-1375 -1379 0
-1376 -1377 0
-1376 -1378 0
-1376 -1379 0
-1377 -1378 0
-1377 -1379 0
-1378 -1379 0
-1380 280 0
-1380 -106 -232 -229 0
-1380 -106 -233 -230 0
-1380 -106 -234 -231 0
-1380 112 0
-1380 -112 -232 1597 774 0
-1380 -112 -233 1597 780 0
-1380 -112 -234 1597 786 0
-1380 -232 -798 0
-1380 -232 -822 0
-1380 -232 -846 0
-1380 -232 -804 0
-1380 -232 -828 0
-1380 -232 -852 0
-1380 -232 -810 0
-1380 -232 -834 0
-1380 -232 -858 0
-1380 -233 -804 0
-1380 -233 -828 0
-1380 -233 -852 0
-1380 -233 -810 0
-1380 -233 -834 0
-1380 -233 -858 0
-1380 -234 -810 0
-1380 -234 -834 0
-1380 -234 -858 0
-1380 -235 0
-1380 127 0
-1380 -232 245 0
-1380 -233 246 0
-1380 -234 247 0
-1380 -285 0
-1381 280 0
-1381 -107 -232 -229 0
-1381 -107 -233 -230 0
-1381 -107 -234 -231 0
-1381 113 0
-1381 -113 -232 1598 775 0
-1381 -113 -233 1598 781 0
-1381 -113 -234 1598 787 0
-1381 -232 -799 0
-1381 -232 -823 0
-1381 -232 -847 0
-1381 -232 -805 0
-1381 -232 -829 0
-1381 -232 -853 0
-1381 -232 -811 0
-1381 -232 -835 0
-1381 -232 -859 0
-1381 -233 -805 0
-1381 -233 -829 0
-1381 -233 -853 0
-1381 -233 -811 0
-1381 -233 -835 0
-1381 -233 -859 0
-1381 -234 -811 0
-1381 -234 -835 0
-1381 -234 -859 0
-1381 -235 0
-1381 128 0
-1381 -232 245 0
-1381 -233 246 0
-1381 -234 247 0
-1381 -285 0
-1382 280 0
-1382 -108 -232 -229 0
-1382 -108 -233 -230 0
-1382 -108 -234 -231 0
-1382 114 0
-1382 -114 -232 1599 776 0
-1382 -114 -233 1599 782 0
-1382 -114 -234 1599 788 0
-1382 -232 -800 0
-1382 -232 -824 0
-1382 -232 -848 0
-1382 -232 -806 0
-1382 -232 -830 0
-1382 -232 -854 0
-1382 -232 -812 0
-1382 -232 -836 0
-1382 -232 -860 0
-1382 -233 -806 0
-1382 -233 -830 0
-1382 -233 -854 0
-1382 -233 -812 0
-1382 -233 -836 0
-1382 -233 -860 0
-1382 -234 -812 0
-1382 -234 -836 0
-1382 -234 -860 0
-1382 -235 0
-1382 129 0
-1382 -232 245 0
-1382 -233 246 0
-1382 -234 247 0
-1382 -285 0
-1383 280 0
-1383 -109 -232 -229 0
-1383 -109 -233 -230 0
-1383 -109 -234 -231 0
-1383 115 0
-1383 -115 -232 1600 777 0
-1383 -115 -233 1600 783 0
-1383 -115 -234 1600 789 0
-1383 -232 -801 0
-1383 -232 -825 0
-1383 -232 -849 0
-1383 -232 -807 0
-1383 -232 -831 0
-1383 -232 -855 0
-1383 -232 -813 0
-1383 -232 -837 0
-1383 -232 -861 0
-1383 -233 -807 0
-1383 -233 -831 0
-1383 -233 -855 0
-1383 -233 -813 0
-1383 -233 -837 0
-1383 -233 -861 0
-1383 -234 -813 0
-1383 -234 -837 0
-1383 -234 -861 0
-1383 -235 0
-1383 130 0
-1383 -232 245 0
-1383 -233 246 0
-1383 -234 247 0
-1383 -285 0
-1384 280 0
-1384 -110 -232 -229 0
-1384 -110 -233 -230 0
-1384 -110 -234 -231 0
-1384 116 0
-1384 -116 -232 1601 778 0
-1384 -116 -233 1601 784 0
-1384 -116 -234 1601 790 0
-1384 -232 -802 0
-1384 -232 -826 0
-1384 -232 -850 0
-1384 -232 -808 0
-1384 -232 -832 0
-1384 -232 -856 0
-1384 -232 -814 0
-1384 -232 -838 0
-1384 -232 -862 0
-1384 -233 -808 0
-1384 -233 -832 0
-1384 -233 -856 0
-1384 -233 -814 0
-1384 -233 -838 0
-1384 -233 -862 0
-1384 -234 -814 0
-1384 -234 -838 0
-1384 -234 -862 0
-1384 -235 0
-1384 131 0
-1384 -232 245 0
-1384 -233 246 0
-1384 -234 247 0
-1384 -285 0
-1385 280 0
-1385 -111 -232 -229 0
-1385 -111 -233 -230 0
-1385 -111 -234 -231 0
-1385 117 0
-1385 -117 -232 1602 779 0
-1385 -117 -233 1602 785 0
-1385 -117 -234 1602 791 0
-1385 -232 -803 0
-1385 -232 -827 0
-1385 -232 -851 0
-1385 -232 -809 0
-1385 -232 -833 0
-1385 -232 -857 0
-1385 -232 -815 0
-1385 -232 -839 0
-1385 -232 -863 0
-1385 -233 -809 0
-1385 -233 -833 0
-1385 -233 -857 0
-1385 -233 -815 0
-1385 -233 -839 0
-1385 -233 -863 0
-1385 -234 -815 0
-1385 -234 -839 0
-1385 -234 -863 0
-1385 -235 0
-1385 132 0
-1385 -232 245 0
-1385 -233 246 0
-1385 -234 247 0
-1385 -285 0
-1386 280 0
-1386 -106 -236 -229 0
-1386 -106 -237 -230 0
-1386 -106 -238 -231 0
-1386 118 0
-1386 -118 -236 1603 774 0
-1386 -118 -237 1603 780 0
-1386 -118 -238 1603 786 0
-1386 -236 -798 0
-1386 -236 -822 0
-1386 -236 -846 0
-1386 -236 -804 0
-1386 -236 -828 0
-1386 -236 -852 0
-1386 -236 -810 0
-1386 -236 -834 0
-1386 -236 -858 0
-1386 -237 -804 0
-1386 -237 -828 0
-1386 -237 -852 0
-1386 -237 -810 0
-1386 -237 -834 0
-1386 -237 -858 0
-1386 -238 -810 0
-1386 -238 -834 0
-1386 -238 -858 0
-1386 -239 0
-1386 127 0
-1386 -236 245 0
-1386 -237 246 0
-1386 -238 247 0
-1386 -286 0
-1387 280 0
-1387 -107 -236 -229 0
-1387 -107 -237 -230 0
-1387 -107 -238 -231 0
-1387 118 119 0
-1387 -118 -236 1604 775 0
-1387 -118 -237 1604 781 0
-1387 -118 -238 1604 787 0
-1387 -119 -236 1604 775 0
-1387 -119 -237 1604 781 0
-1387 -119 -238 1604 787 0
-1387 -236 -799 0
-1387 -236 -823 0
-1387 -236 -847 0
-1387 -236 -805 0
-1387 -236 -829 0
-1387 -236 -853 0
-1387 -236 -811 0
-1387 -236 -835 0
-1387 -236 -859 0
-1387 -237 -805 0
-1387 -237 -829 0
-1387 -237 -853 0
-1387 -237 -811 0
-1387 -237 -835 0
-1387 -237 -859 0
-1387 -238 -811 0
-1387 -238 -835 0
-1387 -238 -859 0
-1387 -239 0
-1387 128 0
-1387 -236 245 0
-1387 -237 246 0
-1387 -238 247 0
-1387 -286 0
-1388 280 0
-1388 -108 -236 -229 0
-1388 -108 -237 -230 0
-1388 -108 -238 -231 0
-1388 119 120 0
-1388 -119 -236 1605 776 0
-1388 -119 -237 1605 782 0
-1388 -119 -238 1605 788 0
-1388 -120 -236 1605 776 0
-1388 -120 -237 1605 782 0
-1388 -120 -238 1605 788 0
-1388 -236 -800 0
-1388 -236 -824 0
-1388 -236 -848 0
-1388 -236 -806 0
-1388 -236 -830 0
-1388 -236 -854 0
-1388 -236 -812 0
-1388 -236 -836 0
-1388 -236 -860 0
-1388 -237 -806 0
-1388 -237 -830 0
-1388 -237 -854 0
-1388 -237 -812 0
-1388 -237 -836 0
-1388 -237 -860 0
-1388 -238 -812 0
-1388 -238 -836 0
-1388 -238 -860 0
-1388 -239 0
-1388 129 0
-1388 -236 245 0
-1388 -237 246 0
-1388 -238 247 0
-1388 -286 0
-1389 280 0
-1389 -109 -236 -229 0
-1389 -109 -237 -230 0
-1389 -109 -238 -231 0
-1389 120 121 0
-1389 -120 -236 1606 777 0
-1389 -120 -237 1606 783 0
-1389 -120 -238 1606 789 0
-1389 -121 -236 1606 777 0
-1389 -121 -237 1606 783 0
-1389 -121 -238 1606 789 0
-1389 -236 -801 0
-1389 -236 -825 0
-1389 -236 -849 0
-1389 -236 -807 0
-1389 -236 -831 0
-1389 -236 -855 0
-1389 -236 -813 0
-1389 -236 -837 0
-1389 -236 -861 0
-1389 -237 -807 0
-1389 -237 -831 0
-1389 -237 -855 0
-1389 -237 -813 0
-1389 -237 -837 0
-1389 -237 -861 0
-1389 -238 -813 0
-1389 -238 -837 0
-1389 -238 -861 0
-1389 -239 0
-1389 130 0
-1389 -236 245 0
-1389 -237 246 0
-1389 -238 247 0
-1389 -286 0
-1390 280 0
-1390 -110 -236 -229 0
-1390 -110 -237 -230 0
-1390 -110 -238 -231 0
-1390 121 122 0
-1390 -121 -236 1607 778 0
-1390 -121 -237 1607 784 0
-1390 -121 -238 1607 790 0
-1390 -122 -236 1607 778 0
-1390 -122 -237 1607 784 0
-1390 -122 -238 1607 790 0
-1390 -236 -802 0
-1390 -236 -826 0
-1390 -236 -850 0
-1390 -236 -808 0
-1390 -236 -832 0
-1390 -236 -856 0
-1390 -236 -814 0
-1390 -236 -838 0
-1390 -236 -862 0
-1390 -237 -808 0
-1390 -237 -832 0
-1390 -237 -856 0
-1390 -237 -814 0
-1390 -237 -838 0
-1390 -237 -862 0
-1390 -238 -814 0
-1390 -238 -838 0
-1390 -238 -862 0
-1390 -239 0
-1390 131 0
-1390 -236 245 0
-1390 -237 246 0
-1390 -238 247 0
-1390 -286 0
-1391 280 0
-1391 -111 -236 -229 0
-1391 -111 -237 -230 0
-1391 -111 -238 -231 0
-1391 122 0
-1391 -122 -236 1608 779 0
-1391 -122 -237 1608 785 0
-1391 -122 -238 1608 791 0
-1391 -236 -803 0
-1391 -236 -827 0
-1391 -236 -851 0
-1391 -236 -809 0
-1391 -236 -833 0
-1391 -236 -857 0
-1391 -236 -815 0
-1391 -236 -839 0
-1391 -236 -863 0
-1391 -237 -809 0
-1391 -237 -833 0
-1391 -237 -857 0
-1391 -237 -815 0
-1391 -237 -839 0
-1391 -237 -863 0
-1391 -238 -815 0
-1391 -238 -839 0
-1391 -238 -863 0
-1391 -239 0
-1391 132 0
-1391 -236 245 0
-1391 -237 246 0
-1391 -238 247 0
-1391 -286 0
-1392 280 0
-1392 -106 -240 -229 0
-1392 -106 -241 -230 0
-1392 -106 -242 -231 0
-1392 123 0
-1392 -123 -240 1609 774 0
-1392 -123 -241 1609 780 0
-1392 -123 -242 1609 786 0
-1392 -240 -798 0
-1392 -240 -822 0
-1392 -240 -846 0
-1392 -240 -804 0
-1392 -240 -828 0
-1392 -240 -852 0
-1392 -240 -810 0
-1392 -240 -834 0
-1392 -240 -858 0
-1392 -241 -804 0
-1392 -241 -828 0
-1392 -241 -852 0
-1392 -241 -810 0
-1392 -241 -834 0
-1392 -241 -858 0
-1392 -242 -810 0
-1392 -242 -834 0
-1392 -242 -858 0
-1392 -243 0
-1392 127 0
-1392 -240 245 0
-1392 -241 246 0
-1392 -242 247 0
-1392 -287 0
-1393 280 0
-1393 -107 -240 -229 0
-1393 -107 -241 -230 0
-1393 -107 -242 -231 0
-1393 123 124 0
-1393 -123 -240 1610 775 0
-1393 -123 -241 1610 781 0
-1393 -123 -242 1610 787 0
-1393 -124 -240 1610 775 0
-1393 -124 -241 1610 781 0
-1393 -124 -242 1610 787 0
-1393 -240 -799 0
-1393 -240 -823 0
-1393 -240 -847 0
-1393 -240 -805 0
-1393 -240 -829 0
-1393 -240 -853 0
-1393 -240 -811 0
-1393 -240 -835 0
-1393 -240 -859 0
-1393 -241 -805 0
-1393 -241 -829 0
-1393 -241 -853 0
-1393 -241 -811 0
-1393 -241 -835 0
-1393 -241 -859 0
-1393 -242 -811 0
-1393 -242 -835 0
-1393 -242 -859 0
-1393 -243 0
-1393 128 0
-1393 -240 245 0
-1393 -241 246 0
-1393 -242 247 0
-1393 -287 0
-1394 280 0
-1394 -108 -240 -229 0
-1394 -108 -241 -230 0
-1394 -108 -242 -231 0
-1394 123 124 125 0
-1394 -123 -240 1611 776 0
-1394 -123 -241 1611 782 0
-1394 -123 -242 1611 788 0
-1394 -124 -240 1611 776 0
-1394 -124 -241 1611 782 0
-1394 -124 -242 1611 788 0
-1394 -125 -240 1611 776 0
-1394 -125 -241 1611 782 0
-1394 -125 -242 1611 788 0
-1394 -240 -800 0
-1394 -240 -824 0
-1394 -240 -848 0
-1394 -240 -806 0
-1394 -240 -830 0
-1394 -240 -854 0
-1394 -240 -812 0
-1394 -240 -836 0
-1394 -240 -860 0
-1394 -241 -806 0
-1394 -241 -830 0
-1394 -241 -854 0
-1394 -241 -812 0
-1394 -241 -836 0
-1394 -241 -860 0
-1394 -242 -812 0
-1394 -242 -836 0
-1394 -242 -860 0
-1394 -243 0
-1394 129 0
-1394 -240 245 0
-1394 -241 246 0
-1394 -242 247 0
-1394 -287 0
-1395 280 0
-1395 -109 -240 -229 0
-1395 -109 -241 -230 0
-1395 -109 -242 -231 0
-1395 124 125 126 0
-1395 -124 -240 1612 777 0
-1395 -124 -241 1612 783 0
-1395 -124 -242 1612 789 0
-1395 -125 -240 1612 777 0
-1395 -125 -241 1612 783 0
-1395 -125 -242 1612 789 0
-1395 -126 -240 1612 777 0
-1395 -126 -241 1612 783 0
-1395 -126 -242 1612 789 0
-1395 -240 -801 0
-1395 -240 -825 0
-1395 -240 -849 0
-1395 -240 -807 0
-1395 -240 -831 0
-1395 -240 -855 0
-1395 -240 -813 0
-1395 -240 -837 0
-1395 -240 -861 0
-1395 -241 -807 0
-1395 -241 -831 0
-1395 -241 -855 0
-1395 -241 -813 0
-1395 -241 -837 0
-1395 -241 -861 0
-1395 -242 -813 0
-1395 -242 -837 0
-1395 -242 -861 0
-1395 -243 0
-1395 130 0
-1395 -240 245 0
-1395 -241 246 0
-1395 -242 247 0
-1395 -287 0
-1396 280 0
-1396 -110 -240 -229 0
-1396 -110 -241 -230 0
-1396 -110 -242 -231 0
-1396 125 126 0
-1396 -125 -240 1613 778 0
-1396 -125 -241 1613 784 0
-1396 -125 -242 1613 790 0
-1396 -126 -240 1613 778 0
-1396 -126 -241 1613 784 0
-1396 -126 -242 1613 790 0
-1396 -240 -802 0
-1396 -240 -826 0
-1396 -240 -850 0
-1396 -240 -808 0
-1396 -240 -832 0
-1396 -240 -856 0
-1396 -240 -814 0
-1396 -240 -838 0
-1396 -240 -862 0
-1396 -241 -808 0
-1396 -241 -832 0
-1396 -241 -856 0
-1396 -241 -814 0
-1396 -241 -838 0
-1396 -241 -862 0
-1396 -242 -814 0
-1396 -242 -838 0
-1396 -242 -862 0
-1396 -243 0
-1396 131 0
-1396 -240 245 0
-1396 -241 246 0
-1396 -242 247 0
-1396 -287 0
-1397 280 0
-1397 -111 -240 -229 0
-1397 -111 -241 -230 0
-1397 -111 -242 -231 0
-1397 126 0
-1397 -126 -240 1614 779 0
-1397 -126 -241 1614 785 0
-1397 -126 -242 1614 791 0
-1397 -240 -803 0
-1397 -240 -827 0
-1397 -240 -851 0
-1397 -240 -809 0
-1397 -240 -833 0
-1397 -240 -857 0
-1397 -240 -815 0
-1397 -240 -839 0
-1397 -240 -863 0
-1397 -241 -809 0
-1397 -241 -833 0
-1397 -241 -857 0
-1397 -241 -815 0
-1397 -241 -839 0
-1397 -241 -863 0
-1397 -242 -815 0
-1397 -242 -839 0
-1397 -242 -863 0
-1397 -243 0
-1397 132 0
-1397 -240 245 0
-1397 -241 246 0
-1397 -242 247 0
-1397 -287 0
-1398 280 0
-1398 -106 -228 0
-1398 -792 0
-1398 -816 0
-1398 -840 0
-1398 -798 0
-1398 -822 0
-1398 -846 0
-1398 -804 0
-1398 -828 0
-1398 -852 0
-1398 -810 0
-1398 -834 0
-1398 -858 0
-1398 127 0
-1398 244 0
-1399 280 0
-1399 -107 -228 0
-1399 -793 0
-1399 -817 0
-1399 -841 0
-1399 -799 0
-1399 -823 0
-1399 -847 0
-1399 -805 0
-1399 -829 0
-1399 -853 0
-1399 -811 0
-1399 -835 0
-1399 -859 0
-1399 128 0
-1399 244 0
-1400 280 0
-1400 -108 -228 0
-1400 -794 0
-1400 -818 0
-1400 -842 0
-1400 -800 0
-1400 -824 0
-1400 -848 0
-1400 -806 0
-1400 -830 0
-1400 -854 0
-1400 -812 0
-1400 -836 0
-1400 -860 0
-1400 129 0
-1400 244 0
-1401 280 0
-1401 -109 -228 0
-1401 -795 0
-1401 -819 0
-1401 -843 0
-1401 -801 0
-1401 -825 0
-1401 -849 0
-1401 -807 0
-1401 -831 0
-1401 -855 0
-1401 -813 0
-1401 -837 0
-1401 -861 0
-1401 130 0
-1401 244 0
-1402 280 0
-1402 -110 -228 0
-1402 -796 0
-1402 -820 0
-1402 -844 0
-1402 -802 0
-1402 -826 0
-1402 -850 0
-1402 -808 0
-1402 -832 0
-1402 -856 0
-1402 -814 0
-1402 -838 0
-1402 -862 0
-1402 131 0
-1402 244 0
-1403 280 0
-1403 -111 -228 0
-1403 -797 0
-1403 -821 0
-1403 -845 0
-1403 -803 0
-1403 -827 0
-1403 -851 0
-1403 -809 0
-1403 -833 0
-1403 -857 0
-1403 -815 0
-1403 -839 0
-1403 -863 0
-1403 132 0
-1403 244 0
-1404 281 0
-1404 -112 -228 -233 0
-1404 -112 -229 -234 0
-1404 -112 -230 -235 0
-1404 106 0
-1404 -106 -228 1591 798 0
-1404 -106 -229 1591 804 0
-1404 -106 -230 1591 810 0
-1404 -228 -774 0
-1404 -228 -822 0
-1404 -228 -846 0
-1404 -228 -780 0
-1404 -228 -828 0
-1404 -228 -852 0
-1404 -228 -786 0
-1404 -228 -834 0
-1404 -228 -858 0
-1404 -229 -780 0
-1404 -229 -828 0
-1404 -229 -852 0
-1404 -229 -786 0
-1404 -229 -834 0
-1404 -229 -858 0
-1404 -230 -786 0
-1404 -230 -834 0
-1404 -230 -858 0
-1404 -231 0
-1404 133 0
-1404 -228 249 0
-1404 -229 250 0
-1404 -230 251 0
-1404 -284 0
-1405 281 0
-1405 -113 -228 -233 0
-1405 -113 -229 -234 0
-1405 -113 -230 -235 0
-1405 107 0
-1405 -107 -228 1592 799 0
-1405 -107 -229 1592 805 0
-1405 -107 -230 1592 811 0
-1405 -228 -775 0
-1405 -228 -823 0
-1405 -228 -847 0
-1405 -228 -781 0
-1405 -228 -829 0
-1405 -228 -853 0
-1405 -228 -787 0
-1405 -228 -835 0
-1405 -228 -859 0
-1405 -229 -781 0
-1405 -229 -829 0
-1405 -229 -853 0
-1405 -229 -787 0
-1405 -229 -835 0
-1405 -229 -859 0
-1405 -230 -787 0
-1405 -230 -835 0
-1405 -230 -859 0
-1405 -231 0
-1405 134 0
-1405 -228 249 0
-1405 -229 250 0
-1405 -230 251 0
-1405 -284 0
-1406 281 0
-1406 -114 -228 -233 0
-1406 -114 -229 -234 0
-1406 -114 -230 -235 0
-1406 108 0
-1406 -108 -228 1593 800 0
-1406 -108 -229 1593 806 0
-1406 -108 -230 1593 812 0
-1406 -228 -776 0
-1406 -228 -824 0
-1406 -228 -848 0
-1406 -228 -782 0
-1406 -228 -830 0
-1406 -228 -854 0
-1406 -228 -788 0
-1406 -228 -836 0
-1406 -228 -860 0
-1406 -229 -782 0
-1406 -229 -830 0
-1406 -229 -854 0
-1406 -229 -788 0
-1406 -229 -836 0
-1406 -229 -860 0
-1406 -230 -788 0
-1406 -230 -836 0
-1406 -230 -860 0
-1406 -231 0
-1406 135 0
-1406 -228 249 0
-1406 -229 250 0
-1406 -230 251 0
-1406 -284 0
-1407 281 0
-1407 -115 -228 -233 0
-1407 -115 -229 -234 0
-1407 -115 -230 -235 0
-1407 109 0
-1407 -109 -228 1594 801 0
-1407 -109 -229 1594 807 0
-1407 -109 -230 1594 813 0
-1407 -228 -777 0
-1407 -228 -825 0
-1407 -228 -849 0
-1407 -228 -783 0
-1407 -228 -831 0
-1407 -228 -855 0
-1407 -228 -789 0
-1407 -228 -837 0
-1407 -228 -861 0
-1407 -229 -783 0
-1407 -229 -831 0
-1407 -229 -855 0
-1407 -229 -789 0
-1407 -229 -837 0
-1407 -229 -861 0
-1407 -230 -789 0
-1407 -230 -837 0
-1407 -230 -861 0
-1407 -231 0
-1407 136 0
-1407 -228 249 0
-1407 -229 250 0
-1407 -230 251 0
-1407 -284 0
-1408 281 0
-1408 -116 -228 -233 0
-1408 -116 -229 -234 0
-1408 -116 -230 -235 0
-1408 110 0
-1408 -110 -228 1595 802 0
-1408 -110 -229 1595 808 0
-1408 -110 -230 1595 814 0
-1408 -228 -778 0
-1408 -228 -826 0
-1408 -228 -850 0
-1408 -228 -784 0
-1408 -228 -832 0
-1408 -228 -856 0
-1408 -228 -790 0
-1408 -228 -838 0
-1408 -228 -862 0
-1408 -229 -784 0
-1408 -229 -832 0
-1408 -229 -856 0
-1408 -229 -790 0
-1408 -229 -838 0
-1408 -229 -862 0
-1408 -230 -790 0
-1408 -230 -838 0
-1408 -230 -862 0
-1408 -231 0
-1408 137 0
-1408 -228 249 0
-1408 -229 250 0
-1408 -230 251 0
-1408 -284 0
-1409 281 0
-1409 -117 -228 -233 0
-1409 -117 -229 -234 0
-1409 -117 -230 -235 0
-1409 111 0
-1409 -111 -228 1596 803 0
-1409 -111 -229 1596 809 0
-1409 -111 -230 1596 815 0
-1409 -228 -779 0
-1409 -228 -827 0
-1409 -228 -851 0
-1409 -228 -785 0
-1409 -228 -833 0
-1409 -228 -857 0
-1409 -228 -791 0
-1409 -228 -839 0
-1409 -228 -863 0
-1409 -229 -785 0
-1409 -229 -833 0
-1409 -229 -857 0
-1409 -229 -791 0
-1409 -229 -839 0
-1409 -229 -863 0
-1409 -230 -791 0
-1409 -230 -839 0
-1409 -230 -863 0
-1409 -231 0
-1409 138 0
-1409 -228 249 0
-1409 -229 250 0
-1409 -230 251 0
-1409 -284 0
-1410 281 0
-1410 -112 -236 -233 0
-1410 -112 -237 -234 0
-1410 -112 -238 -235 0
-1410 118 0
-1410 -118 -236 1603 798 0
-1410 -118 -237 1603 804 0
-1410 -118 -238 1603 810 0
-1410 -236 -774 0
-1410 -236 -822 0
-1410 -236 -846 0
-1410 -236 -780 0
-1410 -236 -828 0
-1410 -236 -852 0
-1410 -236 -786 0
-1410 -236 -834 0
-1410 -236 -858 0
-1410 -237 -780 0
-1410 -237 -828 0
-1410 -237 -852 0
-1410 -237 -786 0
-1410 -237 -834 0
-1410 -237 -858 0
-1410 -238 -786 0
-1410 -238 -834 0
-1410 -238 -858 0
-1410 -239 0
-1410 133 0
-1410 -236 249 0
-1410 -237 250 0
-1410 -238 251 0
-1410 -286 0
-1411 281 0
-1411 -113 -236 -233 0
-1411 -113 -237 -234 0
-1411 -113 -238 -235 0
-1411 118 119 0
-1411 -118 -236 1604 799 0
-1411 -118 -237 1604 805 0
-1411 -118 -238 1604 811 0
-1411 -119 -236 1604 799 0
-1411 -119 -237 1604 805 0
-1411 -119 -238 1604 811 0
-1411 -236 -775 0
-1411 -236 -823 0
-1411 -236 -847 0
-1411 -236 -781 0
-1411 -236 -829 0
-1411 -236 -853 0
-1411 -236 -787 0
-1411 -236 -835 0
-1411 -236 -859 0
-1411 -237 -781 0
-1411 -237 -829 0
-1411 -237 -853 0
-1411 -237 -787 0
-1411 -237 -835 0
-1411 -237 -859 0
-1411 -238 -787 0
-1411 -238 -835 0
-1411 -238 -859 0
-1411 -239 0
-1411 134 0
-1411 -236 249 0
-1411 -237 250 0
-1411 -238 251 0
-1411 -286 0
-1412 281 0
-1412 -114 -236 -233 0
-1412 -114 -237 -234 0
-1412 -114 -238 -235 0
-1412 119 120 0
-1412 -119 -236 1605 800 0
-1412 -119 -237 1605 806 0
-1412 -119 -238 1605 812 0
-1412 -120 -236 1605 800 0
-1412 -120 -237 1605 806 0
-1412 -120 -238 1605 812 0
-1412 -236 -776 0
-1412 -236 -824 0
-1412 -236 -848 0
-1412 -236 -782 0
-1412 -236 -830 0
-1412 -236 -854 0
-1412 -236 -788 0
-1412 -236 -836 0
-1412 -236 -860 0
-1412 -237 -782 0
-1412 -237 -830 0
-1412 -237 -854 0
-1412 -237 -788 0
-1412 -237 -836 0
-1412 -237 -860 0
-1412 -238 -788 0
-1412 -238 -836 0
-1412 -238 -860 0
-1412 -239 0
-1412 135 0
-1412 -236 249 0
-1412 -237 250 0
-1412 -238 251 0
-1412 -286 0
-1413 281 0
-1413 -115 -236 -233 0
-1413 -115 -237 -234 0
-1413 -115 -238 -235 0
-1413 120 121 0
-1413 -120 -236 1606 801 0
-1413 -120 -237 1606 807 0
-1413 -120 -238 1606 813 0
-1413 -121 -236 1606 801 0
-1413 -121 -237 1606 807 0
-1413 -121 -238 1606 813 0
-1413 -236 -777 0
-1413 -236 -825 0
-1413 -236 -849 0
-1413 -236 -783 0
-1413 -236 -831 0
-1413 -236 -855 0
-1413 -236 -789 0
-1413 -236 -837 0
-1413 -236 -861 0
-1413 -237 -783 0
-1413 -237 -831 0
-1413 -237 -855 0
-1413 -237 -789 0
-1413 -237 -837 0
-1413 -237 -861 0
-1413 -238 -789 0
-1413 -238 -837 0
-1413 -238 -861 0
-1413 -239 0
-1413 136 0
-1413 -236 249 0
-1413 -237 250 0
-1413 -238 251 0
-1413 -286 0
-1414 281 0
-1414 -116 -236 -233 0
-1414 -116 -237 -234 0
-1414 -116 -238 -235 0
-1414 121 122 0
-1414 -121 -236 1607 802 0
-1414 -121 -237 1607 808 0
-1414 -121 -238 1607 814 0
-1414 -122 -236 1607 802 0
-1414 -122 -237 1607 808 0
-1414 -122 -238 1607 814 0
-1414 -236 -778 0
-1414 -236 -826 0
-1414 -236 -850 0
-1414 -236 -784 0
-1414 -236 -832 0
-1414 -236 -856 0
-1414 -236 -790 0
-1414 -236 -838 0
-1414 -236 -862 0
-1414 -237 -784 0
-1414 -237 -832 0
-1414 -237 -856 0
-1414 -237 -790 0
-1414 -237 -838 0
-1414 -237 -862 0
-1414 -238 -790 0
-1414 -238 -838 0
-1414 -238 -862 0
-1414 -239 0
-1414 137 0
-1414 -236 249 0
-1414 -237 250 0
-1414 -238 251 0
-1414 -286 0
-1415 281 0
-1415 -117 -236 -233 0
-1415 -117 -237 -234 0
-1415 -117 -238 -235 0
-1415 122 0
-1415 -122 -236 1608 803 0
-1415 -122 -237 1608 809 0
-1415 -122 -238 1608 815 0
-1415 -236 -779 0
-1415 -236 -827 0
-1415 -236 -851 0
-1415 -236 -785 0
-1415 -236 -833 0
-1415 -236 -857 0
-1415 -236 -791 0
-1415 -236 -839 0
-1415 -236 -863 0
-1415 -237 -785 0
-1415 -237 -833 0
-1415 -237 -857 0
-1415 -237 -791 0
-1415 -237 -839 0
-1415 -237 -863 0
-1415 -238 -791 0
-1415 -238 -839 0
-1415 -238 -863 0
-1415 -239 0
-1415 138 0
-1415 -236 249 0
-1415 -237 250 0
-1415 -238 251 0
-1415 -286 0
-1416 281 0
-1416 -112 -240 -233 0
-1416 -112 -241 -234 0
-1416 -112 -242 -235 0
-1416 123 0
-1416 -123 -240 1609 798 0
-1416 -123 -241 1609 804 0
-1416 -123 -242 1609 810 0
-1416 -240 -774 0
-1416 -240 -822 0
-1416 -240 -846 0
-1416 -240 -780 0
-1416 -240 -828 0
-1416 -240 -852 0
-1416 -240 -786 0
-1416 -240 -834 0
-1416 -240 -858 0
-1416 -241 -780 0
-1416 -241 -828 0
-1416 -241 -852 0
-1416 -241 -786 0
-1416 -241 -834 0
-1416 -241 -858 0
-1416 -242 -786 0
-1416 -242 -834 0
-1416 -242 -858 0
-1416 -243 0
-1416 133 0
-1416 -240 249 0
-1416 -241 250 0
-1416 -242 251 0
-1416 -287 0
-1417 281 0
-1417 -113 -240 -233 0
-1417 -113 -241 -234 0
-1417 -113 -242 -235 0
-1417 123 124 0
-1417 -123 -240 1610 799 0
-1417 -123 -241 1610 805 0
-1417 -123 -242 1610 811 0
-1417 -124 -240 1610 799 0
-1417 -124 -241 1610 805 0
-1417 -124 -242 1610 811 0
-1417 -240 -775 0
-1417 -240 -823 0
-1417 -240 -847 0
-1417 -240 -781 0
-1417 -240 -829 0
-1417 -240 -853 0
-1417 -240 -787 0
-1417 -240 -835 0
-1417 -240 -859 0
-1417 -241 -781 0
-1417 -241 -829 0
-1417 -241 -853 0
-1417 -241 -787 0
-1417 -241 -835 0
-1417 -241 -859 0
-1417 -242 -787 0
-1417 -242 -835 0
-1417 -242 -859 0
-1417 -243 0
-1417 134 0
-1417 -240 249 0
-1417 -241 250 0
-1417 -242 251 0
-1417 -287 0
-1418 281 0
-1418 -114 -240 -233 0
-1418 -114 -241 -234 0
-1418 -114 -242 -235 0
-1418 123 124 125 0
-1418 -123 -240 1611 800 0
-1418 -123 -241 1611 806 0
-1418 -123 -242 1611 812 0
-1418 -124 -240 1611 800 0
-1418 -124 -241 1611 806 0
-1418 -124 -242 1611 812 0
-1418 -125 -240 1611 800 0
-1418 -125 -241 1611 806 0
-1418 -125 -242 1611 812 0
-1418 -240 -776 0
-1418 -240 -824 0
-1418 -240 -848 0
-1418 -240 -782 0
-1418 -240 -830 0
-1418 -240 -854 0
-1418 -240 -788 0
-1418 -240 -836 0
-1418 -240 -860 0
-1418 -241 -782 0
-1418 -241 -830 0
-1418 -241 -854 0
-1418 -241 -788 0
-1418 -241 -836 0
-1418 -241 -860 0
-1418 -242 -788 0
-1418 -242 -836 0
-1418 -242 -860 0
-1418 -243 0
-1418 135 0
-1418 -240 249 0
-1418 -241 250 0
-1418 -242 251 0
-1418 -287 0
-1419 281 0
-1419 -115 -240 -233 0
-1419 -115 -241 -234 0
-1419 -115 -242 -235 0
-1419 124 125 126 0
-1419 -124 -240 1612 801 0
-1419 -124 -241 1612 807 0
-1419 -124 -242 1612 813 0
-1419 -125 -240 1612 801 0
-1419 -125 -241 1612 807 0
-1419 -125 -242 1612 813 0
-1419 -126 -240 1612 801 0
-1419 -126 -241 1612 807 0
-1419 -126 -242 1612 813 0
-1419 -240 -777 0
-1419 -240 -825 0
-1419 -240 -849 0
-1419 -240 -783 0
-1419 -240 -831 0
-1419 -240 -855 0
-1419 -240 -789 0
-1419 -240 -837 0
-1419 -240 -861 0
-1419 -241 -783 0
-1419 -241 -831 0
-1419 -241 -855 0
-1419 -241 -789 0
-1419 -241 -837 0
-1419 -241 -861 0
-1419 -242 -789 0
-1419 -242 -837 0
-1419 -242 -861 0
-1419 -243 0
-1419 136 0
-1419 -240 249 0
-1419 -241 250 0
-1419 -242 251 0
-1419 -287 0
-1420 281 0
-1420 -116 -240 -233 0
-1420 -116 -241 -234 0
-1420 -116 -242 -235 0
-1420 125 126 0
-1420 -125 -240 1613 802 0
-1420 -125 -241 1613 808 0
-1420 -125 -242 1613 814 0
-1420 -126 -240 1613 802 0
-1420 -126 -241 1613 808 0
-1420 -126 -242 1613 814 0
-1420 -240 -778 0
-1420 -240 -826 0
-1420 -240 -850 0
-1420 -240 -784 0
-1420 -240 -832 0
-1420 -240 -856 0
-1420 -240 -790 0
-1420 -240 -838 0
-1420 -240 -862 0
-1420 -241 -784 0
-1420 -241 -832 0
-1420 -241 -856 0
-1420 -241 -790 0
-1420 -241 -838 0
-1420 -241 -862 0
-1420 -242 -790 0
-1420 -242 -838 0
-1420 -242 -862 0
-1420 -243 0
-1420 137 0
-1420 -240 249 0
-1420 -241 250 0
-1420 -242 251 0
-1420 -287 0
-1421 281 0
-1421 -117 -240 -233 0
-1421 -117 -241 -234 0
-1421 -117 -242 -235 0
-1421 126 0
-1421 -126 -240 1614 803 0
-1421 -126 -241 1614 809 0
-1421 -126 -242 1614 815 0
-1421 -240 -779 0
-1421 -240 -827 0
-1421 -240 -851 0
-1421 -240 -785 0
-1421 -240 -833 0
-1421 -240 -857 0
-1421 -240 -791 0
-1421 -240 -839 0
-1421 -240 -863 0
-1421 -241 -785 0
-1421 -241 -833 0
-1421 -241 -857 0
-1421 -241 -791 0
-1421 -241 -839 0
-1421 -241 -863 0
-1421 -242 -791 0
-1421 -242 -839 0
-1421 -242 -863 0
-1421 -243 0
-1421 138 0
-1421 -240 249 0
-1421 -241 250 0
-1421 -242 251 0
-1421 -287 0
-1422 281 0
-1422 -112 -232 0
-1422 -768 0
-1422 -816 0
-1422 -840 0
-1422 -774 0
-1422 -822 0
-1422 -846 0
-1422 -780 0
-1422 -828 0
-1422 -852 0
-1422 -786 0
-1422 -834 0
-1422 -858 0
-1422 133 0
-1422 248 0
-1423 281 0
-1423 -113 -232 0
-1423 -769 0
-1423 -817 0
-1423 -841 0
-1423 -775 0
-1423 -823 0
-1423 -847 0
-1423 -781 0
-1423 -829 0
-1423 -853 0
-1423 -787 0
-1423 -835 0
-1423 -859 0
-1423 134 0
-1423 248 0
-1424 281 0
-1424 -114 -232 0
-1424 -770 0
-1424 -818 0
-1424 -842 0
-1424 -776 0
-1424 -824 0
-1424 -848 0
-1424 -782 0
-1424 -830 0
-1424 -854 0
-1424 -788 0
-1424 -836 0
-1424 -860 0
-1424 135 0
-1424 248 0
-1425 281 0
-1425 -115 -232 0
-1425 -771 0
-1425 -819 0
-1425 -843 0
-1425 -777 0
-1425 -825 0
-1425 -849 0
-1425 -783 0
-1425 -831 0
-1425 -855 0
-1425 -789 0
-1425 -837 0
-1425 -861 0
-1425 136 0
-1425 248 0
-1426 281 0
-1426 -116 -232 0
-1426 -772 0
-1426 -820 0
-1426 -844 0
-1426 -778 0
-1426 -826 0
-1426 -850 0
-1426 -784 0
-1426 -832 0
-1426 -856 0
-1426 -790 0
-1426 -838 0
-1426 -862 0
-1426 137 0
-1426 248 0
-1427 281 0
-1427 -117 -232 0
-1427 -773 0
-1427 -821 0
-1427 -845 0
-1427 -779 0
-1427 -827 0
-1427 -851 0
-1427 -785 0
-1427 -833 0
-1427 -857 0
-1427 -791 0
-1427 -839 0
-1427 -863 0
-1427 138 0
-1427 248 0
-1428 282 0
-1428 -118 -228 -237 0
-1428 -118 -229 -238 0
-1428 -118 -230 -239 0
-1428 106 107 0
-1428 -106 -228 1591 822 0
-1428 -106 -229 1591 828 0
-1428 -106 -230 1591 834 0
-1428 -107 -228 1592 823 0
-1428 -107 -229 1592 829 0
-1428 -107 -230 1592 835 0
-1428 -228 -774 0
-1428 -228 -798 0
-1428 -228 -846 0
-1428 -228 -780 0
-1428 -228 -804 0
-1428 -228 -852 0
-1428 -228 -786 0
-1428 -228 -810 0
-1428 -228 -858 0
-1428 -228 -775 0
-1428 -228 -799 0
-1428 -228 -847 0
-1428 -228 -781 0
-1428 -228 -805 0
-1428 -228 -853 0
-1428 -228 -787 0
-1428 -228 -811 0
-1428 -228 -859 0
-1428 -229 -780 0
-1428 -229 -804 0
-1428 -229 -852 0
-1428 -229 -786 0
-1428 -229 -810 0
-1428 -229 -858 0
-1428 -229 -781 0
-1428 -229 -805 0
-1428 -229 -853 0
-1428 -229 -787 0
-1428 -229 -811 0
-1428 -229 -859 0
-1428 -230 -786 0
-1428 -230 -810 0
-1428 -230 -858 0
-1428 -230 -787 0
-1428 -230 -811 0
-1428 -230 -859 0
-1428 -231 0
-1428 139 0
-1428 -228 253 0
-1428 -229 254 0
-1428 -230 255 0
-1428 -284 0
-1429 282 0
-1429 -119 -228 -237 0
-1429 -119 -229 -238 0
-1429 -119 -230 -239 0
-1429 107 108 0
-1429 -107 -228 1592 823 0
-1429 -107 -229 1592 829 0
-1429 -107 -230 1592 835 0
-1429 -108 -228 1593 824 0
-1429 -108 -229 1593 830 0
-1429 -108 -230 1593 836 0
-1429 -228 -775 0
-1429 -228 -799 0
-1429 -228 -847 0
-1429 -228 -781 0
-1429 -228 -805 0
-1429 -228 -853 0
-1429 -228 -787 0
-1429 -228 -811 0
-1429 -228 -859 0
-1429 -228 -776 0
-1429 -228 -800 0
-1429 -228 -848 0
-1429 -228 -782 0
-1429 -228 -806 0
-1429 -228 -854 0
-1429 -228 -788 0
-1429 -228 -812 0
-1429 -228 -860 0
-1429 -229 -781 0
-1429 -229 -805 0
-1429 -229 -853 0
-1429 -229 -787 0
-1429 -229 -811 0
-1429 -229 -859 0
-1429 -229 -782 0
-1429 -229 -806 0
-1429 -229 -854 0
-1429 -229 -788 0
-1429 -229 -812 0
-1429 -229 -860 0
-1429 -230 -787 0
-1429 -230 -811 0
-1429 -230 -859 0
-1429 -230 -788 0
-1429 -230 -812 0
-1429 -230 -860 0
-1429 -231 0
-1429 140 0
-1429 -228 253 0
-1429 -229 254 0
-1429 -230 255 0
-1429 -284 0
-1430 282 0
-1430 -120 -228 -237 0
-1430 -120 -229 -238 0
-1430 -120 -230 -239 0
-1430 108 109 0
-1430 -108 -228 1593 824 0
-1430 -108 -229 1593 830 0
-1430 -108 -230 1593 836 0
-1430 -109 -228 1594 825 0
-1430 -109 -229 1594 831 0
-1430 -109 -230 1594 837 0
-1430 -228 -776 0
-1430 -228 -800 0
-1430 -228 -848 0
-1430 -228 -782 0
-1430 -228 -806 0
-1430 -228 -854 0
-1430 -228 -788 0
-1430 -228 -812 0
-1430 -228 -860 0
-1430 -228 -777 0
-1430 -228 -801 0
-1430 -228 -849 0
-1430 -228 -783 0
-1430 -228 -807 0
-1430 -228 -855 0
-1430 -228 -789 0
-1430 -228 -813 0
-1430 -228 -861 0
-1430 -229 -782 0
-1430 -229 -806 0
-1430 -229 -854 0
-1430 -229 -788 0
-1430 -229 -812 0
-1430 -229 -860 0
-1430 -229 -783 0
-1430 -229 -807 0
-1430 -229 -855 0
-1430 -229 -789 0
-1430 -229 -813 0
-1430 -229 -861 0
-1430 -230 -788 0
-1430 -230 -812 0
-1430 -230 -860 0
-1430 -230 -789 0
-1430 -230 -813 0
-1430 -230 -861 0
-1430 -231 0
-1430 141 0
-1430 -228 253 0
-1430 -229 254 0
-1430 -230 255 0
-1430 -284 0
-1431 282 0
-1431 -121 -228 -237 0
-1431 -121 -229 -238 0
-1431 -121 -230 -239 0
-1431 109 110 0
-1431 -109 -228 1594 825 0
-1431 -109 -229 1594 831 0
-1431 -109 -230 1594 837 0
-1431 -110 -228 1595 826 0
-1431 -110 -229 1595 832 0
-1431 -110 -230 1595 838 0
-1431 -228 -777 0
-1431 -228 -801 0
-1431 -228 -849 0
-1431 -228 -783 0
-1431 -228 -807 0
-1431 -228 -855 0
-1431 -228 -789 0
-1431 -228 -813 0
-1431 -228 -861 0
-1431 -228 -778 0
-1431 -228 -802 0
-1431 -228 -850 0
-1431 -228 -784 0
-1431 -228 -808 0
-1431 -228 -856 0
-1431 -228 -790 0
-1431 -228 -814 0
-1431 -228 -862 0
-1431 -229 -783 0
-1431 -229 -807 0
-1431 -229 -855 0
-1431 -229 -789 0
-1431 -229 -813 0
-1431 -229 -861 0
-1431 -229 -784 0
-1431 -229 -808 0
-1431 -229 -856 0
-1431 -229 -790 0
-1431 -229 -814 0
-1431 -229 -862 0
-1431 -230 -789 0
-1431 -230 -813 0
-1431 -230 -861 0
-1431 -230 -790 0
-1431 -230 -814 0
-1431 -230 -862 0
-1431 -231 0
-1431 142 0
-1431 -228 253 0
-1431 -229 254 0
-1431 -230 255 0
-1431 -284 0
-1432 282 0
-1432 -122 -228 -237 0
-1432 -122 -229 -238 0
-1432 -122 -230 -239 0
-1432 110 111 0
-1432 -110 -228 1595 826 0
-1432 -110 -229 1595 832 0
-1432 -110 -230 1595 838 0
-1432 -111 -228 1596 827 0
-1432 -111 -229 1596 833 0
-1432 -111 -230 1596 839 0
-1432 -228 -778 0
-1432 -228 -802 0
-1432 -228 -850 0
-1432 -228 -784 0
-1432 -228 -808 0
-1432 -228 -856 0
-1432 -228 -790 0
-1432 -228 -814 0
-1432 -228 -862 0
-1432 -228 -779 0
-1432 -228 -803 0
-1432 -228 -851 0
-1432 -228 -785 0
-1432 -228 -809 0
-1432 -228 -857 0
-1432 -228 -791 0
-1432 -228 -815 0
-1432 -228 -863 0
-1432 -229 -784 0
-1432 -229 -808 0
-1432 -229 -856 0
-1432 -229 -790 0
-1432 -229 -814 0
-1432 -229 -862 0
-1432 -229 -785 0
-1432 -229 -809 0
-1432 -229 -857 0
-1432 -229 -791 0
-1432 -229 -815 0
-1432 -229 -863 0
-1432 -230 -790 0
-1432 -230 -814 0
-1432 -230 -862 0
-1432 -230 -791 0
-1432 -230 -815 0
-1432 -230 -863 0
-1432 -231 0
-1432 143 0
-1432 -228 253 0
-1432 -229 254 0
-1432 -230 255 0
-1432 -284 0
-1433 282 0
-1433 -118 -232 -237 0
-1433 -118 -233 -238 0
-1433 -118 -234 -239 0
-1433 112 113 0
-1433 -112 -232 1597 822 0
-1433 -112 -233 1597 828 0
-1433 -112 -234 1597 834 0
-1433 -113 -232 1598 823 0
-1433 -113 -233 1598 829 0
-1433 -113 -234 1598 835 0
-1433 -232 -774 0
-1433 -232 -798 0
-1433 -232 -846 0
-1433 -232 -780 0
-1433 -232 -804 0
-1433 -232 -852 0
-1433 -232 -786 0
-1433 -232 -810 0
-1433 -232 -858 0
-1433 -232 -775 0
-1433 -232 -799 0
-1433 -232 -847 0
-1433 -232 -781 0
-1433 -232 -805 0
-1433 -232 -853 0
-1433 -232 -787 0
-1433 -232 -811 0
-1433 -232 -859 0
-1433 -233 -780 0
-1433 -233 -804 0
-1433 -233 -852 0
-1433 -233 -786 0
-1433 -233 -810 0
-1433 -233 -858 0
-1433 -233 -781 0
-1433 -233 -805 0
-1433 -233 -853 0
-1433 -233 -787 0
-1433 -233 -811 0
-1433 -233 -859 0
-1433 -234 -786 0
-1433 -234 -810 0
-1433 -234 -858 0
-1433 -234 -787 0
-1433 -234 -811 0
-1433 -234 -859 0
-1433 -235 0
-1433 139 0
-1433 -232 253 0
-1433 -233 254 0
-1433 -234 255 0
-1433 -285 0
-1434 282 0
-1434 -119 -232 -237 0
-1434 -119 -233 -238 0
-1434 -119 -234 -239 0
-1434 113 114 0
-1434 -113 -232 1598 823 0
-1434 -113 -233 1598 829 0
-1434 -113 -234 1598 835 0
-1434 -114 -232 1599 824 0
-1434 -114 -233 1599 830 0
-1434 -114 -234 1599 836 0
-1434 -232 -775 0
-1434 -232 -799 0
-1434 -232 -847 0
-1434 -232 -781 0
-1434 -232 -805 0
-1434 -232 -853 0
-1434 -232 -787 0
-1434 -232 -811 0
-1434 -232 -859 0
-1434 -232 -776 0
-1434 -232 -800 0
-1434 -232 -848 0
-1434 -232 -782 0
-1434 -232 -806 0
-1434 -232 -854 0
-1434 -232 -788 0
-1434 -232 -812 0
-1434 -232 -860 0
-1434 -233 -781 0
-1434 -233 -805 0
-1434 -233 -853 0
-1434 -233 -787 0
-1434 -233 -811 0
-1434 -233 -859 0
-1434 -233 -782 0
-1434 -233 -806 0
-1434 -233 -854 0
-1434 -233 -788 0
-1434 -233 -812 0
-1434 -233 -860 0
-1434 -234 -787 0
-1434 -234 -811 0
-1434 -234 -859 0
-1434 -234 -788 0
-1434 -234 -812 0
-1434 -234 -860 0
-1434 -235 0
-1434 140 0
-1434 -232 253 0
-1434 -233 254 0
-1434 -234 255 0
-1434 -285 0
-1435 282 0
-1435 -120 -232 -237 0
-1435 -120 -233 -238 0
-1435 -120 -234 -239 0
-1435 114 115 0
-1435 -114 -232 1599 824 0
-1435 -114 -233 1599 830 0
-1435 -114 -234 1599 836 0
-1435 -115 -232 1600 825 0
-1435 -115 -233 1600 831 0
-1435 -115 -234 1600 837 0
-1435 -232 -776 0
-1435 -232 -800 0
-1435 -232 -848 0
-1435 -232 -782 0
-1435 -232 -806 0
-1435 -232 -854 0
-1435 -232 -788 0
-1435 -232 -812 0
-1435 -232 -860 0
-1435 -232 -777 0
-1435 -232 -801 0
-1435 -232 -849 0
-1435 -232 -783 0
-1435 -232 -807 0
-1435 -232 -855 0
-1435 -232 -789 0
-1435 -232 -813 0
-1435 -232 -861 0
-1435 -233 -782 0
-1435 -233 -806 0
-1435 -233 -854 0
-1435 -233 -788 0
-1435 -233 -812 0
-1435 -233 -860 0
-1435 -233 -783 0
-1435 -233 -807 0
-1435 -233 -855 0
-1435 -233 -789 0
-1435 -233 -813 0
-1435 -233 -861 0
-1435 -234 -788 0
-1435 -234 -812 0
-1435 -234 -860 0
-1435 -234 -789 0
-1435 -234 -813 0
-1435 -234 -861 0
-1435 -235 0
-1435 141 0
-1435 -232 253 0
-1435 -233 254 0
-1435 -234 255 0
-1435 -285 0
-1436 282 0
-1436 -121 -232 -237 0
-1436 -121 -233 -238 0
-1436 -121 -234 -239 0
-1436 115 116 0
-1436 -115 -232 1600 825 0
-1436 -115 -233 1600 831 0
-1436 -115 -234 1600 837 0
-1436 -116 -232 1601 826 0
-1436 -116 -233 1601 832 0
-1436 -116 -234 1601 838 0
-1436 -232 -777 0
-1436 -232 -801 0
-1436 -232 -849 0
-1436 -232 -783 0
-1436 -232 -807 0
-1436 -232 -855 0
-1436 -232 -789 0
-1436 -232 -813 0
-1436 -232 -861 0
-1436 -232 -778 0
-1436 -232 -802 0
-1436 -232 -850 0
-1436 -232 -784 0
-1436 -232 -808 0
-1436 -232 -856 0
-1436 -232 -790 0
-1436 -232 -814 0
-1436 -232 -862 0
-1436 -233 -783 0
-1436 -233 -807 0
-1436 -233 -855 0
-1436 -233 -789 0
-1436 -233 -813 0
-1436 -233 -861 0
-1436 -233 -784 0
-1436 -233 -808 0
-1436 -233 -856 0
-1436 -233 -790 0
-1436 -233 -814 0
-1436 -233 -862 0
-1436 -234 -789 0
-1436 -234 -813 0
-1436 -234 -861 0
-1436 -234 -790 0
-1436 -234 -814 0
-1436 -234 -862 0
-1436 -235 0
-1436 142 0
-1436 -232 253 0
-1436 -233 254 0
-1436 -234 255 0
-1436 -285 0
-1437 282 0
-1437 -122 -232 -237 0
-1437 -122 -233 -238 0
-1437 -122 -234 -239 0
-1437 116 117 0
-1437 -116 -232 1601 826 0
-1437 -116 -233 1601 832 0
-1437 -116 -234 1601 838 0
-1437 -117 -232 1602 827 0
-1437 -117 -233 1602 833 0
-1437 -117 -234 1602 839 0
-1437 -232 -778 0
-1437 -232 -802 0
-1437 -232 -850 0
-1437 -232 -784 0
-1437 -232 -808 0
-1437 -232 -856 0
-1437 -232 -790 0
-1437 -232 -814 0
-1437 -232 -862 0
-1437 -232 -779 0
-1437 -232 -803 0
-1437 -232 -851 0
-1437 -232 -785 0
-1437 -232 -809 0
-1437 -232 -857 0
-1437 -232 -791 0
-1437 -232 -815 0
-1437 -232 -863 0
-1437 -233 -784 0
-1437 -233 -808 0
-1437 -233 -856 0
-1437 -233 -790 0
-1437 -233 -814 0
-1437 -233 -862 0
-1437 -233 -785 0
-1437 -233 -809 0
-1437 -233 -857 0
-1437 -233 -791 0
-1437 -233 -815 0
-1437 -233 -863 0
-1437 -234 -790 0
-1437 -234 -814 0
-1437 -234 -862 0
-1437 -234 -791 0
-1437 -234 -815 0
-1437 -234 -863 0
-1437 -235 0
-1437 143 0
-1437 -232 253 0
-1437 -233 254 0
-1437 -234 255 0
-1437 -285 0
-1438 282 0
-1438 -118 -240 -237 0
-1438 -118 -241 -238 0
-1438 -118 -242 -239 0
-1438 123 124 0
-1438 -123 -240 1609 822 0
-1438 -123 -241 1609 828 0
-1438 -123 -242 1609 834 0
-1438 -123 -240 1610 823 0
-1438 -123 -241 1610 829 0
-1438 -123 -242 1610 835 0
-1438 -124 -240 1610 823 0
-1438 -124 -241 1610 829 0
-1438 -124 -242 1610 835 0
-1438 -240 -774 0
-1438 -240 -798 0
-1438 -240 -846 0
-1438 -240 -780 0
-1438 -240 -804 0
-1438 -240 -852 0
-1438 -240 -786 0
-1438 -240 -810 0
-1438 -240 -858 0
-1438 -240 -775 0
-1438 -240 -799 0
-1438 -240 -847 0
-1438 -240 -781 0
-1438 -240 -805 0
-1438 -240 -853 0
-1438 -240 -787 0
-1438 -240 -811 0
-1438 -240 -859 0
-1438 -241 -780 0
-1438 -241 -804 0
-1438 -241 -852 0
-1438 -241 -786 0
-1438 -241 -810 0
-1438 -241 -858 0
-1438 -241 -781 0
-1438 -241 -805 0
-1438 -241 -853 0
-1438 -241 -787 0
-1438 -241 -811 0
-1438 -241 -859 0
-1438 -242 -786 0
-1438 -242 -810 0
-1438 -242 -858 0
-1438 -242 -787 0
-1438 -242 -811 0
-1438 -242 -859 0
-1438 -243 0
-1438 139 0
-1438 -240 253 0
-1438 -241 254 0
-1438 -242 255 0
-1438 -287 0
-1439 282 0
-1439 -119 -240 -237 0
-1439 -119 -241 -238 0
-1439 -119 -242 -239 0
-1439 123 124 125 0
-1439 -123 -240 1610 823 0
-1439 -123 -241 1610 829 0
-1439 -123 -242 1610 835 0
-1439 -123 -240 1611 824 0
-1439 -123 -241 1611 830 0
-1439 -123 -242 1611 836 0
-1439 -124 -240 1610 823 0
-1439 -124 -241 1610 829 0
-1439 -124 -242 1610 835 0
-1439 -124 -240 1611 824 0
-1439 -124 -241 1611 830 0
-1439 -124 -242 1611 836 0
-1439 -125 -240 1611 824 0
-1439 -125 -241 1611 830 0
-1439 -125 -242 1611 836 0
-1439 -240 -775 0
-1439 -240 -799 0
-1439 -240 -847 0
-1439 -240 -781 0
-1439 -240 -805 0
-1439 -240 -853 0
-1439 -240 -787 0
-1439 -240 -811 0
-1439 -240 -859 0
-1439 -240 -776 0
-1439 -240 -800 0
-1439 -240 -848 0
-1439 -240 -782 0
-1439 -240 -806 0
-1439 -240 -854 0
-1439 -240 -788 0
-1439 -240 -812 0
-1439 -240 -860 0
-1439 -241 -781 0
-1439 -241 -805 0
-1439 -241 -853 0
-1439 -241 -787 0
-1439 -241 -811 0
-1439 -241 -859 0
-1439 -241 -782 0
-1439 -241 -806 0
-1439 -241 -854 0
-1439 -241 -788 0
-1439 -241 -812 0
-1439 -241 -860 0
-1439 -242 -787 0
-1439 -242 -811 0
-1439 -242 -859 0
-1439 -242 -788 0
-1439 -242 -812 0
-1439 -242 -860 0
-1439 -243 0
-1439 140 0
-1439 -240 253 0
-1439 -241 254 0
-1439 -242 255 0
-1439 -287 0
-1440 282 0
-1440 -120 -240 -237 0
-1440 -120 -241 -238 0
-1440 -120 -242 -239 0
-1440 123 124 125 126 0
-1440 -123 -240 1611 824 0
-1440 -123 -241 1611 830 0
-1440 -123 -242 1611 836 0
-1440 -124 -240 1611 824 0
-1440 -124 -241 1611 830 0
-1440 -124 -242 1611 836 0
-1440 -124 -240 1612 825 0
-1440 -124 -241 1612 831 0
-1440 -124 -242 1612 837 0
-1440 -125 -240 1611 824 0
-1440 -125 -241 1611 830 0
-1440 -125 -242 1611 836 0
-1440 -125 -240 1612 825 0
-1440 -125 -241 1612 831 0
-1440 -125 -242 1612 837 0
-1440 -126 -240 1612 825 0
-1440 -126 -241 1612 831 0
-1440 -126 -242 1612 837 0
-1440 -240 -776 0
-1440 -240 -800 0
-1440 -240 -848 0
-1440 -240 -782 0
-1440 -240 -806 0
-1440 -240 -854 0
-1440 -240 -788 0
-1440 -240 -812 0
-1440 -240 -860 0
-1440 -240 -777 0
-1440 -240 -801 0
-1440 -240 -849 0
-1440 -240 -783 0
-1440 -240 -807 0
-1440 -240 -855 0
-1440 -240 -789 0
-1440 -240 -813 0
-1440 -240 -861 0
-1440 -241 -782 0
-1440 -241 -806 0
-1440 -241 -854 0
-1440 -241 -788 0
-1440 -241 -812 0
-1440 -241 -860 0
-1440 -241 -783 0
-1440 -241 -807 0
-1440 -241 -855 0
-1440 -241 -789 0
-1440 -241 -813 0
-1440 -241 -861 0
-1440 -242 -788 0
-1440 -242 -812 0
-1440 -242 -860 0
-1440 -242 -789 0
-1440 -242 -813 0
-1440 -242 -861 0
-1440 -243 0
-1440 141 0
-1440 -240 253 0
-1440 -241 254 0
-1440 -242 255 0
-1440 -287 0
-1441 282 0
-1441 -121 -240 -237 0
-1441 -121 -241 -238 0
-1441 -121 -242 -239 0
-1441 124 125 126 0
-1441 -124 -240 1612 825 0
-1441 -124 -241 1612 831 0
-1441 -124 -242 1612 837 0
-1441 -125 -240 1612 825 0
-1441 -125 -241 1612 831 0
-1441 -125 -242 1612 837 0
-1441 -125 -240 1613 826 0
-1441 -125 -241 1613 832 0
-1441 -125 -242 1613 838 0
-1441 -126 -240 1612 825 0
-1441 -126 -241 1612 831 0
-1441 -126 -242 1612 837 0
-1441 -126 -240 1613 826 0
-1441 -126 -241 1613 832 0
-1441 -126 -242 1613 838 0
-1441 -240 -777 0
-1441 -240 -801 0
-1441 -240 -849 0
-1441 -240 -783 0
-1441 -240 -807 0
-1441 -240 -855 0
-1441 -240 -789 0
-1441 -240 -813 0
-1441 -240 -861 0
-1441 -240 -778 0
-1441 -240 -802 0
-1441 -240 -850 0
-1441 -240 -784 0
-1441 -240 -808 0
-1441 -240 -856 0
-1441 -240 -790 0
-1441 -240 -814 0
-1441 -240 -862 0
-1441 -241 -783 0
-1441 -241 -807 0
-1441 -241 -855 0
-1441 -241 -789 0
-1441 -241 -813 0
-1441 -241 -861 0
-1441 -241 -784 0
-1441 -241 -808 0
-1441 -241 -856 0
-1441 -241 -790 0
-1441 -241 -814 0
-1441 -241 -862 0
-1441 -242 -789 0
-1441 -242 -813 0
-1441 -242 -861 0
-1441 -242 -790 0
-1441 -242 -814 0
-1441 -242 -862 0
-1441 -243 0
-1441 142 0
-1441 -240 253 0
-1441 -241 254 0
-1441 -242 255 0
-1441 -287 0
-1442 282 0
-1442 -122 -240 -237 0
-1442 -122 -241 -238 0
-1442 -122 -242 -239 0
-1442 125 126 0
-1442 -125 -240 1613 826 0
-1442 -125 -241 1613 832 0
-1442 -125 -242 1613 838 0
-1442 -126 -240 1613 826 0
-1442 -126 -241 1613 832 0
-1442 -126 -242 1613 838 0
-1442 -126 -240 1614 827 0
-1442 -126 -241 1614 833 0
-1442 -126 -242 1614 839 0
-1442 -240 -778 0
-1442 -240 -802 0
-1442 -240 -850 0
-1442 -240 -784 0
-1442 -240 -808 0
-1442 -240 -856 0
-1442 -240 -790 0
-1442 -240 -814 0
-1442 -240 -862 0
-1442 -240 -779 0
-1442 -240 -803 0
-1442 -240 -851 0
-1442 -240 -785 0
-1442 -240 -809 0
-1442 -240 -857 0
-1442 -240 -791 0
-1442 -240 -815 0
-1442 -240 -863 0
-1442 -241 -784 0
-1442 -241 -808 0
-1442 -241 -856 0
-1442 -241 -790 0
-1442 -241 -814 0
-1442 -241 -862 0
-1442 -241 -785 0
-1442 -241 -809 0
-1442 -241 -857 0
-1442 -241 -791 0
-1442 -241 -815 0
-1442 -241 -863 0
-1442 -242 -790 0
-1442 -242 -814 0
-1442 -242 -862 0
-1442 -242 -791 0
-1442 -242 -815 0
-1442 -242 -863 0
-1442 -243 0
-1442 143 0
-1442 -240 253 0
-1442 -241 254 0
-1442 -242 255 0
-1442 -287 0
-1443 282 0
-1443 -118 -236 0
-1443 -768 0
-1443 -792 0
-1443 -840 0
-1443 -774 0
-1443 -798 0
-1443 -846 0
-1443 -780 0
-1443 -804 0
-1443 -852 0
-1443 -786 0
-1443 -810 0
-1443 -858 0
-1443 -769 0
-1443 -793 0
-1443 -841 0
-1443 -775 0
-1443 -799 0
-1443 -847 0
-1443 -781 0
-1443 -805 0
-1443 -853 0
-1443 -787 0
-1443 -811 0
-1443 -859 0
-1443 139 0
-1443 252 0
-1444 282 0
-1444 -119 -236 0
-1444 -769 0
-1444 -793 0
-1444 -841 0
-1444 -775 0
-1444 -799 0
-1444 -847 0
-1444 -781 0
-1444 -805 0
-1444 -853 0
-1444 -787 0
-1444 -811 0
-1444 -859 0
-1444 -770 0
-1444 -794 0
-1444 -842 0
-1444 -776 0
-1444 -800 0
-1444 -848 0
-1444 -782 0
-1444 -806 0
-1444 -854 0
-1444 -788 0
-1444 -812 0
-1444 -860 0
-1444 140 0
-1444 252 0
-1445 282 0
-1445 -120 -236 0
-1445 -770 0
-1445 -794 0
-1445 -842 0
-1445 -776 0
-1445 -800 0
-1445 -848 0
-1445 -782 0
-1445 -806 0
-1445 -854 0
-1445 -788 0
-1445 -812 0
-1445 -860 0
-1445 -771 0
-1445 -795 0
-1445 -843 0
-1445 -777 0
-1445 -801 0
-1445 -849 0
-1445 -783 0
-1445 -807 0
-1445 -855 0
-1445 -789 0
-1445 -813 0
-1445 -861 0
-1445 141 0
-1445 252 0
-1446 282 0
-1446 -121 -236 0
-1446 -771 0
-1446 -795 0
-1446 -843 0
-1446 -777 0
-1446 -801 0
-1446 -849 0
-1446 -783 0
-1446 -807 0
-1446 -855 0
-1446 -789 0
-1446 -813 0
-1446 -861 0
-1446 -772 0
-1446 -796 0
-1446 -844 0
-1446 -778 0
-1446 -802 0
-1446 -850 0
-1446 -784 0
-1446 -808 0
-1446 -856 0
-1446 -790 0
-1446 -814 0
-1446 -862 0
-1446 142 0
-1446 252 0
-1447 282 0
-1447 -122 -236 0
-1447 -772 0
-1447 -796 0
-1447 -844 0
-1447 -778 0
-1447 -802 0
-1447 -850 0
-1447 -784 0
-1447 -808 0
-1447 -856 0
-1447 -790 0
-1447 -814 0
-1447 -862 0
-1447 -773 0
-1447 -797 0
-1447 -845 0
-1447 -779 0
-1447 -803 0
-1447 -851 0
-1447 -785 0
-1447 -809 0
-1447 -857 0
-1447 -791 0
-1447 -815 0
-1447 -863 0
-1447 143 0
-1447 252 0
-1448 283 0
-1448 -123 -228 -241 0
-1448 -123 -229 -242 0
-1448 -123 -230 -243 0
-1448 106 107 108 0
-1448 -106 -228 1591 846 0
-1448 -106 -229 1591 852 0
-1448 -106 -230 1591 858 0
-1448 -107 -228 1592 847 0
-1448 -107 -229 1592 853 0
-1448 -107 -230 1592 859 0
-1448 -108 -228 1593 848 0
-1448 -108 -229 1593 854 0
-1448 -108 -230 1593 860 0
-1448 -228 -774 0
-1448 -228 -798 0
-1448 -228 -822 0
-1448 -228 -780 0
-1448 -228 -804 0
-1448 -228 -828 0
-1448 -228 -786 0
-1448 -228 -810 0
-1448 -228 -834 0
-1448 -228 -775 0
-1448 -228 -799 0
-1448 -228 -823 0
-1448 -228 -781 0
-1448 -228 -805 0
-1448 -228 -829 0
-1448 -228 -787 0
-1448 -228 -811 0
-1448 -228 -835 0
-1448 -228 -776 0
-1448 -228 -800 0
-1448 -228 -824 0
-1448 -228 -782 0
-1448 -228 -806 0
-1448 -228 -830 0
-1448 -228 -788 0
-1448 -228 -812 0
-1448 -228 -836 0
-1448 -229 -780 0
-1448 -229 -804 0
-1448 -229 -828 0
-1448 -229 -786 0
-1448 -229 -810 0
-1448 -229 -834 0
-1448 -229 -781 0
-1448 -229 -805 0
-1448 -229 -829 0
-1448 -229 -787 0
-1448 -229 -811 0
-1448 -229 -835 0
-1448 -229 -782 0
-1448 -229 -806 0
-1448 -229 -830 0
-1448 -229 -788 0
-1448 -229 -812 0
-1448 -229 -836 0
-1448 -230 -786 0
-1448 -230 -810 0
-1448 -230 -834 0
-1448 -230 -787 0
-1448 -230 -811 0
-1448 -230 -835 0
-1448 -230 -788 0
-1448 -230 -812 0
-1448 -230 -836 0
-1448 -231 0
-1448 144 0
-1448 -228 257 0
-1448 -229 258 0
-1448 -230 259 0
-1448 -284 0
-1449 283 0
-1449 -124 -228 -241 0
-1449 -124 -229 -242 0
-1449 -124 -230 -243 0
-1449 107 108 109 0
-1449 -107 -228 1592 847 0
-1449 -107 -229 1592 853 0
-1449 -107 -230 1592 859 0
-1449 -108 -228 1593 848 0
-1449 -108 -229 1593 854 0
-1449 -108 -230 1593 860 0
-1449 -109 -228 1594 849 0
-1449 -109 -229 1594 855 0
-1449 -109 -230 1594 861 0
-1449 -228 -775 0
-1449 -228 -799 0
-1449 -228 -823 0
-1449 -228 -781 0
-1449 -228 -805 0
-1449 -228 -829 0
-1449 -228 -787 0
-1449 -228 -811 0
-1449 -228 -835 0
-1449 -228 -776 0
-1449 -228 -800 0
-1449 -228 -824 0
-1449 -228 -782 0
-1449 -228 -806 0
-1449 -228 -830 0
-1449 -228 -788 0
-1449 -228 -812 0
-1449 -228 -836 0
-1449 -228 -777 0
-1449 -228 -801 0
-1449 -228 -825 0
-1449 -228 -783 0
-1449 -228 -807 0
-1449 -228 -831 0
-1449 -228 -789 0
-1449 -228 -813 0
-1449 -228 -837 0
-1449 -229 -781 0
-1449 -229 -805 0
-1449 -229 -829 0
-1449 -229 -787 0
-1449 -229 -811 0
-1449 -229 -835 0
-1449 -229 -782 0
-1449 -229 -806 0
-1449 -229 -830 0
-1449 -229 -788 0
-1449 -229 -812 0
-1449 -229 -836 0
-1449 -229 -783 0
-1449 -229 -807 0
-1449 -229 -831 0
-1449 -229 -789 0
-1449 -229 -813 0
-1449 -229 -837 0
-1449 -230 -787 0
-1449 -230 -811 0
-1449 -230 -835 0
-1449 -230 -788 0
-1449 -230 -812 0
-1449 -230 -836 0
-1449 -230 -789 0
-1449 -230 -813 0
-1449 -230 -837 0
-1449 -231 0
-1449 145 0
-1449 -228 257 0
-1449 -229 258 0
-1449 -230 259 0
-1449 -284 0
-1450 283 0
-1450 -125 -228 -241 0
-1450 -125 -229 -242 0
-1450 -125 -230 -243 0
-1450 108 109 110 0
-1450 -108 -228 1593 848 0
-1450 -108 -229 1593 854 0
-1450 -108 -230 1593 860 0
-1450 -109 -228 1594 849 0
-1450 -109 -229 1594 855 0
-1450 -109 -230 1594 861 0
-1450 -110 -228 1595 850 0
-1450 -110 -229 1595 856 0
-1450 -110 -230 1595 862 0
-1450 -228 -776 0
-1450 -228 -800 0
-1450 -228 -824 0
-1450 -228 -782 0
-1450 -228 -806 0
-1450 -228 -830 0
-1450 -228 -788 0
-1450 -228 -812 0
-1450 -228 -836 0
-1450 -228 -777 0
-1450 -228 -801 0
-1450 -228 -825 0
-1450 -228 -783 0
-1450 -228 -807 0
-1450 -228 -831 0
-1450 -228 -789 0
-1450 -228 -813 0
-1450 -228 -837 0
-1450 -228 -778 0
-1450 -228 -802 0
-1450 -228 -826 0
-1450 -228 -784 0
-1450 -228 -808 0
-1450 -228 -832 0
-1450 -228 -790 0
-1450 -228 -814 0
-1450 -228 -838 0
-1450 -229 -782 0
-1450 -229 -806 0
-1450 -229 -830 0
-1450 -229 -788 0
-1450 -229 -812 0
-1450 -229 -836 0
-1450 -229 -783 0
-1450 -229 -807 0
-1450 -229 -831 0
-1450 -229 -789 0
-1450 -229 -813 0
-1450 -229 -837 0
-1450 -229 -784 0
-1450 -229 -808 0
-1450 -229 -832 0
-1450 -229 -790 0
-1450 -229 -814 0
-1450 -229 -838 0
-1450 -230 -788 0
-1450 -230 -812 0
-1450 -230 -836 0
-1450 -230 -789 0
-1450 -230 -813 0
-1450 -230 -837 0
-1450 -230 -790 0
-1450 -230 -814 0
-1450 -230 -838 0
-1450 -231 0
-1450 146 0
-1450 -228 257 0
-1450 -229 258 0
-1450 -230 259 0
-1450 -284 0
-1451 283 0
-1451 -126 -228 -241 0
-1451 -126 -229 -242 0
-1451 -126 -230 -243 0
-1451 109 110 111 0
-1451 -109 -228 1594 849 0
-1451 -109 -229 1594 855 0
-1451 -109 -230 1594 861 0
-1451 -110 -228 1595 850 0
-1451 -110 -229 1595 856 0
-1451 -110 -230 1595 862 0
-1451 -111 -228 1596 851 0
-1451 -111 -229 1596 857 0
-1451 -111 -230 1596 863 0
-1451 -228 -777 0
-1451 -228 -801 0
-1451 -228 -825 0
-1451 -228 -783 0
-1451 -228 -807 0
-1451 -228 -831 0
-1451 -228 -789 0
-1451 -228 -813 0
-1451 -228 -837 0
-1451 -228 -778 0
-1451 -228 -802 0
-1451 -228 -826 0
-1451 -228 -784 0
-1451 -228 -808 0
-1451 -228 -832 0
-1451 -228 -790 0
-1451 -228 -814 0
-1451 -228 -838 0
-1451 -228 -779 0
-1451 -228 -803 0
-1451 -228 -827 0
-1451 -228 -785 0
-1451 -228 -809 0
-1451 -228 -833 0
-1451 -228 -791 0
-1451 -228 -815 0
-1451 -228 -839 0
-1451 -229 -783 0
-1451 -229 -807 0
-1451 -229 -831 0
-1451 -229 -789 0
-1451 -229 -813 0
-1451 -229 -837 0
-1451 -229 -784 0
-1451 -229 -808 0
-1451 -229 -832 0
-1451 -229 -790 0
-1451 -229 -814 0
-1451 -229 -838 0
-1451 -229 -785 0
-1451 -229 -809 0
-1451 -229 -833 0
-1451 -229 -791 0
-1451 -229 -815 0
-1451 -229 -839 0
-1451 -230 -789 0
-1451 -230 -813 0
-1451 -230 -837 0
-1451 -230 -790 0
-1451 -230 -814 0
-1451 -230 -838 0
-1451 -230 -791 0
-1451 -230 -815 0
-1451 -230 -839 0
-1451 -231 0
-1451 147 0
-1451 -228 257 0
-1451 -229 258 0
-1451 -230 259 0
-1451 -284 0
-1452 283 0
-1452 -123 -232 -241 0
-1452 -123 -233 -242 0
-1452 -123 -234 -243 0
-1452 112 113 114 0
-1452 -112 -232 1597 846 0
-1452 -112 -233 1597 852 0
-1452 -112 -234 1597 858 0
-1452 -113 -232 1598 847 0
-1452 -113 -233 1598 853 0
-1452 -113 -234 1598 859 0
-1452 -114 -232 1599 848 0
-1452 -114 -233 1599 854 0
-1452 -114 -234 1599 860 0
-1452 -232 -774 0
-1452 -232 -798 0
-1452 -232 -822 0
-1452 -232 -780 0
-1452 -232 -804 0
-1452 -232 -828 0
-1452 -232 -786 0
-1452 -232 -810 0
-1452 -232 -834 0
-1452 -232 -775 0
-1452 -232 -799 0
-1452 -232 -823 0
-1452 -232 -781 0
-1452 -232 -805 0
-1452 -232 -829 0
-1452 -232 -787 0
-1452 -232 -811 0
-1452 -232 -835 0
-1452 -232 -776 0
-1452 -232 -800 0
-1452 -232 -824 0
-1452 -232 -782 0
-1452 -232 -806 0
-1452 -232 -830 0
-1452 -232 -788 0
-1452 -232 -812 0
-1452 -232 -836 0
-1452 -233 -780 0
-1452 -233 -804 0
-1452 -233 -828 0
-1452 -233 -786 0
-1452 -233 -810 0
-1452 -233 -834 0
-1452 -233 -781 0
-1452 -233 -805 0
-1452 -233 -829 0
-1452 -233 -787 0
-1452 -233 -811 0
-1452 -233 -835 0
-1452 -233 -782 0
-1452 -233 -806 0
-1452 -233 -830 0
-1452 -233 -788 0
-1452 -233 -812 0
-1452 -233 -836 0
-1452 -234 -786 0
-1452 -234 -810 0
-1452 -234 -834 0
-1452 -234 -787 0
-1452 -234 -811 0
-1452 -234 -835 0
-1452 -234 -788 0
-1452 -234 -812 0
-1452 -234 -836 0
-1452 -235 0
-1452 144 0
-1452 -232 257 0
-1452 -233 258 0
-1452 -234 259 0
-1452 -285 0
-1453 283 0
-1453 -124 -232 -241 0
-1453 -124 -233 -242 0
-1453 -124 -234 -243 0
-1453 113 114 115 0
-1453 -113 -232 1598 847 0
-1453 -113 -233 1598 853 0
-1453 -113 -234 1598 859 0
-1453 -114 -232 1599 848 0
-1453 -114 -233 1599 854 0
-1453 -114 -234 1599 860 0
-1453 -115 -232 1600 849 0
-1453 -115 -233 1600 855 0
-1453 -115 -234 1600 861 0
-1453 -232 -775 0
-1453 -232 -799 0
-1453 -232 -823 0
-1453 -232 -781 0
-1453 -232 -805 0
-1453 -232 -829 0
-1453 -232 -787 0
-1453 -232 -811 0
-1453 -232 -835 0
-1453 -232 -776 0
-1453 -232 -800 0
-1453 -232 -824 0
-1453 -232 -782 0
-1453 -232 -806 0
-1453 -232 -830 0
-1453 -232 -788 0
-1453 -232 -812 0
-1453 -232 -836 0
-1453 -232 -777 0
-1453 -232 -801 0
-1453 -232 -825 0
-1453 -232 -783 0
-1453 -232 -807 0
-1453 -232 -831 0
-1453 -232 -789 0
-1453 -232 -813 0
-1453 -232 -837 0
-1453 -233 -781 0
-1453 -233 -805 0
-1453 -233 -829 0
-1453 -233 -787 0
-1453 -233 -811 0
-1453 -233 -835 0
-1453 -233 -782 0
-1453 -233 -806 0
-1453 -233 -830 0
-1453 -233 -788 0
-1453 -233 -812 0
-1453 -233 -836 0
-1453 -233 -783 0
-1453 -233 -807 0
-1453 -233 -831 0
-1453 -233 -789 0
-1453 -233 -813 0
-1453 -233 -837 0
-1453 -234 -787 0
-1453 -234 -811 0
-1453 -234 -835 0
-1453 -234 -788 0
-1453 -234 -812 0
-1453 -234 -836 0
-1453 -234 -789 0
-1453 -234 -813 0
-1453 -234 -837 0
-1453 -235 0
-1453 145 0
-1453 -232 257 0
-1453 -233 258 0
-1453 -234 259 0
-1453 -285 0
-1454 283 0
-1454 -125 -232 -241 0
-1454 -125 -233 -242 0
-1454 -125 -234 -243 0
-1454 114 115 116 0
-1454 -114 -232 1599 848 0
-1454 -114 -233 1599 854 0
-1454 -114 -234 1599 860 0
-1454 -115 -232 1600 849 0
-1454 -115 -233 1600 855 0
-1454 -115 -234 1600 861 0
-1454 -116 -232 1601 850 0
-1454 -116 -233 1601 856 0
-1454 -116 -234 1601 862 0
-1454 -232 -776 0
-1454 -232 -800 0
-1454 -232 -824 0
-1454 -232 -782 0
-1454 -232 -806 0
-1454 -232 -830 0
-1454 -232 -788 0
-1454 -232 -812 0
-1454 -232 -836 0
-1454 -232 -777 0
-1454 -232 -801 0
-1454 -232 -825 0
-1454 -232 -783 0
-1454 -232 -807 0
-1454 -232 -831 0
-1454 -232 -789 0
-1454 -232 -813 0
-1454 -232 -837 0
-1454 -232 -778 0
-1454 -232 -802 0
-1454 -232 -826 0
-1454 -232 -784 0
-1454 -232 -808 0
-1454 -232 -832 0
-1454 -232 -790 0
-1454 -232 -814 0
-1454 -232 -838 0
-1454 -233 -782 0
-1454 -233 -806 0
-1454 -233 -830 0
-1454 -233 -788 0
-1454 -233 -812 0
-1454 -233 -836 0
-1454 -233 -783 0
-1454 -233 -807 0
-1454 -233 -831 0
-1454 -233 -789 0
-1454 -233 -813 0
-1454 -233 -837 0
-1454 -233 -784 0
-1454 -233 -808 0
-1454 -233 -832 0
-1454 -233 -790 0
-1454 -233 -814 0
-1454 -233 -838 0
-1454 -234 -788 0
-1454 -234 -812 0
-1454 -234 -836 0
-1454 -234 -789 0
-1454 -234 -813 0
-1454 -234 -837 0
-1454 -234 -790 0
-1454 -234 -814 0
-1454 -234 -838 0
-1454 -235 0
-1454 146 0
-1454 -232 257 0
-1454 -233 258 0
-1454 -234 259 0
-1454 -285 0
-1455 283 0
-1455 -126 -232 -241 0
-1455 -126 -233 -242 0
-1455 -126 -234 -243 0
-1455 115 116 117 0
-1455 -115 -232 1600 849 0
-1455 -115 -233 1600 855 0
-1455 -115 -234 1600 861 0
-1455 -116 -232 1601 850 0
-1455 -116 -233 1601 856 0
-1455 -116 -234 1601 862 0
-1455 -117 -232 1602 851 0
-1455 -117 -233 1602 857 0
-1455 -117 -234 1602 863 0
-1455 -232 -777 0
-1455 -232 -801 0
-1455 -232 -825 0
-1455 -232 -783 0
-1455 -232 -807 0
-1455 -232 -831 0
-1455 -232 -789 0
-1455 -232 -813 0
-1455 -232 -837 0
-1455 -232 -778 0
-1455 -232 -802 0
-1455 -232 -826 0
-1455 -232 -784 0
-1455 -232 -808 0
-1455 -232 -832 0
-1455 -232 -790 0
-1455 -232 -814 0
-1455 -232 -838 0
-1455 -232 -779 0
-1455 -232 -803 0
-1455 -232 -827 0
-1455 -232 -785 0
-1455 -232 -809 0
-1455 -232 -833 0
-1455 -232 -791 0
-1455 -232 -815 0
-1455 -232 -839 0
-1455 -233 -783 0
-1455 -233 -807 0
-1455 -233 -831 0
-1455 -233 -789 0
-1455 -233 -813 0
-1455 -233 -837 0
-1455 -233 -784 0
-1455 -233 -808 0
-1455 -233 -832 0
-1455 -233 -790 0
-1455 -233 -814 0
-1455 -233 -838 0
-1455 -233 -785 0
-1455 -233 -809 0
-1455 -233 -833 0
-1455 -233 -791 0
-1455 -233 -815 0
-1455 -233 -839 0
-1455 -234 -789 0
-1455 -234 -813 0
-1455 -234 -837 0
-1455 -234 -790 0
-1455 -234 -814 0
-1455 -234 -838 0
-1455 -234 -791 0
-1455 -234 -815 0
-1455 -234 -839 0
-1455 -235 0
-1455 147 0
-1455 -232 257 0
-1455 -233 258 0
-1455 -234 259 0
-1455 -285 0
-1456 283 0
-1456 -123 -236 -241 0
-1456 -123 -237 -242 0
-1456 -123 -238 -243 0
-1456 118 119 120 0
-1456 -118 -236 1603 846 0
-1456 -118 -237 1603 852 0
-1456 -118 -238 1603 858 0
-1456 -118 -236 1604 847 0
-1456 -118 -237 1604 853 0
-1456 -118 -238 1604 859 0
-1456 -119 -236 1604 847 0
-1456 -119 -237 1604 853 0
-1456 -119 -238 1604 859 0
-1456 -119 -236 1605 848 0
-1456 -119 -237 1605 854 0
-1456 -119 -238 1605 860 0
-1456 -120 -236 1605 848 0
-1456 -120 -237 1605 854 0
-1456 -120 -238 1605 860 0
-1456 -236 -774 0
-1456 -236 -798 0
-1456 -236 -822 0
-1456 -236 -780 0
-1456 -236 -804 0
-1456 -236 -828 0
-1456 -236 -786 0
-1456 -236 -810 0
-1456 -236 -834 0
-1456 -236 -775 0
-1456 -236 -799 0
-1456 -236 -823 0
-1456 -236 -781 0
-1456 -236 -805 0
-1456 -236 -829 0
-1456 -236 -787 0
-1456 -236 -811 0
-1456 -236 -835 0
-1456 -236 -776 0
-1456 -236 -800 0
-1456 -236 -824 0
-1456 -236 -782 0
-1456 -236 -806 0
-1456 -236 -830 0
-1456 -236 -788 0
-1456 -236 -812 0
-1456 -236 -836 0
-1456 -237 -780 0
-1456 -237 -804 0
-1456 -237 -828 0
-1456 -237 -786 0
-1456 -237 -810 0
-1456 -237 -834 0
-1456 -237 -781 0
-1456 -237 -805 0
-1456 -237 -829 0
-1456 -237 -787 0
-1456 -237 -811 0
-1456 -237 -835 0
-1456 -237 -782 0
-1456 -237 -806 0
-1456 -237 -830 0
-1456 -237 -788 0
-1456 -237 -812 0
-1456 -237 -836 0
-1456 -238 -786 0
-1456 -238 -810 0
-1456 -238 -834 0
-1456 -238 -787 0
-1456 -238 -811 0
-1456 -238 -835 0
-1456 -238 -788 0
-1456 -238 -812 0
-1456 -238 -836 0
-1456 -239 0
-1456 144 0
-1456 -236 257 0
-1456 -237 258 0
-1456 -238 259 0
-1456 -286 0
-1457 283 0
-1457 -124 -236 -241 0
-1457 -124 -237 -242 0
-1457 -124 -238 -243 0
-1457 118 119 120 121 0
-1457 -118 -236 1604 847 0
-1457 -118 -237 1604 853 0
-1457 -118 -238 1604 859 0
-1457 -119 -236 1604 847 0
-1457 -119 -237 1604 853 0
-1457 -119 -238 1604 859 0
-1457 -119 -236 1605 848 0
-1457 -119 -237 1605 854 0
-1457 -119 -238 1605 860 0
-1457 -120 -236 1605 848 0
-1457 -120 -237 1605 854 0
-1457 -120 -238 1605 860 0
-1457 -120 -236 1606 849 0
-1457 -120 -237 1606 855 0
-1457 -120 -238 1606 861 0
-1457 -121 -236 1606 849 0
-1457 -121 -237 1606 855 0
-1457 -121 -238 1606 861 0
-1457 -236 -775 0
-1457 -236 -799 0
-1457 -236 -823 0
-1457 -236 -781 0
-1457 -236 -805 0
-1457 -236 -829 0
-1457 -236 -787 0
-1457 -236 -811 0
-1457 -236 -835 0
-1457 -236 -776 0
-1457 -236 -800 0
-1457 -236 -824 0
-1457 -236 -782 0
-1457 -236 -806 0
-1457 -236 -830 0
-1457 -236 -788 0
-1457 -236 -812 0
-1457 -236 -836 0
-1457 -236 -777 0
-1457 -236 -801 0
-1457 -236 -825 0
-1457 -236 -783 0
-1457 -236 -807 0
-1457 -236 -831 0
-1457 -236 -789 0
-1457 -236 -813 0
-1457 -236 -837 0
-1457 -237 -781 0
-1457 -237 -805 0
-1457 -237 -829 0
-1457 -237 -787 0
-1457 -237 -811 0
-1457 -237 -835 0
-1457 -237 -782 0
-1457 -237 -806 0
-1457 -237 -830 0
-1457 -237 -788 0
-1457 -237 -812 0
-1457 -237 -836 0
-1457 -237 -783 0
-1457 -237 -807 0
-1457 -237 -831 0
-1457 -237 -789 0
-1457 -237 -813 0
-1457 -237 -837 0
-1457 -238 -787 0
-1457 -238 -811 0
-1457 -238 -835 0
-1457 -238 -788 0
-1457 -238 -812 0
-1457 -238 -836 0
-1457 -238 -789 0
-1457 -238 -813 0
-1457 -238 -837 0
-1457 -239 0
-1457 145 0
-1457 -236 257 0
-1457 -237 258 0
-1457 -238 259 0
-1457 -286 0
-1458 283 0
-1458 -125 -236 -241 0
-1458 -125 -237 -242 0
-1458 -125 -238 -243 0
-1458 119 120 121 122 0
-1458 -119 -236 1605 848 0
-1458 -119 -237 1605 854 0
-1458 -119 -238 1605 860 0
-1458 -120 -236 1605 848 0
-1458 -120 -237 1605 854 0
-1458 -120 -238 1605 860 0
-1458 -120 -236 1606 849 0
-1458 -120 -237 1606 855 0
-1458 -120 -238 1606 861 0
-1458 -121 -236 1606 849 0
-1458 -121 -237 1606 855 0
-1458 -121 -238 1606 861 0
-1458 -121 -236 1607 850 0
-1458 -121 -237 1607 856 0
-1458 -121 -238 1607 862 0
-1458 -122 -236 1607 850 0
-1458 -122 -237 1607 856 0
-1458 -122 -238 1607 862 0
-1458 -236 -776 0
-1458 -236 -800 0
-1458 -236 -824 0
-1458 -236 -782 0
-1458 -236 -806 0
-1458 -236 -830 0
-1458 -236 -788 0
-1458 -236 -812 0
-1458 -236 -836 0
-1458 -236 -777 0
-1458 -236 -801 0
-1458 -236 -825 0
-1458 -236 -783 0
-1458 -236 -807 0
-1458 -236 -831 0
-1458 -236 -789 0
-1458 -236 -813 0
-1458 -236 -837 0
-1458 -236 -778 0
-1458 -236 -802 0
-1458 -236 -826 0
-1458 -236 -784 0
-1458 -236 -808 0
-1458 -236 -832 0
-1458 -236 -790 0
-1458 -236 -814 0
-1458 -236 -838 0
-1458 -237 -782 0
-1458 -237 -806 0
-1458 -237 -830 0
-1458 -237 -788 0
-1458 -237 -812 0
-1458 -237 -836 0
-1458 -237 -783 0
-1458 -237 -807 0
-1458 -237 -831 0
-1458 -237 -789 0
-1458 -237 -813 0
-1458 -237 -837 0
-1458 -237 -784 0
-1458 -237 -808 0
-1458 -237 -832 0
-1458 -237 -790 0
-1458 -237 -814 0
-1458 -237 -838 0
-1458 -238 -788 0
-1458 -238 -812 0
-1458 -238 -836 0
-1458 -238 -789 0
-1458 -238 -813 0
-1458 -238 -837 0
-1458 -238 -790 0
-1458 -238 -814 0
-1458 -238 -838 0
-1458 -239 0
-1458 146 0
-1458 -236 257 0
-1458 -237 258 0
-1458 -238 259 0
-1458 -286 0
-1459 283 0
-1459 -126 -236 -241 0
-1459 -126 -237 -242 0
-1459 -126 -238 -243 0
-1459 120 121 122 0
-1459 -120 -236 1606 849 0
-1459 -120 -237 1606 855 0
-1459 -120 -238 1606 861 0
-1459 -121 -236 1606 849 0
-1459 -121 -237 1606 855 0
-1459 -121 -238 1606 861 0
-1459 -121 -236 1607 850 0
-1459 -121 -237 1607 856 0
-1459 -121 -238 1607 862 0
-1459 -122 -236 1607 850 0
-1459 -122 -237 1607 856 0
-1459 -122 -238 1607 862 0
-1459 -122 -236 1608 851 0
-1459 -122 -237 1608 857 0
-1459 -122 -238 1608 863 0
-1459 -236 -777 0
-1459 -236 -801 0
-1459 -236 -825 0
-1459 -236 -783 0
-1459 -236 -807 0
-1459 -236 -831 0
-1459 -236 -789 0
-1459 -236 -813 0
-1459 -236 -837 0
-1459 -236 -778 0
-1459 -236 -802 0
-1459 -236 -826 0
-1459 -236 -784 0
-1459 -236 -808 0
-1459 -236 -832 0
-1459 -236 -790 0
-1459 -236 -814 0
-1459 -236 -838 0
-1459 -236 -779 0
-1459 -236 -803 0
-1459 -236 -827 0
-1459 -236 -785 0
-1459 -236 -809 0
-1459 -236 -833 0
-1459 -236 -791 0
-1459 -236 -815 0
-1459 -236 -839 0
-1459 -237 -783 0
-1459 -237 -807 0
-1459 -237 -831 0
-1459 -237 -789 0
-1459 -237 -813 0
-1459 -237 -837 0
-1459 -237 -784 0
-1459 -237 -808 0
-1459 -237 -832 0
-1459 -237 -790 0
-1459 -237 -814 0
-1459 -237 -838 0
-1459 -237 -785 0
-1459 -237 -809 0
-1459 -237 -833 0
-1459 -237 -791 0
-1459 -237 -815 0
-1459 -237 -839 0
-1459 -238 -789 0
-1459 -238 -813 0
-1459 -238 -837 0
-1459 -238 -790 0
-1459 -238 -814 0
-1459 -238 -838 0
-1459 -238 -791 0
-1459 -238 -815 0
-1459 -238 -839 0
-1459 -239 0
-1459 147 0
-1459 -236 257 0
-1459 -237 258 0
-1459 -238 259 0
-1459 -286 0
-1460 283 0
-1460 -123 -240 0
-1460 -768 0
-1460 -792 0
-1460 -816 0
-1460 -774 0
-1460 -798 0
-1460 -822 0
-1460 -780 0
-1460 -804 0
-1460 -828 0
-1460 -786 0
-1460 -810 0
-1460 -834 0
-1460 -769 0
-1460 -793 0
-1460 -817 0
-1460 -775 0
-1460 -799 0
-1460 -823 0
-1460 -781 0
-1460 -805 0
-1460 -829 0
-1460 -787 0
-1460 -811 0
-1460 -835 0
-1460 -770 0
-1460 -794 0
-1460 -818 0
-1460 -776 0
-1460 -800 0
-1460 -824 0
-1460 -782 0
-1460 -806 0
-1460 -830 0
-1460 -788 0
-1460 -812 0
-1460 -836 0
-1460 144 0
-1460 256 0
-1461 283 0
-1461 -124 -240 0
-1461 -769 0
-1461 -793 0
-1461 -817 0
-1461 -775 0
-1461 -799 0
-1461 -823 0
-1461 -781 0
-1461 -805 0
-1461 -829 0
-1461 -787 0
-1461 -811 0
-1461 -835 0
-1461 -770 0
-1461 -794 0
-1461 -818 0
-1461 -776 0
-1461 -800 0
-1461 -824 0
-1461 -782 0
-1461 -806 0
-1461 -830 0
-1461 -788 0
-1461 -812 0
-1461 -836 0
-1461 -771 0
-1461 -795 0
-1461 -819 0
-1461 -777 0
-1461 -801 0
-1461 -825 0
-1461 -783 0
-1461 -807 0
-1461 -831 0
-1461 -789 0
-1461 -813 0
-1461 -837 0
-1461 145 0
-1461 256 0
-1462 283 0
-1462 -125 -240 0
-1462 -770 0
-1462 -794 0
-1462 -818 0
-1462 -776 0
-1462 -800 0
-1462 -824 0
-1462 -782 0
-1462 -806 0
-1462 -830 0
-1462 -788 0
-1462 -812 0
-1462 -836 0
-1462 -771 0
-1462 -795 0
-1462 -819 0
-1462 -777 0
-1462 -801 0
-1462 -825 0
-1462 -783 0
-1462 -807 0
-1462 -831 0
-1462 -789 0
-1462 -813 0
-1462 -837 0
-1462 -772 0
-1462 -796 0
-1462 -820 0
-1462 -778 0
-1462 -802 0
-1462 -826 0
-1462 -784 0
-1462 -808 0
-1462 -832 0
-1462 -790 0
-1462 -814 0
-1462 -838 0
-1462 146 0
-1462 256 0
-1463 283 0
-1463 -126 -240 0
-1463 -771 0
-1463 -795 0
-1463 -819 0
-1463 -777 0
-1463 -801 0
-1463 -825 0
-1463 -783 0
-1463 -807 0
-1463 -831 0
-1463 -789 0
-1463 -813 0
-1463 -837 0
-1463 -772 0
-1463 -796 0
-1463 -820 0
-1463 -778 0
-1463 -802 0
-1463 -826 0
-1463 -784 0
-1463 -808 0
-1463 -832 0
-1463 -790 0
-1463 -814 0
-1463 -838 0
-1463 -773 0
-1463 -797 0
-1463 -821 0
-1463 -779 0
-1463 -803 0
-1463 -827 0
-1463 -785 0
-1463 -809 0
-1463 -833 0
-1463 -791 0
-1463 -815 0
-1463 -839 0
-1463 147 0
-1463 256 0
106 -127 1380 1381 1382 1383 1384 1385 1386 1387 1388 1389 1390 1391 1392 1393 1394 1395 1396 1397 1398 1399 1400 1401 1402 1403 0
-106 127 1380 1381 1382 1383 1384 1385 1386 1387 1388 1389 1390 1391 1392 1393 1394 1395 1396 1397 1398 1399 1400 1401 1402 1403 0
107 -128 1380 1381 1382 1383 1384 1385 1386 1387 1388 1389 1390 1391 1392 1393 1394 1395 1396 1397 1398 1399 1400 1401 1402 1403 0
-107 128 1380 1381 1382 1383 1384 1385 1386 1387 1388 1389 1390 1391 1392 1393 1394 1395 1396 1397 1398 1399 1400 1401 1402 1403 0
108 -129 1380 1381 1382 1383 1384 1385 1386 1387 1388 1389 1390 1391 1392 1393 1394 1395 1396 1397 1398 1399 1400 1401 1402 1403 0
-108 129 1380 1381 1382 1383 1384 1385 1386 1387 1388 1389 1390 1391 1392 1393 1394 1395 1396 1397 1398 1399 1400 1401 1402 1403 0
109 -130 1380 1381 1382 1383 1384 1385 1386 1387 1388 1389 1390 1391 1392 1393 1394 1395 1396 1397 1398 1399 1400 1401 1402 1403 0
-109 130 1380 1381 1382 1383 1384 1385 1386 1387 1388 1389 1390 1391 1392 1393 1394 1395 1396 1397 1398 1399 1400 1401 1402 1403 0
110 -131 1380 1381 1382 1383 1384 1385 1386 1387 1388 1389 1390 1391 1392 1393 1394 1395 1396 1397 1398 1399 1400 1401 1402 1403 0
-110 131 1380 1381 1382 1383 1384 1385 1386 1387 1388 1389 1390 1391 1392 1393 1394 1395 1396 1397 1398 1399 1400 1401 1402 1403 0
111 -132 1380 1381 1382 1383 1384 1385 1386 1387 1388 1389 1390 1391 1392 1393 1394 1395 1396 1397 1398 1399 1400 1401 1402 1403 0
-111 132 1380 1381 1382 1383 1384 1385 1386 1387 1388 1389 1390 1391 1392 1393 1394 1395 1396 1397 1398 1399 1400 1401 1402 1403 0
228 -244 1380 1381 1382 1383 1384 1385 1386 1387 1388 1389 1390 1391 1392 1393 1394 1395 1396 1397 1398 1399 1400 1401 1402 1403 0
-228 244 1380 1381 1382 1383 1384 1385 1386 1387 1388 1389 1390 1391 1392 1393 1394 1395 1396 1397 1398 1399 1400 1401 1402 1403 0
229 -245 1380 1381 1382 1383 1384 1385 1386 1387 1388 1389 1390 1391 1392 1393 1394 1395 1396 1397 1398 1399 1400 1401 1402 1403 0
-229 245 1380 1381 1382 1383 1384 1385 1386 1387 1388 1389 1390 1391 1392 1393 1394 1395 1396 1397 1398 1399 1400 1401 1402 1403 0
230 -246 1380 1381 1382 1383 1384 1385 1386 1387 1388 1389 1390 1391 1392 1393 1394 1395 1396 1397 1398 1399 1400 1401 1402 1403 0
-230 246 1380 1381 1382 1383 1384 1385 1386 1387 1388 1389 1390 1391 1392 1393 1394 1395 1396 1397 1398 1399 1400 1401 1402 1403 0
231 -247 1380 1381 1382 1383 1384 1385 1386 1387 1388 1389 1390 1391 1392 1393 1394 1395 1396 1397 1398 1399 1400 1401 1402 1403 0
-231 247 1380 1381 1382 1383 1384 1385 1386 1387 1388 1389 1390 1391 1392 1393 1394 1395 1396 1397 1398 1399 1400 1401 1402 1403 0
112 -133 1404 1405 1406 1407 1408 1409 1410 1411 1412 1413 1414 1415 1416 1417 1418 1419 1420 1421 1422 1423 1424 1425 1426 1427 0
-112 133 1404 1405 1406 1407 1408 1409 1410 1411 1412 1413 1414 1415 1416 1417 1418 1419 1420 1421 1422 1423 1424 1425 1426 1427 0
113 -134 1404 1405 1406 1407 1408 1409 1410 1411 1412 1413 1414 1415 1416 1417 1418 1419 1420 1421 1422 1423 1424 1425 1426 1427 0
-113 134 1404 1405 1406 1407 1408 1409 1410 1411 1412 1413 1414 1415 1416 1417 1418 1419 1420 1421 1422 1423 1424 1425 1426 1427 0
114 -135 1404 1405 1406 1407 1408 1409 1410 1411 1412 1413 1414 1415 1416 1417 1418 1419 1420 1421 1422 1423 1424 1425 1426 1427 0
-114 135 1404 1405 1406 1407 1408 1409 1410 1411 1412 1413 1414 1415 1416 1417 1418 1419 1420 1421 1422 1423 1424 1425 1426 1427 0
115 -136 1404 1405 1406 1407 1408 1409 1410 1411 1412 1413 1414 1415 1416 1417 1418 1419 1420 1421 1422 1423 1424 1425 1426 1427 0
-115 136 1404 1405 1406 1407 1408 1409 1410 1411 1412 1413 1414 1415 1416 1417 1418 1419 1420 1421 1422 1423 1424 1425 1426 1427 0
116 -137 1404 1405 1406 1407 1408 1409 1410 1411 1412 1413 1414 1415 1416 1417 1418 1419 1420 1421 1422 1423 1424 1425 1426 1427 0
-116 137 1404 1405 1406 1407 1408 1409 1410 1411 1412 1413 1414 1415 1416 1417 1418 1419 1420 1421 1422 1423 1424 1425 1426 1427 0
117 -138 1404 1405 1406 1407 1408 1409 1410 1411 1412 1413 1414 1415 1416 1417 1418 1419 1420 1421 1422 1423 1424 1425 1426 1427 0
-117 138 1404 1405 1406 1407 1408 1409 1410 1411 1412 1413 1414 1415 1416 1417 1418 1419 1420 1421 1422 1423 1424 1425 1426 1427 0
232 -248 1404 1405 1406 1407 1408 1409 1410 1411 1412 1413 1414 1415 1416 1417 1418 1419 1420 1421 1422 1423 1424 1425 1426 1427 0
-232 248 1404 1405 1406 1407 1408 1409 1410 1411 1412 1413 1414 1415 1416 1417 1418 1419 1420 1421 1422 1423 1424 1425 1426 1427 0
233 -249 1404 1405 1406 1407 1408 1409 1410 1411 1412 1413 1414 1415 1416 1417 1418 1419 1420 1421 1422 1423 1424 1425 1426 1427 0
-233 249 1404 1405 1406 1407 1408 1409 1410 1411 1412 1413 1414 1415 1416 1417 1418 1419 1420 1421 1422 1423 1424 1425 1426 1427 0
234 -250 1404 1405 1406 1407 1408 1409 1410 1411 1412 1413 1414 1415 1416 1417 1418 1419 1420 1421 1422 1423 1424 1425 1426 1427 0
-234 250 1404 1405 1406 1407 1408 1409 1410 1411 1412 1413 1414 1415 1416 1417 1418 1419 1420 1421 1422 1423 1424 1425 1426 1427 0
235 -251 1404 1405 1406 1407 1408 1409 1410 1411 1412 1413 1414 1415 1416 1417 1418 1419 1420 1421 1422 1423 1424 1425 1426 1427 0
-235 251 1404 1405 1406 1407 1408 1409 1410 1411 1412 1413 1414 1415 1416 1417 1418 1419 1420 1421 1422 1423 1424 1425 1426 1427 0
118 -139 1428 1429 1430 1431 1432 1433 1434 1435 1436 1437 1438 1439 1440 1441 1442 1443 1444 1445 1446 1447 0
-118 139 1428 1429 1430 1431 1432 1433 1434 1435 1436 1437 1438 1439 1440 1441 1442 1443 1444 1445 1446 1447 0
119 -140 1428 1429 1430 1431 1432 1433 1434 1435 1436 1437 1438 1439 1440 1441 1442 1443 1444 1445 1446 1447 0
-119 140 1428 1429 1430 1431 1432 1433 1434 1435 1436 1437 1438 1439 1440 1441 1442 1443 1444 1445 1446 1447 0
120 -141 1428 1429 1430 1431 1432 1433 1434 1435 1436 1437 1438 1439 1440 1441 1442 1443 1444 1445 1446 1447 0
-120 141 1428 1429 1430 1431 1432 1433 1434 1435 1436 1437 1438 1439 1440 1441 1442 1443 1444 1445 1446 1447 0
121 -142 1428 1429 1430 1431 1432 1433 1434 1435 1436 1437 1438 1439 1440 1441 1442 1443 1444 1445 1446 1447 0
-121 142 1428 1429 1430 1431 1432 1433 1434 1435 1436 1437 1438 1439 1440 1441 1442 1443 1444 1445 1446 1447 0
122 -143 1428 1429 1430 1431 1432 1433 1434 1435 1436 1437 1438 1439 1440 1441 1442 1443 1444 1445 1446 1447 0
-122 143 1428 1429 1430 1431 1432 1433 1434 1435 1436 1437 1438 1439 1440 1441 1442 1443 1444 1445 1446 1447 0
236 -252 1428 1429 1430 1431 1432 1433 1434 1435 1436 1437 1438 1439 1440 1441 1442 1443 1444 1445 1446 1447 0
-236 252 1428 1429 1430 1431 1432 1433 1434 1435 1436 1437 1438 1439 1440 1441 1442 1443 1444 1445 1446 1447 0
237 -253 1428 1429 1430 1431 1432 1433 1434 1435 1436 1437 1438 1439 1440 1441 1442 1443 1444 1445 1446 1447 0
-237 253 1428 1429 1430 1431 1432 1433 1434 1435 1436 1437 1438 1439 1440 1441 1442 1443 1444 1445 1446 1447 0
238 -254 1428 1429 1430 1431 1432 1433 1434 1435 1436 1437 1438 1439 1440 1441 1442 1443 1444 1445 1446 1447 0
-238 254 1428 1429 1430 1431 1432 1433 1434 1435 1436 1437 1438 1439 1440 1441 1442 1443 1444 1445 1446 1447 0
239 -255 1428 1429 1430 1431 1432 1433 1434 1435 1436 1437 1438 1439 1440 1441 1442 1443 1444 1445 1446 1447 0
-239 255 1428 1429 1430 1431 1432 1433 1434 1435 1436 1437 1438 1439 1440 1441 1442 1443 1444 1445 1446 1447 0
123 -144 1448 1449 1450 1451 1452 1453 1454 1455 1456 1457 1458 1459 1460 1461 1462 1463 0
-123 144 1448 1449 1450 1451 1452 1453 1454 1455 1456 1457 1458 1459 1460 1461 1462 1463 0
124 -145 1448 1449 1450 1451 1452 1453 1454 1455 1456 1457 1458 1459 1460 1461 1462 1463 0
-124 145 1448 1449 1450 1451 1452 1453 1454 1455 1456 1457 1458 1459 1460 1461 1462 1463 0
125 -146 1448 1449 1450 1451 1452 1453 1454 1455 1456 1457 1458 1459 1460 1461 1462 1463 0
-125 146 1448 1449 1450 1451 1452 1453 1454 1455 1456 1457 1458 1459 1460 1461 1462 1463 0
126 -147 1448 1449 1450 1451 1452 1453 1454 1455 1456 1457 1458 1459 1460 1461 1462 1463 0
-126 147 1448 1449 1450 1451 1452 1453 1454 1455 1456 1457 1458 1459 1460 1461 1462 1463 0
240 -256 1448 1449 1450 1451 1452 1453 1454 1455 1456 1457 1458 1459 1460 1461 1462 1463 0
-240 256 1448 1449 1450 1451 1452 1453 1454 1455 1456 1457 1458 1459 1460 1461 1462 1463 0
241 -257 1448 1449 1450 1451 1452 1453 1454 1455 1456 1457 1458 1459 1460 1461 1462 1463 0
-241 257 1448 1449 1450 1451 1452 1453 1454 1455 1456 1457 1458 1459 1460 1461 1462 1463 0
242 -258 1448 1449 1450 1451 1452 1453 1454 1455 1456 1457 1458 1459 1460 1461 1462 1463 0
-242 258 1448 1449 1450 1451 1452 1453 1454 1455 1456 1457 1458 1459 1460 1461 1462 1463 0
243 -259 1448 1449 1450 1451 1452 1453 1454 1455 1456 1457 1458 1459 1460 1461 1462 1463 0
-243 259 1448 1449 1450 1451 1452 1453 1454 1455 1456 1457 1458 1459 1460 1461 1462 1463 0
1380 1381 1382 1383 1384 1385 1386 1387 1388 1389 1390 1391 1392 1393 1394 1395 1396 1397 1398 1399 1400 1401 1402 1403 1404 1405 1406 1407 1408 1409 1410 1411 1412 1413 1414 1415 1416 1417 1418 1419 1420 1421 1422 1423 1424 1425 1426 1427 1428 1429 1430 1431 1432 1433 1434 1435 1436 1437 1438 1439 1440 1441 1442 1443 1444 1445 1446 1447 1448 1449 1450 1451 1452 1453 1454 1455 1456 1457 1458 1459 1460 1461 1462 1463 0
-1380 -1381 0
-1380 -1382 0
-1380 -1383 0
-1380 -1384 0
-1380 -1385 0
-1380 -1386 0
-1380 -1387 0
-1380 -1388 0
-1380 -1389 0
-1380 -1390 0
-1380 -1391 0
-1380 -1392 0
-1380 -1393 0
-1380 -1394 0
-1380 -1395 0
-1380 -1396 0
-1380 -1397 0
-1380 -1398 0
-1380 -1399 0
-1380 -1400 0
-1380 -1401 0
-1380 -1402 0
-1380 -1403 0
-1380 -1404 0
-1380 -1405 0
-1380 -1406 0
-1380 -1407 0
-1380 -1408 0
-1380 -1409 0
-1380 -1410 0
-1380 -1411 0
-1380 -1412 0
-1380 -1413 0
-1380 -1414 0
-1380 -1415 0
-1380 -1416 0
-1380 -1417 0
-1380 -1418 0
-1380 -1419 0
-1380 -1420 0
-1380 -1421 0
-1380 -1422 0
-1380 -1423 0
-1380 -1424 0
-1380 -1425 0
-1380 -1426 0
-1380 -1427 0
-1380 -1428 0
-1380 -1429 0
-1380 -1430 0
-1380 -1431 0
-1380 -1432 0
-1380 -1433 0
-1380 -1434 0
-1380 -1435 0
-1380 -1436 0
-1380 -1437 0
-1380 -1438 0
-1380 -1439 0
-1380 -1440 0
-1380 -1441 0
-1380 -1442 0
-1380 -1443 0
-1380 -1444 0
-1380 -1445 0
-1380 -1446 0
-1380 -1447 0
-1380 -1448 0
-1380 -1449 0
-1380 -1450 0
-1380 -1451 0
-1380 -1452 0
-1380 -1453 0
-1380 -1454 0
-1380 -1455 0
-1380 -1456 0
-1380 -1457 0
-1380 -1458 0
-1380 -1459 0
-1380 -1460 0
-1380 -1461 0
-1380 -1462 0
-1380 -1463 0
-1381 -1382 0
-1381 -1383 0
-1381 -1384 0
-1381 -1385 0
-1381 -1386 0
-1381 -1387 0
-1381 -1388 0
-1381 -1389 0
-1381 -1390 0
-1381 -1391 0
-1381 -1392 0
-1381 -1393 0
-1381 -1394 0
-1381 -1395 0
-1381 -1396 0
-1381 -1397 0
-1381 -1398 0
-1381 -1399 0
-1381 -1400 0
-1381 -1401 0
-1381 -1402 0
-1381 -1403 0
-1381 -1404 0
-1381 -1405 0
-1381 -1406 0
-1381 -1407 0
-1381 -1408 0
-1381 -1409 0
-1381 -1410 0
-1381 -1411 0
-1381 -1412 0
-1381 -1413 0
-1381 -1414 0
-1381 -1415 0
-1381 -1416 0
-1381 -1417 0
-1381 -1418 0
-1381 -1419 0
-1381 -1420 0
-1381 -1421 0
-1381 -1422 0
-1381 -1423 0
-1381 -1424 0
-1381 -1425 0
-1381 -1426 0
-1381 -1427 0
-1381 -1428 0
-1381 -1429 0
-1381 -1430 0
-1381 -1431 0
-1381 -1432 0
-1381 -1433 0
-1381 -1434 0
-1381 -1435 0
-1381 -1436 0
-1381 -1437 0
-1381 -1438 0
-1381 -1439 0
-1381 -1440 0
-1381 -1441 0
-1381 -1442 0
-1381 -1443 0
-1381 -1444 0
-1381 -1445 0
-1381 -1446 0
-1381 -1447 0
-1381 -1448 0
-1381 -1449 0
-1381 -1450 0
-1381 -1451 0
-1381 -1452 0
-1381 -1453 0
-1381 -1454 0
-1381 -1455 0
-1381 -1456 0
-1381 -1457 0
-1381 -1458 0
-1381 -1459 0
-1381 -1460 0
-1381 -1461 0
-1381 -1462 0
-1381 -1463 0
-1382 -1383 0
-1382 -1384 0
-1382 -1385 0
-1382 -1386 0
-1382 -1387 0
-1382 -1388 0
-1382 -1389 0
-1382 -1390 0
-1382 -1391 0
-1382 -1392 0
-1382 -1393 0
-1382 -1394 0
-1382 -1395 0
-1382 -1396 0
-1382 -1397 0
-1382 -1398 0
-1382 -1399 0
-1382 -1400 0
-1382 -1401 0
-1382 -1402 0
-1382 -1403 0
-1382 -1404 0
-1382 -1405 0
-1382 -1406 0
-1382 -1407 0
-1382 -1408 0
-1382 -1409 0
-1382 -1410 0
-1382 -1411 0
-1382 -1412 0
-1382 -1413 0
-1382 -1414 0
-1382 -1415 0
-1382 -1416 0
-1382 -1417 0
-1382 -1418 0
-1382 -1419 0
-1382 -1420 0
-1382 -1421 0
-1382 -1422 0
-1382 -1423 0
-1382 -1424 0
-1382 -1425 0
-1382 -1426 0
-1382 -1427 0
-1382 -1428 0
-1382 -1429 0
-1382 -1430 0
-1382 -1431 0
-1382 -1432 0
-1382 -1433 0
-1382 -1434 0
-1382 -1435 0
-1382 -1436 0
-1382 -1437 0
-1382 -1438 0
-1382 -1439 0
-1382 -1440 0
-1382 -1441 0
-1382 -1442 0
-1382 -1443 0
-1382 -1444 0
-1382 -1445 0
-1382 -1446 0
-1382 -1447 0
-1382 -1448 0
-1382 -1449 0
-1382 -1450 0
-1382 -1451 0
-1382 -1452 0
-1382 -1453 0
-1382 -1454 0
-1382 -1455 0
-1382 -1456 0
-1382 -1457 0
-1382 -1458 0
-1382 -1459 0
-1382 -1460 0
-1382 -1461 0
-1382 -1462 0
-1382 -1463 0
-1383 -1384 0
-1383 -1385 0
-1383 -1386 0
-1383 -1387 0
-1383 -1388 0
-1383 -1389 0
-1383 -1390 0
-1383 -1391 0
-1383 -1392 0
-1383 -1393 0
-1383 -1394 0
-1383 -1395 0
-1383 -1396 0
-1383 -1397 0
-1383 -1398 0
-1383 -1399 0
-1383 -1400 0
-1383 -1401 0
-1383 -1402 0
-1383 -1403 0
-1383 -1404 0
-1383 -1405 0
-1383 -1406 0
-1383 -1407 0
-1383 -1408 0
-1383 -1409 0
-1383 -1410 0
-1383 -1411 0
-1383 -1412 0
-1383 -1413 0
-1383 -1414 0
-1383 -1415 0
-1383 -1416 0
-1383 -1417 0
-1383 -1418 0
-1383 -1419 0
-1383 -1420 0
-1383 -1421 0
-1383 -1422 0
-1383 -1423 0
-1383 -1424 0
-1383 -1425 0
-1383 -1426 0
-1383 -1427 0
-1383 -1428 0
-1383 -1429 0
-1383 -1430 0
-1383 -1431 0
-1383 -1432 0
-1383 -1433 0
-1383 -1434 0
-1383 -1435 0
-1383 -1436 0
-1383 -1437 0
-1383 -1438 0
-1383 -1439 0
-1383 -1440 0
-1383 -1441 0
-1383 -1442 0
-1383 -1443 0
-1383 -1444 0
-1383 -1445 0
-1383 -1446 0
-1383 -1447 0
-1383 -1448 0
-1383 -1449 0
-1383 -1450 0
-1383 -1451 0
-1383 -1452 0
-1383 -1453 0
-1383 -1454 0
-1383 -1455 0
-1383 -1456 0
-1383 -1457 0
-1383 -1458 0
-1383 -1459 0
-1383 -1460 0
-1383 -1461 0
-1383 -1462 0
-1383 -1463 0
-1384 -1385 0
-1384 -1386 0
-1384 -1387 0
-1384 -1388 0
-1384 -1389 0
-1384 -1390 0
-1384 -1391 0
-1384 -1392 0
-1384 -1393 0
-1384 -1394 0
-1384 -1395 0
-1384 -1396 0
-1384 -1397 0
-1384 -1398 0
-1384 -1399 0
-1384 -1400 0
-1384 -1401 0
-1384 -1402 0
-1384 -1403 0
-1384 -1404 0
-1384 -1405 0
-1384 -1406 0
-1384 -1407 0
-1384 -1408 0
-1384 -1409 0
-1384 -1410 0
-1384 -1411 0
-1384 -1412 0
-1384 -1413 0
-1384 -1414 0
-1384 -1415 0
-1384 -1416 0
-1384 -1417 0
-1384 -1418 0
-1384 -1419 0
-1384 -1420 0
-1384 -1421 0
-1384 -1422 0
-1384 -1423 0
-1384 -1424 0
-1384 -1425 0
-1384 -1426 0
-1384 -1427 0
-1384 -1428 0
-1384 -1429 0
-1384 -1430 0
-1384 -1431 0
-1384 -1432 0
-1384 -1433 0
-1384 -1434 0
-1384 -1435 0
-1384 -1436 0
-1384 -1437 0
-1384 -1438 0
-1384 -1439 0
-1384 -1440 0
-1384 -1441 0
-1384 -1442 0
-1384 -1443 0
-1384 -1444 0
-1384 -1445 0
-1384 -1446 0
-1384 -1447 0
-1384 -1448 0
-1384 -1449 0
-1384 -1450 0
-1384 -1451 0
-1384 -1452 0
-1384 -1453 0
-1384 -1454 0
-1384 -1455 0
-1384 -1456 0
-1384 -1457 0
-1384 -1458 0
-1384 -1459 0
-1384 -1460 0
-1384 -1461 0
-1384 -1462 0
-1384 -1463 0
-1385 -1386 0
-1385 -1387 0
-1385 -1388 0
-1385 -1389 0
-1385 -1390 0
-1385 -1391 0
-1385 -1392 0
-1385 -1393 0
-1385 -1394 0
-1385 -1395 0
-1385 -1396 0
-1385 -1397 0
-1385 -1398 0
-1385 -1399 0
-1385 -1400 0
-1385 -1401 0
-1385 -1402 0
-1385 -1403 0
-1385 -1404 0
-1385 -1405 0
-1385 -1406 0
-1385 -1407 0
-1385 -1408 0
-1385 -1409 0
-1385 -1410 0
-1385 -1411 0
-1385 -1412 0
-1385 -1413 0
-1385 -1414 0
-1385 -1415 0
-1385 -1416 0
-1385 -1417 0
-1385 -1418 0
-1385 -1419 0
-1385 -1420 0
-1385 -1421 0
-1385 -1422 0
-1385 -1423 0
-1385 -1424 0
-1385 -1425 0
-1385 -1426 0
-1385 -1427 0
-1385 -1428 0
-1385 -1429 0
-1385 -1430 0
-1385 -1431 0
-1385 -1432 0
-1385 -1433 0
-1385 -1434 0
-1385 -1435 0
-1385 -1436 0
-1385 -1437 0
-1385 -1438 0
-1385 -1439 0
-1385 -1440 0
-1385 -1441 0
-1385 -1442 0
-1385 -1443 0
-1385 -1444 0
-1385 -1445 0
-1385 -1446 0
-1385 -1447 0
-1385 -1448 0
-1385 -1449 0
-1385 -1450 0
-1385 -1451 0
-1385 -1452 0
-1385 -1453 0
-1385 -1454 0
-1385 -1455 0
-1385 -1456 0
-1385 -1457 0
-1385 -1458 0
-1385 -1459 0
-1385 -1460 0
-1385 -1461 0
-1385 -1462 0
-1385 -1463 0
-1386 -1387 0
-1386 -1388 0
-1386 -1389 0
-1386 -1390 0
-1386 -1391 0
-1386 -1392 0
-1386 -1393 0
-1386 -1394 0
-1386 -1395 0
-1386 -1396 0
-1386 -1397 0
-1386 -1398 0
-1386 -1399 0
-1386 -1400 0
-1386 -1401 0
-1386 -1402 0
-1386 -1403 0
-1386 -1404 0
-1386 -1405 0
-1386 -1406 0
-1386 -1407 0
-1386 -1408 0
-1386 -1409 0
-1386 -1410 0
-1386 -1411 0
-1386 -1412 0
-1386 -1413 0
-1386 -1414 0
-1386 -1415 0
-1386 -1416 0
-1386 -1417 0
-1386 -1418 0
-1386 -1419 0
-1386 -1420 0
-1386 -1421 0
-1386 -1422 0
-1386 -1423 0
-1386 -1424 0
-1386 -1425 0
-1386 -1426 0
-1386 -1427 0
-1386 -1428 0
-1386 -1429 0
-1386 -1430 0
-1386 -1431 0
-1386 -1432 0
-1386 -1433 0
-1386 -1434 0
-1386 -1435 0
-1386 -1436 0
-1386 -1437 0
-1386 -1438 0
-1386 -1439 0
-1386 -1440 0
-1386 -1441 0
-1386 -1442 0
-1386 -1443 0
-1386 -1444 0
-1386 -1445 0
-1386 -1446 0
-1386 -1447 0
-1386 -1448 0
-1386 -1449 0
-1386 -1450 0
-1386 -1451 0
-1386 -1452 0
-1386 -1453 0
-1386 -1454 0
-1386 -1455 0
-1386 -1456 0
-1386 -1457 0
-1386 -1458 0
-1386 -1459 0
-1386 -1460 0
-1386 -1461 0
-1386 -1462 0
-1386 -1463 0
-1387 -1388 0
-1387 -1389 0
-1387 -1390 0
-1387 -1391 0
-1387 -1392 0
-1387 -1393 0
-1387 -1394 0
-1387 -1395 0
-1387 -1396 0
-1387 -1397 0
-1387 -1398 0
-1387 -1399 0
-1387 -1400 0
-1387 -1401 0
-1387 -1402 0
-1387 -1403 0
-1387 -1404 0
-1387 -1405 0
-1387 -1406 0
-1387 -1407 0
-1387 -1408 0
-1387 -1409 0
-1387 -1410 0
-1387 -1411 0
-1387 -1412 0
-1387 -1413 0
-1387 -1414 0
-1387 -1415 0
-1387 -1416 0
-1387 -1417 0
-1387 -1418 0
-1387 -1419 0
-1387 -1420 0
-1387 -1421 0
-1387 -1422 0
-1387 -1423 0
-1387 -1424 0
-1387 -1425 0
-1387 -1426 0
-1387 -1427 0
-1387 -1428 0
-1387 -1429 0
-1387 -1430 0
-1387 -1431 0
-1387 -1432 0
-1387 -1433 0
-1387 -1434 0
-1387 -1435 0
-1387 -1436 0
-1387 -1437 0
-1387 -1438 0
-1387 -1439 0
-1387 -1440 0
-1387 -1441 0
-1387 -1442 0
-1387 -1443 0
-1387 -1444 0
-1387 -1445 0
-1387 -1446 0
-1387 -1447 0
-1387 -1448 0
-1387 -1449 0
-1387 -1450 0
-1387 -1451 0
-1387 -1452 0
-1387 -1453 0
-1387 -1454 0
-1387 -1455 0
-1387 -1456 0
-1387 -1457 0
-1387 -1458 0
-1387 -1459 0
-1387 -1460 0
-1387 -1461 0
-1387 -1462 0
-1387 -1463 0
-1388 -1389 0
-1388 -1390 0
-1388 -1391 0
-1388 -1392 0
-1388 -1393 0
-1388 -1394 0
-1388 -1395 0
-1388 -1396 0
-1388 -1397 0
-1388 -1398 0
-1388 -1399 0
-1388 -1400 0
-1388 -1401 0
-1388 -1402 0
-1388 -1403 0
-1388 -1404 0
-1388 -1405 0
-1388 -1406 0
-1388 -1407 0
-1388 -1408 0
-1388 -1409 0
-1388 -1410 0
-1388 -1411 0
-1388 -1412 0
-1388 -1413 0
-1388 -1414 0
-1388 -1415 0
-1388 -1416 0
-1388 -1417 0
-1388 -1418 0
-1388 -1419 0
-1388 -1420 0
-1388 -1421 0
-1388 -1422 0
-1388 -1423 0
-1388 -1424 0
-1388 -1425 0
-1388 -1426 0
-1388 -1427 0
-1388 -1428 0
-1388 -1429 0
-1388 -1430 0
-1388 -1431 0
-1388 -1432 0
-1388 -1433 0
-1388 -1434 0
-1388 -1435 0
-1388 -1436 0
-1388 -1437 0
-1388 -1438 0
-1388 -1439 0
-1388 -1440 0
-1388 -1441 0
-1388 -1442 0
-1388 -1443 0
-1388 -1444 0
-1388 -1445 0
-1388 -1446 0
-1388 -1447 0
-1388 -1448 0
-1388 -1449 0
-1388 -1450 0
-1388 -1451 0
-1388 -1452 0
-1388 -1453 0
-1388 -1454 0
-1388 -1455 0
-1388 -1456 0
-1388 -1457 0
-1388 -1458 0
-1388 -1459 0
-1388 -1460 0
-1388 -1461 0
-1388 -1462 0
-1388 -1463 0
-1389 -1390 0
-1389 -1391 0
-1389 -1392 0
-1389 -1393 0
-1389 -1394 0
-1389 -1395 0
-1389 -1396 0
-1389 -1397 0
-1389 -1398 0
-1389 -1399 0
-1389 -1400 0
-1389 -1401 0
-1389 -1402 0
-1389 -1403 0
-1389 -1404 0
-1389 -1405 0
-1389 -1406 0
-1389 -1407 0
-1389 -1408 0
-1389 -1409 0
-1389 -1410 0
-1389 -1411 0
-1389 -1412 0
-1389 -1413 0
-1389 -1414 0
-1389 -1415 0
-1389 -1416 0
-1389 -1417 0
-1389 -1418 0
-1389 -1419 0
-1389 -1420 0
-1389 -1421 0
-1389 -1422 0
-1389 -1423 0
-1389 -1424 0
-1389 -1425 0
-1389 -1426 0
-1389 -1427 0
-1389 -1428 0
-1389 -1429 0
-1389 -1430 0
-1389 -1431 0
-1389 -1432 0
-1389 -1433 0
-1389 -1434 0
-1389 -1435 0
-1389 -1436 0
-1389 -1437 0
-1389 -1438 0
-1389 -1439 0
-1389 -1440 0
-1389 -1441 0
-1389 -1442 0
-1389 -1443 0
-1389 -1444 0
-1389 -1445 0
-1389 -1446 0
-1389 -1447 0
-1389 -1448 0
-1389 -1449 0
-1389 -1450 0
-1389 -1451 0
-1389 -1452 0
-1389 -1453 0
-1389 -1454 0
-1389 -1455 0
-1389 -1456 0
-1389 -1457 0
-1389 -1458 0
-1389 -1459 0
-1389 -1460 0
-1389 -1461 0
-1389 -1462 0
-1389 -1463 0
-1390 -1391 0
-1390 -1392 0
-1390 -1393 0
-1390 -1394 0
-1390 -1395 0
-1390 -1396 0
-1390 -1397 0
-1390 -1398 0
-1390 -1399 0
-1390 -1400 0
-1390 -1401 0
-1390 -1402 0
-1390 -1403 0
-1390 -1404 0
-1390 -1405 0
-1390 -1406 0
-1390 -1407 0
-1390 -1408 0
-1390 -1409 0
-1390 -1410 0
-1390 -1411 0
-1390 -1412 0
-1390 -1413 0
-1390 -1414 0
-1390 -1415 0
-1390 -1416 0
-1390 -1417 0
-1390 -1418 0
-1390 -1419 0
-1390 -1420 0
-1390 -1421 0
-1390 -1422 0
-1390 -1423 0
-1390 -1424 0
-1390 -1425 0
-1390 -1426 0
-1390 -1427 0
-1390 -1428 0
-1390 -1429 0
-1390 -1430 0
-1390 -1431 0
-1390 -1432 0
-1390 -1433 0
-1390 -1434 0
-1390 -1435 0
-1390 -1436 0
-1390 -1437 0
-1390 -1438 0
-1390 -1439 0
-1390 -1440 0
-1390 -1441 0
-1390 -1442 0
-1390 -1443 0
-1390 -1444 0
-1390 -1445 0
-1390 -1446 0
-1390 -1447 0
-1390 -1448 0
-1390 -1449 0
-1390 -1450 0
-1390 -1451 0
-1390 -1452 0
-1390 -1453 0
-1390 -1454 0
-1390 -1455 0
-1390 -1456 0
-1390 -1457 0
-1390 -1458 0
-1390 -1459 0
-1390 -1460 0
-1390 -1461 0
-1390 -1462 0
-1390 -1463 0
-1391 -1392 0
-1391 -1393 0
-1391 -1394 0
-1391 -1395 0
-1391 -1396 0
-1391 -1397 0
-1391 -1398 0
-1391 -1399 0
-1391 -1400 0
-1391 -1401 0
-1391 -1402 0
-1391 -1403 0
-1391 -1404 0
-1391 -1405 0
-1391 -1406 0
-1391 -1407 0
-1391 -1408 0
-1391 -1409 0
-1391 -1410 0
-1391 -1411 0
-1391 -1412 0
-1391 -1413 0
-1391 -1414 0
-1391 -1415 0
-1391 -1416 0
-1391 -1417 0
-1391 -1418 0
-1391 -1419 0
-1391 -1420 0
-1391 -1421 0
-1391 -1422 0
-1391 -1423 0
-1391 -1424 0
-1391 -1425 0
-1391 -1426 0
-1391 -1427 0
-1391 -1428 0
-1391 -1429 0
-1391 -1430 0
-1391 -1431 0
-1391 -1432 0
-1391 -1433 0
-1391 -1434 0
-1391 -1435 0
-1391 -1436 0
-1391 -1437 0
-1391 -1438 0
-1391 -1439 0
-1391 -1440 0
-1391 -1441 0
-1391 -1442 0
-1391 -1443 0
-1391 -1444 0
-1391 -1445 0
-1391 -1446 0
-1391 -1447 0
-1391 -1448 0
-1391 -1449 0
-1391 -1450 0
-1391 -1451 0
-1391 -1452 0
-1391 -1453 0
-1391 -1454 0
-1391 -1455 0
-1391 -1456 0
-1391 -1457 0
-1391 -1458 0
-1391 -1459 0
-1391 -1460 0
-1391 -1461 0
-1391 -1462 0
-1391 -1463 0
-1392 -1393 0
-1392 -1394 0
-1392 -1395 0
-1392 -1396 0
-1392 -1397 0
-1392 -1398 0
-1392 -1399 0
-1392 -1400 0
-1392 -1401 0
-1392 -1402 0
-1392 -1403 0
-1392 -1404 0
-1392 -1405 0
-1392 -1406 0
-1392 -1407 0
-1392 -1408 0
-1392 -1409 0
-1392 -1410 0
-1392 -1411 0
-1392 -1412 0
-1392 -1413 0
-1392 -1414 0
-1392 -1415 0
-1392 -1416 0
-1392 -1417 0
-1392 -1418 0
-1392 -1419 0
-1392 -1420 0
-1392 -1421 0
-1392 -1422 0
-1392 -1423 0
-1392 -1424 0
-1392 -1425 0
-1392 -1426 0
-1392 -1427 0
-1392 -1428 0
-1392 -1429 0
-1392 -1430 0
-1392 -1431 0
-1392 -1432 0
-1392 -1433 0
-1392 -1434 0
-1392 -1435 0
-1392 -1436 0
-1392 -1437 0
-1392 -1438 0
-1392 -1439 0
-1392 -1440 0
-1392 -1441 0
-1392 -1442 0
-1392 -1443 0
-1392 -1444 0
-1392 -1445 0
-1392 -1446 0
-1392 -1447 0
-1392 -1448 0
-1392 -1449 0
-1392 -1450 0
-1392 -1451 0
-1392 -1452 0
-1392 -1453 0
-1392 -1454 0
-1392 -1455 0
-1392 -1456 0
-1392 -1457 0
-1392 -1458 0
-1392 -1459 0
-1392 -1460 0
-1392 -1461 0
-1392 -1462 0
-1392 -1463 0
-1393 -1394 0
-1393 -1395 0
-1393 -1396 0
-1393 -1397 0
-1393 -1398 0
-1393 -1399 0
-1393 -1400 0
-1393 -1401 0
-1393 -1402 0
-1393 -1403 0
-1393 -1404 0
-1393 -1405 0
-1393 -1406 0
-1393 -1407 0
-1393 -1408 0
-1393 -1409 0
-1393 -1410 0
-1393 -1411 0
-1393 -1412 0
-1393 -1413 0
-1393 -1414 0
-1393 -1415 0
-1393 -1416 0
-1393 -1417 0
-1393 -1418 0
-1393 -1419 0
-1393 -1420 0
-1393 -1421 0
-1393 -1422 0
-1393 -1423 0
-1393 -1424 0
-1393 -1425 0
-1393 -1426 0
-1393 -1427 0
-1393 -1428 0
-1393 -1429 0
-1393 -1430 0
-1393 -1431 0
-1393 -1432 0
-1393 -1433 0
-1393 -1434 0
-1393 -1435 0
-1393 -1436 0
-1393 -1437 0
-1393 -1438 0
-1393 -1439 0
-1393 -1440 0
-1393 -1441 0
-1393 -1442 0
-1393 -1443 0
-1393 -1444 0
-1393 -1445 0
-1393 -1446 0
-1393 -1447 0
-1393 -1448 0
-1393 -1449 0
-1393 -1450 0
-1393 -1451 0
-1393 -1452 0
-1393 -1453 0
-1393 -1454 0
-1393 -1455 0
-1393 -1456 0
-1393 -1457 0
-1393 -1458 0
-1393 -1459 0
-1393 -1460 0
-1393 -1461 0
-1393 -1462 0
-1393 -1463 0
-1394 -1395 0
-1394 -1396 0
-1394 -1397 0
-1394 -1398 0
-1394 -1399 0
-1394 -1400 0
-1394 -1401 0
-1394 -1402 0
-1394 -1403 0
-1394 -1404 0
-1394 -1405 0
-1394 -1406 0
-1394 -1407 0
-1394 -1408 0
-1394 -1409 0
-1394 -1410 0
-1394 -1411 0
-1394 -1412 0
-1394 -1413 0
-1394 -1414 0
-1394 -1415 0
-1394 -1416 0
-1394 -1417 0
-1394 -1418 0
-1394 -1419 0
-1394 -1420 0
-1394 -1421 0
-1394 -1422 0
-1394 -1423 0
-1394 -1424 0
-1394 -1425 0
-1394 -1426 0
-1394 -1427 0
-1394 -1428 0
-1394 -1429 0
-1394 -1430 0
-1394 -1431 0
-1394 -1432 0
-1394 -1433 0
-1394 -1434 0
-1394 -1435 0
-1394 -1436 0
-1394 -1437 0
-1394 -1438 0
-1394 -1439 0
-1394 -1440 0
-1394 -1441 0
-1394 -1442 0
-1394 -1443 0
-1394 -1444 0
-1394 -1445 0
-1394 -1446 0
-1394 -1447 0
-1394 -1448 0
-1394 -1449 0
-1394 -1450 0
-1394 -1451 0
-1394 -1452 0
-1394 -1453 0
-1394 -1454 0
-1394 -1455 0
-1394 -1456 0
-1394 -1457 0
-1394 -1458 0
-1394 -1459 0
-1394 -1460 0
-1394 -1461 0
-1394 -1462 0
-1394 -1463 0
-1395 -1396 0
-1395 -1397 0
-1395 -1398 0
-1395 -1399 0
-1395 -1400 0
-1395 -1401 0
-1395 -1402 0
-1395 -1403 0
-1395 -1404 0
-1395 -1405 0
-1395 -1406 0
-1395 -1407 0
-1395 -1408 0
-1395 -1409 0
-1395 -1410 0
-1395 -1411 0
-1395 -1412 0
-1395 -1413 0
-1395 -1414 0
-1395 -1415 0
-1395 -1416 0
-1395 -1417 0
-1395 -1418 0
-1395 -1419 0
-1395 -1420 0
-1395 -1421 0
-1395 -1422 0
-1395 -1423 0
-1395 -1424 0
-1395 -1425 0
-1395 -1426 0
-1395 -1427 0
-1395 -1428 0
-1395 -1429 0
-1395 -1430 0
-1395 -1431 0
-1395 -1432 0
-1395 -1433 0
-1395 -1434 0
-1395 -1435 0
-1395 -1436 0
-1395 -1437 0
-1395 -1438 0
-1395 -1439 0
-1395 -1440 0
-1395 -1441 0
-1395 -1442 0
-1395 -1443 0
-1395 -1444 0
-1395 -1445 0
-1395 -1446 0
-1395 -1447 0
-1395 -1448 0
-1395 -1449 0
-1395 -1450 0
-1395 -1451 0
-1395 -1452 0
-1395 -1453 0
-1395 -1454 0
-1395 -1455 0
-1395 -1456 0
-1395 -1457 0
-1395 -1458 0
-1395 -1459 0
-1395 -1460 0
-1395 -1461 0
-1395 -1462 0
-1395 -1463 0
-1396 -1397 0
-1396 -1398 0
-1396 -1399 0
-1396 -1400 0
-1396 -1401 0
-1396 -1402 0
-1396 -1403 0
-1396 -1404 0
-1396 -1405 0
-1396 -1406 0
-1396 -1407 0
-1396 -1408 0
-1396 -1409 0
-1396 -1410 0
-1396 -1411 0
-1396 -1412 0
-1396 -1413 0
-1396 -1414 0
-1396 -1415 0
-1396 -1416 0
-1396 -1417 0
-1396 -1418 0
-1396 -1419 0
-1396 -1420 0
-1396 -1421 0
-1396 -1422 0
-1396 -1423 0
-1396 -1424 0
-1396 -1425 0
-1396 -1426 0
-1396 -1427 0
-1396 -1428 0
-1396 -1429 0
-1396 -1430 0
-1396 -1431 0
-1396 -1432 0
-1396 -1433 0
-1396 -1434 0
-1396 -1435 0
-1396 -1436 0
-1396 -1437 0
-1396 -1438 0
-1396 -1439 0
-1396 -1440 0
-1396 -1441 0
-1396 -1442 0
-1396 -1443 0
-1396 -1444 0
-1396 -1445 0
-1396 -1446 0
-1396 -1447 0
-1396 -1448 0
-1396 -1449 0
-1396 -1450 0
-1396 -1451 0
-1396 -1452 0
-1396 -1453 0
-1396 -1454 0
-1396 -1455 0
-1396 -1456 0
-1396 -1457 0
-1396 -1458 0
-1396 -1459 0
-1396 -1460 0
-1396 -1461 0
-1396 -1462 0
-1396 -1463 0
-1397 -1398 0
-1397 -1399 0
-1397 -1400 0
-1397 -1401 0
-1397 -1402 0
-1397 -1403 0
-1397 -1404 0
-1397 -1405 0
-1397 -1406 0
-1397 -1407 0
-1397 -1408 0
-1397 -1409 0
-1397 -1410 0
-1397 -1411 0
-1397 -1412 0
-1397 -1413 0
-1397 -1414 0
-1397 -1415 0
-1397 -1416 0
-1397 -1417 0
-1397 -1418 0
-1397 -1419 0
-1397 -1420 0
-1397 -1421 0
-1397 -1422 0
-1397 -1423 0
-1397 -1424 0
-1397 -1425 0
-1397 -1426 0
-1397 -1427 0
-1397 -1428 0
-1397 -1429 0
-1397 -1430 0
-1397 -1431 0
-1397 -1432 0
-1397 -1433 0
-1397 -1434 0
-1397 -1435 0
-1397 -1436 0
-1397 -1437 0
-1397 -1438 0
-1397 -1439 0
-1397 -1440 0
-1397 -1441 0
-1397 -1442 0
-1397 -1443 0
-1397 -1444 0
-1397 -1445 0
-1397 -1446 0
-1397 -1447 0
-1397 -1448 0
-1397 -1449 0
-1397 -1450 0
-1397 -1451 0
-1397 -1452 0
-1397 -1453 0
-1397 -1454 0
-1397 -1455 0
-1397 -1456 0
-1397 -1457 0
-1397 -1458 0
-1397 -1459 0
-1397 -1460 0
-1397 -1461 0
-1397 -1462 0
-1397 -1463 0
-1398 -1399 0
-1398 -1400 0
-1398 -1401 0
-1398 -1402 0
-1398 -1403 0
-1398 -1404 0
-1398 -1405 0
-1398 -1406 0
-1398 -1407 0
-1398 -1408 0
-1398 -1409 0
-1398 -1410 0
-1398 -1411 0
-1398 -1412 0
-1398 -1413 0
-1398 -1414 0
-1398 -1415 0
-1398 -1416 0
-1398 -1417 0
-1398 -1418 0
-1398 -1419 0
-1398 -1420 0
-1398 -1421 0
-1398 -1422 0
-1398 -1423 0
-1398 -1424 0
-1398 -1425 0
-1398 -1426 0
-1398 -1427 0
-1398 -1428 0
-1398 -1429 0
-1398 -1430 0
-1398 -1431 0
-1398 -1432 0
-1398 -1433 0
-1398 -1434 0
-1398 -1435 0
-1398 -1436 0
-1398 -1437 0
-1398 -1438 0
-1398 -1439 0
-1398 -1440 0
-1398 -1441 0
-1398 -1442 0
-1398 -1443 0
-1398 -1444 0
-1398 -1445 0
-1398 -1446 0
-1398 -1447 0
-1398 -1448 0
-1398 -1449 0
-1398 -1450 0
-1398 -1451 0
-1398 -1452 0
-1398 -1453 0
-1398 -1454 0
-1398 -1455 0
-1398 -1456 0
-1398 -1457 0
-1398 -1458 0
-1398 -1459 0
-1398 -1460 0
-1398 -1461 0
-1398 -1462 0
-1398 -1463 0
-1399 -1400 0
-1399 -1401 0
-1399 -1402 0
-1399 -1403 0
-1399 -1404 0
-1399 -1405 0
-1399 -1406 0
-1399 -1407 0
-1399 -1408 0
-1399 -1409 0
-1399 -1410 0
-1399 -1411 0
-1399 -1412 0
-1399 -1413 0
-1399 -1414 0
-1399 -1415 0
-1399 -1416 0
-1399 -1417 0
-1399 -1418 0
-1399 -1419 0
-1399 -1420 0
-1399 -1421 0
-1399 -1422 0
-1399 -1423 0
-1399 -1424 0
-1399 -1425 0
-1399 -1426 0
-1399 -1427 0
-1399 -1428 0
-1399 -1429 0
-1399 -1430 0
-1399 -1431 0
-1399 -1432 0
-1399 -1433 0
-1399 -1434 0
-1399 -1435 0
-1399 -1436 0
-1399 -1437 0
-1399 -1438 0
-1399 -1439 0
-1399 -1440 0
-1399 -1441 0
-1399 -1442 0
-1399 -1443 0
-1399 -1444 0
-1399 -1445 0
-1399 -1446 0
-1399 -1447 0
-1399 -1448 0
-1399 -1449 0
-1399 -1450 0
-1399 -1451 0
-1399 -1452 0
-1399 -1453 0
-1399 -1454 0
-1399 -1455 0
-1399 -1456 0
-1399 -1457 0
-1399 -1458 0
-1399 -1459 0
-1399 -1460 0
-1399 -1461 0
-1399 -1462 0
-1399 -1463 0
-1400 -1401 0
-1400 -1402 0
-1400 -1403 0
-1400 -1404 0
-1400 -1405 0
-1400 -1406 0
-1400 -1407 0
-1400 -1408 0
-1400 -1409 0
-1400 -1410 0
-1400 -1411 0
-1400 -1412 0
-1400 -1413 0
-1400 -1414 0
-1400 -1415 0
-1400 -1416 0
-1400 -1417 0
-1400 -1418 0
-1400 -1419 0
-1400 -1420 0
-1400 -1421 0
-1400 -1422 0
-1400 -1423 0
-1400 -1424 0
-1400 -1425 0
-1400 -1426 0
-1400 -1427 0
-1400 -1428 0
-1400 -1429 0
-1400 -1430 0
-1400 -1431 0
-1400 -1432 0
-1400 -1433 0
-1400 -1434 0
-1400 -1435 0
-1400 -1436 0
-1400 -1437 0
-1400 -1438 0
-1400 -1439 0
-1400 -1440 0
-1400 -1441 0
-1400 -1442 0
-1400 -1443 0
-1400 -1444 0
-1400 -1445 0
-1400 -1446 0
-1400 -1447 0
-1400 -1448 0
-1400 -1449 0
-1400 -1450 0
-1400 -1451 0
-1400 -1452 0
-1400 -1453 0
-1400 -1454 0
-1400 -1455 0
-1400 -1456 0
-1400 -1457 0
-1400 -1458 0
-1400 -1459 0
-1400 -1460 0
-1400 -1461 0
-1400 -1462 0
-1400 -1463 0
-1401 -1402 0
-1401 -1403 0
-1401 -1404 0
-1401 -1405 0
-1401 -1406 0
-1401 -1407 0
-1401 -1408 0
-1401 -1409 0
-1401 -1410 0
-1401 -1411 0
-1401 -1412 0
-1401 -1413 0
-1401 -1414 0
-1401 -1415 0
-1401 -1416 0
-1401 -1417 0
-1401 -1418 0
-1401 -1419 0
-1401 -1420 0
-1401 -1421 0
-1401 -1422 0
-1401 -1423 0
-1401 -1424 0
-1401 -1425 0
-1401 -1426 0
-1401 -1427 0
-1401 -1428 0
-1401 -1429 0
-1401 -1430 0
-1401 -1431 0
-1401 -1432 0
-1401 -1433 0
-1401 -1434 0
-1401 -1435 0
-1401 -1436 0
-1401 -1437 0
-1401 -1438 0
-1401 -1439 0
-1401 -1440 0
-1401 -1441 0
-1401 -1442 0
-1401 -1443 0
-1401 -1444 0
-1401 -1445 0
-1401 -1446 0
-1401 -1447 0
-1401 -1448 0
-1401 -1449 0
-1401 -1450 0
-1401 -1451 0
-1401 -1452 0
-1401 -1453 0
-1401 -1454 0
-1401 -1455 0
-1401 -1456 0
-1401 -1457 0
-1401 -1458 0
-1401 -1459 0
-1401 -1460 0
-1401 -1461 0
-1401 -1462 0
-1401 -1463 0
-1402 -1403 0
-1402 -1404 0
-1402 -1405 0
-1402 -1406 0
-1402 -1407 0
-1402 -1408 0
-1402 -1409 0
-1402 -1410 0
-1402 -1411 0
-1402 -1412 0
-1402 -1413 0
-1402 -1414 0
-1402 -1415 0
-1402 -1416 0
-1402 -1417 0
-1402 -1418 0
-1402 -1419 0
-1402 -1420 0
-1402 -1421 0
-1402 -1422 0
-1402 -1423 0
-1402 -1424 0
-1402 -1425 0
-1402 -1426 0
-1402 -1427 0
-1402 -1428 0
-1402 -1429 0
-1402 -1430 0
-1402 -1431 0
-1402 -1432 0
-1402 -1433 0
-1402 -1434 0
-1402 -1435 0
-1402 -1436 0
-1402 -1437 0
-1402 -1438 0
-1402 -1439 0
-1402 -1440 0
-1402 -1441 0
-1402 -1442 0
-1402 -1443 0
-1402 -1444 0
-1402 -1445 0
-1402 -1446 0
-1402 -1447 0
-1402 -1448 0
-1402 -1449 0
-1402 -1450 0
-1402 -1451 0
-1402 -1452 0
-1402 -1453 0
-1402 -1454 0
-1402 -1455 0
-1402 -1456 0
-1402 -1457 0
-1402 -1458 0
-1402 -1459 0
-1402 -1460 0
-1402 -1461 0
-1402 -1462 0
-1402 -1463 0
-1403 -1404 0
-1403 -1405 0
-1403 -1406 0
-1403 -1407 0
-1403 -1408 0
-1403 -1409 0
-1403 -1410 0
-1403 -1411 0
-1403 -1412 0
-1403 -1413 0
-1403 -1414 0
-1403 -1415 0
-1403 -1416 0
-1403 -1417 0
-1403 -1418 0
-1403 -1419 0
-1403 -1420 0
-1403 -1421 0
-1403 -1422 0
-1403 -1423 0
-1403 -1424 0
-1403 -1425 0
-1403 -1426 0
-1403 -1427 0
-1403 -1428 0
-1403 -1429 0
-1403 -1430 0
-1403 -1431 0
-1403 -1432 0
-1403 -1433 0
-1403 -1434 0
-1403 -1435 0
-1403 -1436 0
-1403 -1437 0
-1403 -1438 0
-1403 -1439 0
-1403 -1440 0
-1403 -1441 0
-1403 -1442 0
-1403 -1443 0
-1403 -1444 0
-1403 -1445 0
-1403 -1446 0
-1403 -1447 0
-1403 -1448 0
-1403 -1449 0
-1403 -1450 0
-1403 -1451 0
-1403 -1452 0
-1403 -1453 0
-1403 -1454 0
-1403 -1455 0
-1403 -1456 0
-1403 -1457 0
-1403 -1458 0
-1403 -1459 0
-1403 -1460 0
-1403 -1461 0
-1403 -1462 0
-1403 -1463 0
-1404 -1405 0
-1404 -1406 0
-1404 -1407 0
-1404 -1408 0
-1404 -1409 0
-1404 -1410 0
-1404 -1411 0
-1404 -1412 0
-1404 -1413 0
-1404 -1414 0
-1404 -1415 0
-1404 -1416 0
-1404 -1417 0
-1404 -1418 0
-1404 -1419 0
-1404 -1420 0
-1404 -1421 0
-1404 -1422 0
-1404 -1423 0
-1404 -1424 0
-1404 -1425 0
-1404 -1426 0
-1404 -1427 0
-1404 -1428 0
-1404 -1429 0
-1404 -1430 0
-1404 -1431 0
-1404 -1432 0
-1404 -1433 0
-1404 -1434 0
-1404 -1435 0
-1404 -1436 0
-1404 -1437 0
-1404 -1438 0
-1404 -1439 0
-1404 -1440 0
-1404 -1441 0
-1404 -1442 0
-1404 -1443 0
-1404 -1444 0
-1404 -1445 0
-1404 -1446 0
-1404 -1447 0
-1404 -1448 0
-1404 -1449 0
-1404 -1450 0
-1404 -1451 0
-1404 -1452 0
-1404 -1453 0
-1404 -1454 0
-1404 -1455 0
-1404 -1456 0
-1404 -1457 0
-1404 -1458 0
-1404 -1459 0
-1404 -1460 0
-1404 -1461 0
-1404 -1462 0
-1404 -1463 0
-1405 -1406 0
-1405 -1407 0
-1405 -1408 0
-1405 -1409 0
-1405 -1410 0
-1405 -1411 0
-1405 -1412 0
-1405 -1413 0
-1405 -1414 0
-1405 -1415 0
-1405 -1416 0
-1405 -1417 0
-1405 -1418 0
-1405 -1419 0
-1405 -1420 0
-1405 -1421 0
-1405 -1422 0
-1405 -1423 0
-1405 -1424 0
-1405 -1425 0
-1405 -1426 0
-1405 -1427 0
-1405 -1428 0
-1405 -1429 0
-1405 -1430 0
-1405 -1431 0
-1405 -1432 0
-1405 -1433 0
-1405 -1434 0
-1405 -1435 0
-1405 -1436 0
-1405 -1437 0
-1405 -1438 0
-1405 -1439 0
-1405 -1440 0
-1405 -1441 0
-1405 -1442 0
-1405 -1443 0
-1405 -1444 0
-1405 -1445 0
-1405 -1446 0
-1405 -1447 0
-1405 -1448 0
-1405 -1449 0
-1405 -1450 0
-1405 -1451 0
-1405 -1452 0
-1405 -1453 0
-1405 -1454 0
-1405 -1455 0
-1405 -1456 0
-1405 -1457 0
-1405 -1458 0
-1405 -1459 0
-1405 -1460 0
-1405 -1461 0
-1405 -1462 0
-1405 -1463 0
-1406 -1407 0
-1406 -1408 0
-1406 -1409 0
-1406 -1410 0
-1406 -1411 0
-1406 -1412 0
-1406 -1413 0
-1406 -1414 0
-1406 -1415 0
-1406 -1416 0
-1406 -1417 0
-1406 -1418 0
-1406 -1419 0
-1406 -1420 0
-1406 -1421 0
-1406 -1422 0
-1406 -1423 0
-1406 -1424 0
-1406 -1425 0
-1406 -1426 0
-1406 -1427 0
-1406 -1428 0
-1406 -1429 0
-1406 -1430 0
-1406 -1431 0
-1406 -1432 0
-1406 -1433 0
-1406 -1434 0
-1406 -1435 0
-1406 -1436 0
-1406 -1437 0
-1406 -1438 0
-1406 -1439 0
-1406 -1440 0
-1406 -1441 0
-1406 -1442 0
-1406 -1443 0
-1406 -1444 0
-1406 -1445 0
-1406 -1446 0
-1406 -1447 0
-1406 -1448 0
-1406 -1449 0
-1406 -1450 0
-1406 -1451 0
-1406 -1452 0
-1406 -1453 0
-1406 -1454 0
-1406 -1455 0
-1406 -1456 0
-1406 -1457 0
-1406 -1458 0
-1406 -1459 0
-1406 -1460 0
-1406 -1461 0
-1406 -1462 0
-1406 -1463 0
-1407 -1408 0
-1407 -1409 0
-1407 -1410 0
-1407 -1411 0
-1407 -1412 0
-1407 -1413 0
-1407 -1414 0
-1407 -1415 0
-1407 -1416 0
-1407 -1417 0
-1407 -1418 0
-1407 -1419 0
-1407 -1420 0
-1407 -1421 0
-1407 -1422 0
-1407 -1423 0
-1407 -1424 0
-1407 -1425 0
-1407 -1426 0
-1407 -1427 0
-1407 -1428 0
-1407 -1429 0
-1407 -1430 0
-1407 -1431 0
-1407 -1432 0
-1407 -1433 0
-1407 -1434 0
-1407 -1435 0
-1407 -1436 0
-1407 -1437 0
-1407 -1438 0
-1407 -1439 0
-1407 -1440 0
-1407 -1441 0
-1407 -1442 0
-1407 -1443 0
-1407 -1444 0
-1407 -1445 0
-1407 -1446 0
-1407 -1447 0
-1407 -1448 0
-1407 -1449 0
-1407 -1450 0
-1407 -1451 0
-1407 -1452 0
-1407 -1453 0
-1407 -1454 0
-1407 -1455 0
-1407 -1456 0
-1407 -1457 0
-1407 -1458 0
-1407 -1459 0
-1407 -1460 0
-1407 -1461 0
-1407 -1462 0
-1407 -1463 0
-1408 -1409 0
-1408 -1410 0
-1408 -1411 0
-1408 -1412 0
-1408 -1413 0
-1408 -1414 0
-1408 -1415 0
-1408 -1416 0
-1408 -1417 0
-1408 -1418 0
-1408 -1419 0
-1408 -1420 0
-1408 -1421 0
-1408 -1422 0
-1408 -1423 0
-1408 -1424 0
-1408 -1425 0
-1408 -1426 0
-1408 -1427 0
-1408 -1428 0
-1408 -1429 0
-1408 -1430 0
-1408 -1431 0
-1408 -1432 0
-1408 -1433 0
-1408 -1434 0
-1408 -1435 0
-1408 -1436 0
-1408 -1437 0
-1408 -1438 0
-1408 -1439 0
-1408 -1440 0
-1408 -1441 0
-1408 -1442 0
-1408 -1443 0
-1408 -1444 0
-1408 -1445 0
-1408 -1446 0
-1408 -1447 0
-1408 -1448 0
-1408 -1449 0
-1408 -1450 0
-1408 -1451 0
-1408 -1452 0
-1408 -1453 0
-1408 -1454 0
-1408 -1455 0
-1408 -1456 0
-1408 -1457 0
-1408 -1458 0
-1408 -1459 0
-1408 -1460 0
-1408 -1461 0
-1408 -1462 0
-1408 -1463 0
-1409 -1410 0
-1409 -1411 0
-1409 -1412 0
-1409 -1413 0
-1409 -1414 0
-1409 -1415 0
-1409 -1416 0
-1409 -1417 0
-1409 -1418 0
-1409 -1419 0
-1409 -1420 0
-1409 -1421 0
-1409 -1422 0
-1409 -1423 0
-1409 -1424 0
-1409 -1425 0
-1409 -1426 0
-1409 -1427 0
-1409 -1428 0
-1409 -1429 0
-1409 -1430 0
-1409 -1431 0
-1409 -1432 0
-1409 -1433 0
-1409 -1434 0
-1409 -1435 0
-1409 -1436 0
-1409 -1437 0
-1409 -1438 0
-1409 -1439 0
-1409 -1440 0
-1409 -1441 0
-1409 -1442 0
-1409 -1443 0
-1409 -1444 0
-1409 -1445 0
-1409 -1446 0
-1409 -1447 0
-1409 -1448 0
-1409 -1449 0
-1409 -1450 0
-1409 -1451 0
-1409 -1452 0
-1409 -1453 0
-1409 -1454 0
-1409 -1455 0
-1409 -1456 0
-1409 -1457 0
-1409 -1458 0
-1409 -1459 0
-1409 -1460 0
-1409 -1461 0
-1409 -1462 0
-1409 -1463 0
-1410 -1411 0
-1410 -1412 0
-1410 -1413 0
-1410 -1414 0
-1410 -1415 0
-1410 -1416 0
-1410 -1417 0
-1410 -1418 0
-1410 -1419 0
-1410 -1420 0
-1410 -1421 0
-1410 -1422 0
-1410 -1423 0
-1410 -1424 0
-1410 -1425 0
-1410 -1426 0
-1410 -1427 0
-1410 -1428 0
-1410 -1429 0
-1410 -1430 0
-1410 -1431 0
-1410 -1432 0
-1410 -1433 0
-1410 -1434 0
-1410 -1435 0
-1410 -1436 0
-1410 -1437 0
-1410 -1438 0
-1410 -1439 0
-1410 -1440 0
-1410 -1441 0
-1410 -1442 0
-1410 -1443 0
-1410 -1444 0
-1410 -1445 0
-1410 -1446 0
-1410 -1447 0
-1410 -1448 0
-1410 -1449 0
-1410 -1450 0
-1410 -1451 0
-1410 -1452 0
-1410 -1453 0
-1410 -1454 0
-1410 -1455 0
-1410 -1456 0
-1410 -1457 0
-1410 -1458 0
-1410 -1459 0
-1410 -1460 0
-1410 -1461 0
-1410 -1462 0
-1410 -1463 0
-1411 -1412 0
-1411 -1413 0
-1411 -1414 0
-1411 -1415 0
-1411 -1416 0
-1411 -1417 0
-1411 -1418 0
-1411 -1419 0
-1411 -1420 0
-1411 -1421 0
-1411 -1422 0
-1411 -1423 0
-1411 -1424 0
-1411 -1425 0
-1411 -1426 0
-1411 -1427 0
-1411 -1428 0
-1411 -1429 0
-1411 -1430 0
-1411 -1431 0
-1411 -1432 0
-1411 -1433 0
-1411 -1434 0
-1411 -1435 0
-1411 -1436 0
-1411 -1437 0
-1411 -1438 0
-1411 -1439 0
-1411 -1440 0
-1411 -1441 0
-1411 -1442 0
-1411 -1443 0
-1411 -1444 0
-1411 -1445 0
-1411 -1446 0
-1411 -1447 0
-1411 -1448 0
-1411 -1449 0
-1411 -1450 0
-1411 -1451 0
-1411 -1452 0
-1411 -1453 0
-1411 -1454 0
-1411 -1455 0
-1411 -1456 0
-1411 -1457 0
-1411 -1458 0
-1411 -1459 0
-1411 -1460 0
-1411 -1461 0
-1411 -1462 0
-1411 -1463 0
-1412 -1413 0
-1412 -1414 0
-1412 -1415 0
-1412 -1416 0
-1412 -1417 0
-1412 -1418 0
-1412 -1419 0
-1412 -1420 0
-1412 -1421 0
-1412 -1422 0
-1412 -1423 0
-1412 -1424 0
-1412 -1425 0
-1412 -1426 0
-1412 -1427 0
-1412 -1428 0
-1412 -1429 0
-1412 -1430 0
-1412 -1431 0
-1412 -1432 0
-1412 -1433 0
-1412 -1434 0
-1412 -1435 0
-1412 -1436 0
-1412 -1437 0
-1412 -1438 0
-1412 -1439 0
-1412 -1440 0
-1412 -1441 0
-1412 -1442 0
-1412 -1443 0
-1412 -1444 0
-1412 -1445 0
-1412 -1446 0
-1412 -1447 0
-1412 -1448 0
-1412 -1449 0
-1412 -1450 0
-1412 -1451 0
-1412 -1452 0
-1412 -1453 0
-1412 -1454 0
-1412 -1455 0
-1412 -1456 0
-1412 -1457 0
-1412 -1458 0
-1412 -1459 0
-1412 -1460 0
-1412 -1461 0
-1412 -1462 0
-1412 -1463 0
-1413 -1414 0
-1413 -1415 0
-1413 -1416 0
-1413 -1417 0
-1413 -1418 0
-1413 -1419 0
-1413 -1420 0
-1413 -1421 0
-1413 -1422 0
-1413 -1423 0
-1413 -1424 0
-1413 -1425 0
-1413 -1426 0
-1413 -1427 0
-1413 -1428 0
-1413 -1429 0
-1413 -1430 0
-1413 -1431 0
-1413 -1432 0
-1413 -1433 0
-1413 -1434 0
-1413 -1435 0
-1413 -1436 0
-1413 -1437 0
-1413 -1438 0
-1413 -1439 0
-1413 -1440 0
-1413 -1441 0
-1413 -1442 0
-1413 -1443 0
-1413 -1444 0
-1413 -1445 0
-1413 -1446 0
-1413 -1447 0
-1413 -1448 0
-1413 -1449 0
-1413 -1450 0
-1413 -1451 0
-1413 -1452 0
-1413 -1453 0
-1413 -1454 0
-1413 -1455 0
-1413 -1456 0
-1413 -1457 0
-1413 -1458 0
-1413 -1459 0
-1413 -1460 0
-1413 -1461 0
-1413 -1462 0
-1413 -1463 0
-1414 -1415 0
-1414 -1416 0
-1414 -1417 0
-1414 -1418 0
-1414 -1419 0
-1414 -1420 0
-1414 -1421 0
-1414 -1422 0
-1414 -1423 0
-1414 -1424 0
-1414 -1425 0
-1414 -1426 0
-1414 -1427 0
-1414 -1428 0
-1414 -1429 0
-1414 -1430 0
-1414 -1431 0
-1414 -1432 0
-1414 -1433 0
-1414 -1434 0
-1414 -1435 0
-1414 -1436 0
-1414 -1437 0
-1414 -1438 0
-1414 -1439 0
-1414 -1440 0
-1414 -1441 0
-1414 -1442 0
-1414 -1443 0
-1414 -1444 0
-1414 -1445 0
-1414 -1446 0
-1414 -1447 0
-1414 -1448 0
-1414 -1449 0
-1414 -1450 0
-1414 -1451 0
-1414 -1452 0
-1414 -1453 0
-1414 -1454 0
-1414 -1455 0
-1414 -1456 0
-1414 -1457 0
-1414 -1458 0
-1414 -1459 0
-1414 -1460 0
-1414 -1461 0
-1414 -1462 0
-1414 -1463 0
-1415 -1416 0
-1415 -1417 0
-1415 -1418 0
-1415 -1419 0
-1415 -1420 0
-1415 -1421 0
-1415 -1422 0
-1415 -1423 0
-1415 -1424 0
-1415 -1425 0
-1415 -1426 0
-1415 -1427 0
-1415 -1428 0
-1415 -1429 0
-1415 -1430 0
-1415 -1431 0
-1415 -1432 0
-1415 -1433 0
-1415 -1434 0
-1415 -1435 0
-1415 -1436 0
-1415 -1437 0
-1415 -1438 0
-1415 -1439 0
-1415 -1440 0
-1415 -1441 0
-1415 -1442 0
-1415 -1443 0
-1415 -1444 0
-1415 -1445 0
-1415 -1446 0
-1415 -1447 0
-1415 -1448 0
-1415 -1449 0
-1415 -1450 0
-1415 -1451 0
-1415 -1452 0
-1415 -1453 0
-1415 -1454 0
-1415 -1455 0
-1415 -1456 0
-1415 -1457 0
-1415 -1458 0
-1415 -1459 0
-1415 -1460 0
-1415 -1461 0
-1415 -1462 0
-1415 -1463 0
-1416 -1417 0
-1416 -1418 0
-1416 -1419 0
-1416 -1420 0
-1416 -1421 0
-1416 -1422 0
-1416 -1423 0
-1416 -1424 0
-1416 -1425 0
-1416 -1426 0
-1416 -1427 0
-1416 -1428 0
-1416 -1429 0
-1416 -1430 0
-1416 -1431 0
-1416 -1432 0
-1416 -1433 0
-1416 -1434 0
-1416 -1435 0
-1416 -1436 0
-1416 -1437 0
-1416 -1438 0
-1416 -1439 0
-1416 -1440 0
-1416 -1441 0
-1416 -1442 0
-1416 -1443 0
-1416 -1444 0
-1416 -1445 0
-1416 -1446 0
-1416 -1447 0
-1416 -1448 0
-1416 -1449 0
-1416 -1450 0
-1416 -1451 0
-1416 -1452 0
-1416 -1453 0
-1416 -1454 0
-1416 -1455 0
-1416 -1456 0
-1416 -1457 0
-1416 -1458 0
-1416 -1459 0
-1416 -1460 0
-1416 -1461 0
-1416 -1462 0
-1416 -1463 0
-1417 -1418 0
-1417 -1419 0
-1417 -1420 0
-1417 -1421 0
-1417 -1422 0
-1417 -1423 0
-1417 -1424 0
-1417 -1425 0
-1417 -1426 0
-1417 -1427 0
-1417 -1428 0
-1417 -1429 0
-1417 -1430 0
-1417 -1431 0
-1417 -1432 0
-1417 -1433 0
-1417 -1434 0
-1417 -1435 0
-1417 -1436 0
-1417 -1437 0
-1417 -1438 0
-1417 -1439 0
-1417 -1440 0
-1417 -1441 0
-1417 -1442 0
-1417 -1443 0
-1417 -1444 0
-1417 -1445 0
-1417 -1446 0
-1417 -1447 0
-1417 -1448 0
-1417 -1449 0
-1417 -1450 0
-1417 -1451 0
-1417 -1452 0
-1417 -1453 0
-1417 -1454 0
-1417 -1455 0
-1417 -1456 0
-1417 -1457 0
-1417 -1458 0
-1417 -1459 0
-1417 -1460 0
-1417 -1461 0
-1417 -1462 0
-1417 -1463 0
-1418 -1419 0
-1418 -1420 0
-1418 -1421 0
-1418 -1422 0
-1418 -1423 0
-1418 -1424 0
-1418 -1425 0
-1418 -1426 0
-1418 -1427 0
-1418 -1428 0
-1418 -1429 0
-1418 -1430 0
-1418 -1431 0
-1418 -1432 0
-1418 -1433 0
-1418 -1434 0
-1418 -1435 0
-1418 -1436 0
-1418 -1437 0
-1418 -1438 0
-1418 -1439 0
-1418 -1440 0
-1418 -1441 0
-1418 -1442 0
-1418 -1443 0
-1418 -1444 0
-1418 -1445 0
-1418 -1446 0
-1418 -1447 0
-1418 -1448 0
-1418 -1449 0
-1418 -1450 0
-1418 -1451 0
-1418 -1452 0
-1418 -1453 0
-1418 -1454 0
-1418 -1455 0
-1418 -1456 0
-1418 -1457 0
-1418 -1458 0
-1418 -1459 0
-1418 -1460 0
-1418 -1461 0
-1418 -1462 0
-1418 -1463 0
-1419 -1420 0
-1419 -1421 0
-1419 -1422 0
-1419 -1423 0
-1419 -1424 0
-1419 -1425 0
-1419 -1426 0
-1419 -1427 0
-1419 -1428 0
-1419 -1429 0
-1419 -1430 0
-1419 -1431 0
-1419 -1432 0
-1419 -1433 0
-1419 -1434 0
-1419 -1435 0
-1419 -1436 0
-1419 -1437 0
-1419 -1438 0
-1419 -1439 0
-1419 -1440 0
-1419 -1441 0
-1419 -1442 0
-1419 -1443 0
-1419 -1444 0
-1419 -1445 0
-1419 -1446 0
-1419 -1447 0
-1419 -1448 0
-1419 -1449 0
-1419 -1450 0
-1419 -1451 0
-1419 -1452 0
-1419 -1453 0
-1419 -1454 0
-1419 -1455 0
-1419 -1456 0
-1419 -1457 0
-1419 -1458 0
-1419 -1459 0
-1419 -1460 0
-1419 -1461 0
-1419 -1462 0
-1419 -1463 0
-1420 -1421 0
-1420 -1422 0
-1420 -1423 0
-1420 -1424 0
-1420 -1425 0
-1420 -1426 0
-1420 -1427 0
-1420 -1428 0
-1420 -1429 0
-1420 -1430 0
-1420 -1431 0
-1420 -1432 0
-1420 -1433 0
-1420 -1434 0
-1420 -1435 0
-1420 -1436 0
-1420 -1437 0
-1420 -1438 0
-1420 -1439 0
-1420 -1440 0
-1420 -1441 0
-1420 -1442 0
-1420 -1443 0
-1420 -1444 0
-1420 -1445 0
-1420 -1446 0
-1420 -1447 0
-1420 -1448 0
-1420 -1449 0
-1420 -1450 0
-1420 -1451 0
-1420 -1452 0
-1420 -1453 0
-1420 -1454 0
-1420 -1455 0
-1420 -1456 0
-1420 -1457 0
-1420 -1458 0
-1420 -1459 0
-1420 -1460 0
-1420 -1461 0
-1420 -1462 0
-1420 -1463 0
-1421 -1422 0
-1421 -1423 0
-1421 -1424 0
-1421 -1425 0
-1421 -1426 0
-1421 -1427 0
-1421 -1428 0
-1421 -1429 0
-1421 -1430 0
-1421 -1431 0
-1421 -1432 0
-1421 -1433 0
-1421 -1434 0
-1421 -1435 0
-1421 -1436 0
-1421 -1437 0
-1421 -1438 0
-1421 -1439 0
-1421 -1440 0
-1421 -1441 0
-1421 -1442 0
-1421 -1443 0
-1421 -1444 0
-1421 -1445 0
-1421 -1446 0
-1421 -1447 0
-1421 -1448 0
-1421 -1449 0
-1421 -1450 0
-1421 -1451 0
-1421 -1452 0
-1421 -1453 0
-1421 -1454 0
-1421 -1455 0
-1421 -1456 0
-1421 -1457 0
-1421 -1458 0
-1421 -1459 0
-1421 -1460 0
-1421 -1461 0
-1421 -1462 0
-1421 -1463 0
-1422 -1423 0
-1422 -1424 0
-1422 -1425 0
-1422 -1426 0
-1422 -1427 0
-1422 -1428 0
-1422 -1429 0
-1422 -1430 0
-1422 -1431 0
-1422 -1432 0
-1422 -1433 0
-1422 -1434 0
-1422 -1435 0
-1422 -1436 0
-1422 -1437 0
-1422 -1438 0
-1422 -1439 0
-1422 -1440 0
-1422 -1441 0
-1422 -1442 0
-1422 -1443 0
-1422 -1444 0
-1422 -1445 0
-1422 -1446 0
-1422 -1447 0
-1422 -1448 0
-1422 -1449 0
-1422 -1450 0
-1422 -1451 0
-1422 -1452 0
-1422 -1453 0
-1422 -1454 0
-1422 -1455 0
-1422 -1456 0
-1422 -1457 0
-1422 -1458 0
-1422 -1459 0
-1422 -1460 0
-1422 -1461 0
-1422 -1462 0
-1422 -1463 0
-1423 -1424 0
-1423 -1425 0
-1423 -1426 0
-1423 -1427 0
-1423 -1428 0
-1423 -1429 0
-1423 -1430 0
-1423 -1431 0
-1423 -1432 0
-1423 -1433 0
-1423 -1434 0
-1423 -1435 0
-1423 -1436 0
-1423 -1437 0
-1423 -1438 0
-1423 -1439 0
-1423 -1440 0
-1423 -1441 0
-1423 -1442 0
-1423 -1443 0
-1423 -1444 0
-1423 -1445 0
-1423 -1446 0
-1423 -1447 0
-1423 -1448 0
-1423 -1449 0
-1423 -1450 0
-1423 -1451 0
-1423 -1452 0
-1423 -1453 0
-1423 -1454 0
-1423 -1455 0
-1423 -1456 0
-1423 -1457 0
-1423 -1458 0
-1423 -1459 0
-1423 -1460 0
-1423 -1461 0
-1423 -1462 0
-1423 -1463 0
-1424 -1425 0
-1424 -1426 0
-1424 -1427 0
-1424 -1428 0
-1424 -1429 0
-1424 -1430 0
-1424 -1431 0
-1424 -1432 0
-1424 -1433 0
-1424 -1434 0
-1424 -1435 0
-1424 -1436 0
-1424 -1437 0
-1424 -1438 0
-1424 -1439 0
-1424 -1440 0
-1424 -1441 0
-1424 -1442 0
-1424 -1443 0
-1424 -1444 0
-1424 -1445 0
-1424 -1446 0
-1424 -1447 0
-1424 -1448 0
-1424 -1449 0
-1424 -1450 0
-1424 -1451 0
-1424 -1452 0
-1424 -1453 0
-1424 -1454 0
-1424 -1455 0
-1424 -1456 0
-1424 -1457 0
-1424 -1458 0
-1424 -1459 0
-1424 -1460 0
-1424 -1461 0
-1424 -1462 0
-1424 -1463 0
-1425 -1426 0
-1425 -1427 0
-1425 -1428 0
-1425 -1429 0
-1425 -1430 0
-1425 -1431 0
-1425 -1432 0
-1425 -1433 0
-1425 -1434 0
-1425 -1435 0
-1425 -1436 0
-1425 -1437 0
-1425 -1438 0
-1425 -1439 0
-1425 -1440 0
-1425 -1441 0
-1425 -1442 0
-1425 -1443 0
-1425 -1444 0
-1425 -1445 0
-1425 -1446 0
-1425 -1447 0
-1425 -1448 0
-1425 -1449 0
-1425 -1450 0
-1425 -1451 0
-1425 -1452 0
-1425 -1453 0
-1425 -1454 0
-1425 -1455 0
-1425 -1456 0
-1425 -1457 0
-1425 -1458 0
-1425 -1459 0
-1425 -1460 0
-1425 -1461 0
-1425 -1462 0
-1425 -1463 0
-1426 -1427 0
-1426 -1428 0
-1426 -1429 0
-1426 -1430 0
-1426 -1431 0
-1426 -1432 0
-1426 -1433 0
-1426 -1434 0
-1426 -1435 0
-1426 -1436 0
-1426 -1437 0
-1426 -1438 0
-1426 -1439 0
-1426 -1440 0
-1426 -1441 0
-1426 -1442 0
-1426 -1443 0
-1426 -1444 0
-1426 -1445 0
-1426 -1446 0
-1426 -1447 0
-1426 -1448 0
-1426 -1449 0
-1426 -1450 0
-1426 -1451 0
-1426 -1452 0
-1426 -1453 0
-1426 -1454 0
-1426 -1455 0
-1426 -1456 0
-1426 -1457 0
-1426 -1458 0
-1426 -1459 0
-1426 -1460 0
-1426 -1461 0
-1426 -1462 0
-1426 -1463 0
-1427 -1428 0
-1427 -1429 0
-1427 -1430 0
-1427 -1431 0
-1427 -1432 0
-1427 -1433 0
-1427 -1434 0
-1427 -1435 0
-1427 -1436 0
-1427 -1437 0
-1427 -1438 0
-1427 -1439 0
-1427 -1440 0
-1427 -1441 0
-1427 -1442 0
-1427 -1443 0
-1427 -1444 0
-1427 -1445 0
-1427 -1446 0
-1427 -1447 0
-1427 -1448 0
-1427 -1449 0
-1427 -1450 0
-1427 -1451 0
-1427 -1452 0
-1427 -1453 0
-1427 -1454 0
-1427 -1455 0
-1427 -1456 0
-1427 -1457 0
-1427 -1458 0
-1427 -1459 0
-1427 -1460 0
-1427 -1461 0
-1427 -1462 0
-1427 -1463 0
-1428 -1429 0
-1428 -1430 0
-1428 -1431 0
-1428 -1432 0
-1428 -1433 0
-1428 -1434 0
-1428 -1435 0
-1428 -1436 0
-1428 -1437 0
-1428 -1438 0
-1428 -1439 0
-1428 -1440 0
-1428 -1441 0
-1428 -1442 0
-1428 -1443 0
-1428 -1444 0
-1428 -1445 0
-1428 -1446 0
-1428 -1447 0
-1428 -1448 0
-1428 -1449 0
-1428 -1450 0
-1428 -1451 0
-1428 -1452 0
-1428 -1453 0
-1428 -1454 0
-1428 -1455 0
-1428 -1456 0
-1428 -1457 0
-1428 -1458 0
-1428 -1459 0
-1428 -1460 0
-1428 -1461 0
-1428 -1462 0
-1428 -1463 0
-1429 -1430 0
-1429 -1431 0
-1429 -1432 0
-1429 -1433 0
-1429 -1434 0
-1429 -1435 0
-1429 -1436 0
-1429 -1437 0
-1429 -1438 0
-1429 -1439 0
-1429 -1440 0
-1429 -1441 0
-1429 -1442 0
-1429 -1443 0
-1429 -1444 0
-1429 -1445 0
-1429 -1446 0
-1429 -1447 0
-1429 -1448 0
-1429 -1449 0
-1429 -1450 0
-1429 -1451 0
-1429 -1452 0
-1429 -1453 0
-1429 -1454 0
-1429 -1455 0
-1429 -1456 0
-1429 -1457 0
-1429 -1458 0
-1429 -1459 0
-1429 -1460 0
-1429 -1461 0
-1429 -1462 0
-1429 -1463 0
-1430 -1431 0
-1430 -1432 0
-1430 -1433 0
-1430 -1434 0
-1430 -1435 0
-1430 -1436 0
-1430 -1437 0
-1430 -1438 0
-1430 -1439 0
-1430 -1440 0
-1430 -1441 0
-1430 -1442 0
-1430 -1443 0
-1430 -1444 0
-1430 -1445 0
-1430 -1446 0
-1430 -1447 0
-1430 -1448 0
-1430 -1449 0
-1430 -1450 0
-1430 -1451 0
-1430 -1452 0
-1430 -1453 0
-1430 -1454 0
-1430 -1455 0
-1430 -1456 0
-1430 -1457 0
-1430 -1458 0
-1430 -1459 0
-1430 -1460 0
-1430 -1461 0
-1430 -1462 0
-1430 -1463 0
-1431 -1432 0
-1431 -1433 0
-1431 -1434 0
-1431 -1435 0
-1431 -1436 0
-1431 -1437 0
-1431 -1438 0
-1431 -1439 0
-1431 -1440 0
-1431 -1441 0
-1431 -1442 0
-1431 -1443 0
-1431 -1444 0
-1431 -1445 0
-1431 -1446 0
-1431 -1447 0
-1431 -1448 0
-1431 -1449 0
-1431 -1450 0
-1431 -1451 0
-1431 -1452 0
-1431 -1453 0
-1431 -1454 0
-1431 -1455 0
-1431 -1456 0
-1431 -1457 0
-1431 -1458 0
-1431 -1459 0
-1431 -1460 0
-1431 -1461 0
-1431 -1462 0
-1431 -1463 0
-1432 -1433 0
-1432 -1434 0
-1432 -1435 0
-1432 -1436 0
-1432 -1437 0
-1432 -1438 0
-1432 -1439 0
-1432 -1440 0
-1432 -1441 0
-1432 -1442 0
-1432 -1443 0
-1432 -1444 0
-1432 -1445 0
-1432 -1446 0
-1432 -1447 0
-1432 -1448 0
-1432 -1449 0
-1432 -1450 0
-1432 -1451 0
-1432 -1452 0
-1432 -1453 0
-1432 -1454 0
-1432 -1455 0
-1432 -1456 0
-1432 -1457 0
-1432 -1458 0
-1432 -1459 0
-1432 -1460 0
-1432 -1461 0
-1432 -1462 0
-1432 -1463 0
-1433 -1434 0
-1433 -1435 0
-1433 -1436 0
-1433 -1437 0
-1433 -1438 0
-1433 -1439 0
-1433 -1440 0
-1433 -1441 0
-1433 -1442 0
-1433 -1443 0
-1433 -1444 0
-1433 -1445 0
-1433 -1446 0
-1433 -1447 0
-1433 -1448 0
-1433 -1449 0
-1433 -1450 0
-1433 -1451 0
-1433 -1452 0
-1433 -1453 0
-1433 -1454 0
-1433 -1455 0
-1433 -1456 0
-1433 -1457 0
-1433 -1458 0
-1433 -1459 0
-1433 -1460 0
-1433 -1461 0
-1433 -1462 0
-1433 -1463 0
-1434 -1435 0
-1434 -1436 0
-1434 -1437 0
-1434 -1438 0
-1434 -1439 0
-1434 -1440 0
-1434 -1441 0
-1434 -1442 0
-1434 -1443 0
-1434 -1444 0
-1434 -1445 0
-1434 -1446 0
-1434 -1447 0
-1434 -1448 0
-1434 -1449 0
-1434 -1450 0
-1434 -1451 0
-1434 -1452 0
-1434 -1453 0
-1434 -1454 0
-1434 -1455 0
-1434 -1456 0
-1434 -1457 0
-1434 -1458 0
-1434 -1459 0
-1434 -1460 0
-1434 -1461 0
-1434 -1462 0
-1434 -1463 0
-1435 -1436 0
-1435 -1437 0
-1435 -1438 0
-1435 -1439 0
-1435 -1440 0
-1435 -1441 0
-1435 -1442 0
-1435 -1443 0
-1435 -1444 0
-1435 -1445 0
-1435 -1446 0
-1435 -1447 0
-1435 -1448 0
-1435 -1449 0
-1435 -1450 0
-1435 -1451 0
-1435 -1452 0
-1435 -1453 0
-1435 -1454 0
-1435 -1455 0
-1435 -1456 0
-1435 -1457 0
-1435 -1458 0
-1435 -1459 0
-1435 -1460 0
-1435 -1461 0
-1435 -1462 0
-1435 -1463 0
-1436 -1437 0
-1436 -1438 0
-1436 -1439 0
-1436 -1440 0
-1436 -1441 0
-1436 -1442 0
-1436 -1443 0
-1436 -1444 0
-1436 -1445 0
-1436 -1446 0
-1436 -1447 0
-1436 -1448 0
-1436 -1449 0
-1436 -1450 0
-1436 -1451 0
-1436 -1452 0
-1436 -1453 0
-1436 -1454 0
-1436 -1455 0
-1436 -1456 0
-1436 -1457 0
-1436 -1458 0
-1436 -1459 0
-1436 -1460 0
-1436 -1461 0
-1436 -1462 0
-1436 -1463 0
-1437 -1438 0
-1437 -1439 0
-1437 -1440 0
-1437 -1441 0
-1437 -1442 0
-1437 -1443 0
-1437 -1444 0
-1437 -1445 0
-1437 -1446 0
-1437 -1447 0
-1437 -1448 0
-1437 -1449 0
-1437 -1450 0
-1437 -1451 0
-1437 -1452 0
-1437 -1453 0
-1437 -1454 0
-1437 -1455 0
-1437 -1456 0
-1437 -1457 0
-1437 -1458 0
-1437 -1459 0
-1437 -1460 0
-1437 -1461 0
-1437 -1462 0
-1437 -1463 0
-1438 -1439 0
-1438 -1440 0
-1438 -1441 0
-1438 -1442 0
-1438 -1443 0
-1438 -1444 0
-1438 -1445 0
-1438 -1446 0
-1438 -1447 0
-1438 -1448 0
-1438 -1449 0
-1438 -1450 0
-1438 -1451 0
-1438 -1452 0
-1438 -1453 0
-1438 -1454 0
-1438 -1455 0
-1438 -1456 0
-1438 -1457 0
-1438 -1458 0
-1438 -1459 0
-1438 -1460 0
-1438 -1461 0
-1438 -1462 0
-1438 -1463 0
-1439 -1440 0
-1439 -1441 0
-1439 -1442 0
-1439 -1443 0
-1439 -1444 0
-1439 -1445 0
-1439 -1446 0
-1439 -1447 0
-1439 -1448 0
-1439 -1449 0
-1439 -1450 0
-1439 -1451 0
-1439 -1452 0
-1439 -1453 0
-1439 -1454 0
-1439 -1455 0
-1439 -1456 0
-1439 -1457 0
-1439 -1458 0
-1439 -1459 0
-1439 -1460 0
-1439 -1461 0
-1439 -1462 0
-1439 -1463 0
-1440 -1441 0
-1440 -1442 0
-1440 -1443 0
-1440 -1444 0
-1440 -1445 0
-1440 -1446 0
-1440 -1447 0
-1440 -1448 0
-1440 -1449 0
-1440 -1450 0
-1440 -1451 0
-1440 -1452 0
-1440 -1453 0
-1440 -1454 0
-1440 -1455 0
-1440 -1456 0
-1440 -1457 0
-1440 -1458 0
-1440 -1459 0
-1440 -1460 0
-1440 -1461 0
-1440 -1462 0
-1440 -1463 0
-1441 -1442 0
-1441 -1443 0
-1441 -1444 0
-1441 -1445 0
-1441 -1446 0
-1441 -1447 0
-1441 -1448 0
-1441 -1449 0
-1441 -1450 0
-1441 -1451 0
-1441 -1452 0
-1441 -1453 0
-1441 -1454 0
-1441 -1455 0
-1441 -1456 0
-1441 -1457 0
-1441 -1458 0
-1441 -1459 0
-1441 -1460 0
-1441 -1461 0
-1441 -1462 0
-1441 -1463 0
-1442 -1443 0
-1442 -1444 0
-1442 -1445 0
-1442 -1446 0
-1442 -1447 0
-1442 -1448 0
-1442 -1449 0
-1442 -1450 0
-1442 -1451 0
-1442 -1452 0
-1442 -1453 0
-1442 -1454 0
-1442 -1455 0
-1442 -1456 0
-1442 -1457 0
-1442 -1458 0
-1442 -1459 0
-1442 -1460 0
-1442 -1461 0
-1442 -1462 0
-1442 -1463 0
-1443 -1444 0
-1443 -1445 0
-1443 -1446 0
-1443 -1447 0
-1443 -1448 0
-1443 -1449 0
-1443 -1450 0
-1443 -1451 0
-1443 -1452 0
-1443 -1453 0
-1443 -1454 0
-1443 -1455 0
-1443 -1456 0
-1443 -1457 0
-1443 -1458 0
-1443 -1459 0
-1443 -1460 0
-1443 -1461 0
-1443 -1462 0
-1443 -1463 0
-1444 -1445 0
-1444 -1446 0
-1444 -1447 0
-1444 -1448 0
-1444 -1449 0
-1444 -1450 0
-1444 -1451 0
-1444 -1452 0
-1444 -1453 0
-1444 -1454 0
-1444 -1455 0
-1444 -1456 0
-1444 -1457 0
-1444 -1458 0
-1444 -1459 0
-1444 -1460 0
-1444 -1461 0
-1444 -1462 0
-1444 -1463 0
-1445 -1446 0
-1445 -1447 0
-1445 -1448 0
-1445 -1449 0
-1445 -1450 0
-1445 -1451 0
-1445 -1452 0
-1445 -1453 0
-1445 -1454 0
-1445 -1455 0
-1445 -1456 0
-1445 -1457 0
-1445 -1458 0
-1445 -1459 0
-1445 -1460 0
-1445 -1461 0
-1445 -1462 0
-1445 -1463 0
-1446 -1447 0
-1446 -1448 0
-1446 -1449 0
-1446 -1450 0
-1446 -1451 0
-1446 -1452 0
-1446 -1453 0
-1446 -1454 0
-1446 -1455 0
-1446 -1456 0
-1446 -1457 0
-1446 -1458 0
-1446 -1459 0
-1446 -1460 0
-1446 -1461 0
-1446 -1462 0
-1446 -1463 0
-1447 -1448 0
-1447 -1449 0
-1447 -1450 0
-1447 -1451 0
-1447 -1452 0
-1447 -1453 0
-1447 -1454 0
-1447 -1455 0
-1447 -1456 0
-1447 -1457 0
-1447 -1458 0
-1447 -1459 0
-1447 -1460 0
-1447 -1461 0
-1447 -1462 0
-1447 -1463 0
-1448 -1449 0
-1448 -1450 0
-1448 -1451 0
-1448 -1452 0
-1448 -1453 0
-1448 -1454 0
-1448 -1455 0
-1448 -1456 0
-1448 -1457 0
-1448 -1458 0
-1448 -1459 0
-1448 -1460 0
-1448 -1461 0
-1448 -1462 0
-1448 -1463 0
-1449 -1450 0
-1449 -1451 0
-1449 -1452 0
-1449 -1453 0
-1449 -1454 0
-1449 -1455 0
-1449 -1456 0
-1449 -1457 0
-1449 -1458 0
-1449 -1459 0
-1449 -1460 0
-1449 -1461 0
-1449 -1462 0
-1449 -1463 0
-1450 -1451 0
-1450 -1452 0
-1450 -1453 0
-1450 -1454 0
-1450 -1455 0
-1450 -1456 0
-1450 -1457 0
-1450 -1458 0
-1450 -1459 0
-1450 -1460 0
-1450 -1461 0
-1450 -1462 0
-1450 -1463 0
-1451 -1452 0
-1451 -1453 0
-1451 -1454 0
-1451 -1455 0
-1451 -1456 0
-1451 -1457 0
-1451 -1458 0
-1451 -1459 0
-1451 -1460 0
-1451 -1461 0
-1451 -1462 0
-1451 -1463 0
-1452 -1453 0
-1452 -1454 0
-1452 -1455 0
-1452 -1456 0
-1452 -1457 0
-1452 -1458 0
-1452 -1459 0
-1452 -1460 0
-1452 -1461 0
-1452 -1462 0
-1452 -1463 0
-1453 -1454 0
-1453 -1455 0
-1453 -1456 0
-1453 -1457 0
-1453 -1458 0
-1453 -1459 0
-1453 -1460 0
-1453 -1461 0
-1453 -1462 0
-1453 -1463 0
-1454 -1455 0
-1454 -1456 0
-1454 -1457 0
-1454 -1458 0
-1454 -1459 0
-1454 -1460 0
-1454 -1461 0
-1454 -1462 0
-1454 -1463 0
-1455 -1456 0
-1455 -1457 0
-1455 -1458 0
-1455 -1459 0
-1455 -1460 0
-1455 -1461 0
-1455 -1462 0
-1455 -1463 0
-1456 -1457 0
-1456 -1458 0
-1456 -1459 0
-1456 -1460 0
-1456 -1461 0
-1456 -1462 0
-1456 -1463 0
-1457 -1458 0
-1457 -1459 0
-1457 -1460 0
-1457 -1461 0
-1457 -1462 0
-1457 -1463 0
-1458 -1459 0
-1458 -1460 0
-1458 -1461 0
-1458 -1462 0
-1458 -1463 0
-1459 -1460 0
-1459 -1461 0
-1459 -1462 0
-1459 -1463 0
-1460 -1461 0
-1460 -1462 0
-1460 -1463 0
-1461 -1462 0
-1461 -1463 0
-1462 -1463 0
-1464 8 0
-1464 153 0
-8 -153 1464 0
-1465 29 0
-1465 169 0
-29 -169 1465 0
-1466 50 0
-1466 185 0
-50 -185 1466 0
-1467 71 0
-1467 201 0
-71 -201 1467 0
-1468 92 0
-1468 217 0
-92 -217 1468 0
-1469 113 0
-1469 233 0
-113 -233 1469 0
-1470 134 0
-1470 249 0
-134 -249 1470 0
-21 -160 1464 0
-42 -176 1464 1465 0
-63 -192 1464 1465 1466 0
-84 -208 1464 1465 1466 1467 0
-105 -224 1464 1465 1466 1467 1468 0
-126 -240 1464 1465 1466 1467 1468 1469 0
-147 -256 1464 1465 1466 1467 1468 1469 1470 0
